	roi	task	n_boot	func	loc	loc_deg	kappa1	scale1	kappa2	scale2	maxr	minr	amp	fwhm
0	1.0	ltm	0	diff_vonmises	-0.46899807034135554	-26.87161003033938	0.13450383083008483	5.8581870889636996	6.782238489930291e-07	7.772660842124738	-0.17527594963012838	-0.4257084525178383	0.2504325028877099	166.90671772206395
1	1.0	perception	0	diff_vonmises	-0.14112106307071487	-8.085641314351463	14.700920485851423	0.660453637243643	0.12718489531312865	2.6637330719096086	0.5218538724465667	-0.45312247111799997	0.9749763435645666	34.8017384828953
2	1.0	wm	0	diff_vonmises	-0.17027300248285368	-9.755924407288104	3.1225067775450865	0.629140205136798	0.14955697387828784	2.1731492686050506	0.022100182657047496	-0.3255027781978254	0.3476029608548729	70.75232356554042
3	2.0	ltm	0	diff_vonmises	-0.07834580760162203	-4.488884118116905	3.8215045724232235	0.5035742487002153	2.235378343559196e-19	1.8256334923260444	0.08700816860634197	-0.29037754484332	0.377385713449662	70.09161455051625
4	2.0	perception	0	diff_vonmises	0.008087007891339188	0.463351421062727	5.846215947790119	1.417813306354834	0.41423425384646384	2.759138039675531	0.6984817287133133	-0.45701436980264604	1.1554960985159592	52.49491973310202
5	2.0	wm	0	diff_vonmises	0.4548812856139152	26.062777845162312	3.520844832318857	0.49073786832423766	2.89957169272587e-13	1.4864248831892588	0.1151362532528076	-0.23626424578215013	0.35140049903495774	73.0728873488093
6	3.0	ltm	0	diff_vonmises	-0.20136559535936988	-11.53739875323101	2.576805227328001	1.2215822063779411	0.5081678351909935	2.3576613586790818	0.14745691098802227	-0.298407173295533	0.4458640842835553	70.30704825107901
7	3.0	perception	0	diff_vonmises	-0.0822486096819967	-4.71249820559725	3.5585109953437386	2.3370897592730047	0.34212204889261477	3.7100702076583754	0.8772848111608234	-0.5261433655507757	1.403428176711599	66.62427139022617
8	3.0	wm	0	diff_vonmises	0.2587583700722121	14.825762518822023	0.7358879178031823	79.32000098886753	0.7115645972238221	79.68168363607714	0.2643413865067181	-0.20179820708692464	0.46613959359364276	106.01222650461003
9	4.0	ltm	0	diff_vonmises	-0.3329773233541338	-19.078195301754768	5.756942429087499	0.5574206202059293	0.24010019454400136	2.326083847061088	0.05689567316947308	-0.3852502330619593	0.4421459062314324	52.37143619225316
10	4.0	perception	0	diff_vonmises	-0.126171098677804	-7.22907145076681	0.9697118902699493	472.3609194033604	0.9568246642161536	474.33460235083794	0.49665993274166453	-0.6169712166921926	1.113631149433857	88.20127896974157
11	4.0	wm	0	diff_vonmises	-0.5696192325685214	-32.636777955657166	1.0829055509953882	211.29218970624154	1.0703884515968383	212.90368181669018	-0.075556744832042	-0.35209991672209284	0.27654317189005084	73.90134656562786
12	5.0	ltm	0	diff_vonmises	-0.2376903236322459	-13.618652375226342	1.0622255126580937	122.83857879441778	1.0400688004680876	123.56019249811386	0.26029556761015726	-0.25234611369777404	0.5126416813079313	85.54554977476056
13	5.0	perception	0	diff_vonmises	-0.09052645681569138	-5.186783909812422	1.3723039741880239	6.717633693507738	0.6780961185625971	7.675842187527289	0.6055440322577801	-0.42923221719257265	1.0347762494503527	89.07069326867997
14	5.0	wm	0	diff_vonmises	-0.1583317977576948	-9.071743774234823	0.5344242484015893	121.32081055862321	0.5192805710818709	121.74334522250915	0.23896630053788215	-0.2397836647312026	0.47874996526908475	122.13926353630872
15	6.0	ltm	0	diff_vonmises	-0.38407642859505475	-22.005958368954364	0.8042169915923	92.18541898868392	0.781234017189392	93.20586238464801	0.09841584209825172	-0.26472287205408485	0.36313871415233656	94.18177493166216
16	6.0	perception	0	diff_vonmises	0.0016971898036484442	0.09724181278169274	0.5665488863404027	144.7687393632978	0.5498624805572594	145.85246738641098	0.1776018999878204	-0.3510038773717614	0.5286057773595818	115.19097894638513
17	6.0	wm	0	diff_vonmises	0.34158583049765523	19.571426428986765	0.00016275517347889327	4387.376999439218	1.0416626957889918e-30	4388.344891166583	-0.04039580829817169	-0.26768444995320806	0.22728864165503637	176.33864106333004
18	7.0	ltm	0	diff_vonmises	-0.145548322786817	-8.339304610892404	1.1299642225968056	206.48366961444566	1.1135920801700703	208.05890169712717	0.05927600326650406	-0.3845155390288788	0.44379154229538287	76.60731173634113
19	7.0	perception	0	diff_vonmises	-0.3663574008210873	-20.990732860430942	0.7625663529313614	276.2087005684188	0.747062230124544	277.92491726167145	0.31380878302044835	-0.5123516075557966	0.8261603905762449	98.86042736510379
20	7.0	wm	0	diff_vonmises	0.5352510868901056	30.667628258593158	1.5667233641429652	68.13126845712377	1.5216579811616955	69.07562466144701	0.1194772279970131	-0.2835663085669111	0.4030435365639242	66.85292857593811
0	1.0	ltm	1	diff_vonmises	-0.27521938637831367	-15.768909279657672	0.0005796223232255428	1652.8350834393	1.0795853407254815e-23	1654.980618400437	-0.1889780092844262	-0.4939227928764467	0.3049447835920205	177.8120151750022
1	1.0	perception	1	diff_vonmises	-0.10837332811982774	-6.209334313052574	9.19213600758782	1.031951852223794	0.23890492826328302	3.227692679383549	0.5870909580921787	-0.558519824296771	1.1456107823889496	43.11921079420131
2	1.0	wm	1	diff_vonmises	-0.09822080905632119	-5.627637819287538	3.0906173674907444	0.6191608320797372	0.09273555419270453	2.4106522635746064	-0.007626612947766842	-0.3657672163828857	0.35814060343511883	72.75986790536192
3	2.0	ltm	1	diff_vonmises	-0.07836774484003048	-4.490141029291881	2.9542849484281724	0.4886286636200897	3.3500976620927006e-19	1.9626918218240412	0.00483198279614927	-0.3115103709364211	0.31634235373257036	79.96363732940085
4	2.0	perception	1	diff_vonmises	-0.02050974641364938	-1.1751219083856859	6.349626038293814	1.3401551581458497	0.26854613726081455	2.713023414457141	0.7636443868999478	-0.4447035864308656	1.2083479733308136	51.634867447373864
5	2.0	wm	1	diff_vonmises	0.4719338666620366	27.039818769024443	3.5314309103206143	0.5442657036209511	8.257543881958131e-15	1.6275553029585488	0.13168922462510269	-0.2586988858525125	0.3903881104776152	72.95886258420595
6	3.0	ltm	1	diff_vonmises	-0.1855896419459211	-10.63350320484539	2.710856734841771	0.581362223758268	2.095953562724733e-11	1.5185977707603473	0.1175031729414156	-0.2401046769163551	0.3576078498577707	83.51357171412931
7	3.0	perception	1	diff_vonmises	-0.10478667639338565	-6.003834306544133	2.744281898432013	2.7580906517675614	0.4017065425018268	3.6430668014593635	0.8837955793478438	-0.45151126720908524	1.335306846556929	74.29314072802137
8	3.0	wm	1	diff_vonmises	0.08270995897873994	4.738931573181967	0.8080086371686598	126.17697732983702	0.7933148109825938	126.3200336641936	0.31079519849222237	-0.16648667892045843	0.4772818774126808	103.1080690043087
9	4.0	ltm	1	diff_vonmises	-0.2172165067661975	-12.445589078278006	5.676400573445949	0.5758543046055865	0.31775418832944424	2.2589159032850312	0.0522603747221852	-0.3809857621056959	0.4332461368278811	51.75946594641752
10	4.0	perception	1	diff_vonmises	-0.1478417792274194	-8.470709985436017	1.546862858482087	5.151099183829876	0.5293039631931024	6.70910092843067	0.5809274222437357	-0.5465267661708797	1.1274541884146154	87.65464507941876
11	4.0	wm	1	diff_vonmises	-0.6100887733501501	-34.95551184127706	1.1464401041060408	171.09127907120404	1.1297466826886773	172.6042663481304	-0.021718893117210314	-0.348999214753551	0.3272803216363407	73.76067210004824
12	5.0	ltm	1	diff_vonmises	-0.34987009134320657	-20.046079611822336	0.8087785500880483	158.25890359893108	0.7953341734032792	159.06077172945638	0.16355016107254983	-0.24299141436763705	0.4065415754401869	96.19459686963312
13	5.0	perception	1	diff_vonmises	-0.10008562734153995	-5.7344840365893965	2.807221874959618	1.9285238623377654	0.07546000398354774	2.7670872017262043	0.7416412463726869	-0.40689593726460577	1.1485371836372926	79.71151112466384
14	5.0	wm	1	diff_vonmises	-0.2935354606972149	-16.818343035378668	0.4781184434202555	131.77913721188	0.46481775876323106	132.28102138521908	0.2055213427530873	-0.2501956688372182	0.45571701159030553	126.49340966358574
15	6.0	ltm	1	diff_vonmises	-0.3395847934393081	-19.456775450894202	1.4707785540435478	0.7916494426235298	5.246448826768674e-18	1.8446825628846957	0.045240012850997935	-0.2757040324902228	0.32094404534122073	110.9672814429656
16	6.0	perception	1	diff_vonmises	0.19091231813806966	10.938470086370266	0.13683455776409004	185.74155931880736	0.12678944470247416	186.6460552902861	0.15237804482635653	-0.4024986420413086	0.5548766868676651	163.5924073001128
17	6.0	wm	1	diff_vonmises	0.3820966403593439	21.892524858718478	0.0002163314095364723	2866.839046673872	6.498564547905878e-26	2867.8268282916547	-0.05849928343417332	-0.2559106943809297	0.1974114109467564	175.47451892013004
18	7.0	ltm	1	diff_vonmises	-0.33195137429888644	-19.01941275089366	0.6498296648563255	87.15927710272791	0.6244652256533461	88.28303647275924	0.11614879488450214	-0.30997742474078116	0.4261262196252833	105.87827398706915
19	7.0	perception	1	diff_vonmises	-0.27096518456043883	-15.525161470296561	0.6792103763069529	292.7209679133153	0.6657654277615046	294.07461723636385	0.3726768651231538	-0.4801090669764996	0.8527859320996534	106.5722267907945
20	7.0	wm	1	diff_vonmises	0.3011351260479077	17.253771785685174	1.145831044511149	65.34935071870612	1.1057594072966201	66.03364086659518	0.2412447484888105	-0.23693920977023808	0.4781839582590486	82.45735921053543
0	1.0	ltm	2	diff_vonmises	-0.3255384398414142	-18.65197867218648	0.000448447232729271	2330.5970434445176	1.6199825991336287e-26	2331.698633042438	-0.008967097619006381	-0.34164246714357205	0.33267536952456567	176.96703108419175
1	1.0	perception	2	diff_vonmises	-0.11879129569322489	-6.806239886112379	10.752861206093801	0.9131608055542308	0.1530986059011991	2.1629804022482273	0.7811405571034811	-0.36401425476879395	1.145154811872275	40.679671412299626
2	1.0	wm	2	diff_vonmises	-0.049174109799795314	-2.817468952841173	2.7093928801007308	0.6790559541176128	0.17471404008155259	1.491757704360691	0.13884196681322752	-0.2113687045739321	0.3502106713871596	76.64373806154512
3	2.0	ltm	2	diff_vonmises	-0.02552518191427643	-1.4624851949916988	3.9445199440087095	0.32544087044519604	6.782092766741977e-18	0.9176256480148606	0.10223874396435095	-0.14595156997966996	0.2481903139440209	68.95751195917481
4	2.0	perception	2	diff_vonmises	0.014222364315737295	0.814881449989214	5.329398865183854	1.5911331593514102	0.5694365308239471	1.9367788902202594	0.9241572599646062	-0.3035628070708805	1.2277200670354866	54.97428856310751
5	2.0	wm	2	diff_vonmises	0.5709529850680182	32.71319634479335	3.525540902447997	0.5095805395484038	1.0222328739377052e-16	0.7642544644705473	0.24383283027274497	-0.12131818062110702	0.365151010893852	73.00842348426858
6	3.0	ltm	2	diff_vonmises	-0.1505152090473804	-8.6238862309442	1.5159048980214562	76.82427620825187	1.4968861141411214	77.17268430124554	0.10451737158206242	-0.12123850141019687	0.2257558729922593	70.162170376907
7	3.0	perception	2	diff_vonmises	-0.06765459826061913	-3.8763229449865966	4.726939589829426	1.5146339716240134	0.08041050348942186	1.7046199907016526	0.9810053687105835	-0.2621577967311024	1.243163165441686	61.945407548924294
8	3.0	wm	2	diff_vonmises	0.3234372787989766	18.5315910123775	0.70858778726541	79.36269196148403	0.6947913818488265	78.99780711136654	0.3121610631129883	-0.07624198849047126	0.38840305160345956	116.26485753231023
9	4.0	ltm	2	diff_vonmises	-0.3066410079595846	-17.56923558172168	7.866232841152476	0.45036129161496946	0.379792200475236	1.2261099792384837	0.2199982129144648	-0.21804449038461513	0.4380427032990799	45.56031417331465
10	4.0	perception	2	diff_vonmises	-0.07261338169095119	-4.160440307064028	2.544636764785198	2.0852228169483618	0.1435298055508011	2.901570798455808	0.7114248558815822	-0.40050578605948106	1.1119306419410633	81.76093573942572
11	4.0	wm	2	diff_vonmises	-0.5613246345083918	-32.161532494054335	1.360693012438356	131.4496388573215	1.3425811142708433	132.20162159244458	0.1241159736140105	-0.22242113208872283	0.34653710570273333	72.49382277559567
12	5.0	ltm	2	diff_vonmises	-0.2847548473001509	-16.31525094619087	1.187527496473028	112.8619309890673	1.173103400784011	113.14460515492665	0.19580147455678798	-0.13076445178658958	0.32656592634337755	82.59059481000479
13	5.0	perception	2	diff_vonmises	-0.11238267202041356	-6.439052797172661	2.736639186724044	1.676632923747577	0.006923614707514577	1.749638643570272	0.7611860826931582	-0.27216637946246136	1.0333524621556196	82.95054769957758
14	5.0	wm	2	diff_vonmises	-0.0656938560798656	-3.763980693316142	0.47985621485263874	62.07323606946753	0.4579752254016839	61.92951505213123	0.2868912901663343	-0.14361304214460358	0.4305043323109379	131.4158052259436
15	6.0	ltm	2	diff_vonmises	-0.42590234754010775	-24.402406998762174	0.5038871065701037	69.10293924244391	0.4848209506161396	69.45326658224111	0.1605749136398238	-0.1817296186194559	0.3423045322592797	124.07447133098368
16	6.0	perception	2	diff_vonmises	0.12198056757595263	6.98897170471242	0.37444246851967977	151.92079038879058	0.36219659883356203	152.16650663385406	0.284470712234949	-0.2603174194349869	0.5447881316699359	138.8266595070844
17	6.0	wm	2	diff_vonmises	0.3611988923787492	20.695172098102365	0.0001709588070109455	4811.189661675877	5.072806935947557e-29	4811.476355354731	0.08528239248516911	-0.17652863552109466	0.26181102800626377	175.93209438637564
18	7.0	ltm	2	diff_vonmises	-0.010619607299265308	-0.6084586783342247	1.008575797889732	76.55301031116377	0.9783780141489252	77.4965592767603	0.11897880585441101	-0.2525722625587701	0.3715510684131811	84.43932225532714
19	7.0	perception	2	diff_vonmises	-0.26390276048433026	-15.12051437760396	1.7323010663604381	2.730747229447277	0.2902273210374436	3.386354054260023	0.5855383635123659	-0.36298809527014786	0.9485264587825137	92.53347626730985
20	7.0	wm	2	diff_vonmises	-0.3349658595289187	-19.192130031979033	0.00017425478337945849	8228.741448959385	5.4119603927295145e-31	8228.838579222298	0.21276178075777352	-0.24365942063172952	0.45642120138950304	176.80596428510034
0	1.0	ltm	3	diff_vonmises	0.033758792472283985	1.9342363301198866	7.737941268557213	0.2507064825668716	0.011896402362082167	3.336127315976778	-0.2638711944315354	-0.5316979980294232	0.2678268035978878	48.289452642761916
1	1.0	perception	3	diff_vonmises	-0.13375650615784823	-7.66368328526031	14.235466575118505	0.5982286689083152	0.12141748910248153	3.6321934236614353	0.24175901138699207	-0.6171891266998532	0.8589481380868452	35.163971778105434
2	1.0	wm	3	diff_vonmises	-0.12290709155099384	-7.0420576180999666	2.525068623499547	0.88292533224891	0.17122816643102867	3.425418887218755	-0.11885460090912714	-0.4996564383313412	0.3808018374222141	74.98392985220732
3	2.0	ltm	3	diff_vonmises	-0.10129052790046757	-5.803519753348903	1.367725935897163	0.8039083703358505	1.0618058479905349e-32	2.6083009028262976	-0.08576352435441231	-0.393759774185636	0.3079962498312237	114.70653864878469
4	2.0	perception	3	diff_vonmises	0.00516490047561418	0.2959269988578041	6.901807229736451	1.3568018468842011	0.4173313674285088	3.183565174954755	0.657511309650275	-0.5545237987262279	1.212035108376503	48.32289282755232
5	2.0	wm	3	diff_vonmises	0.36480964967317925	20.902053251919284	3.9170826053403074	0.5002915011684873	0.03198721879350698	1.8849279264737824	0.0706036890815469	-0.29471969327063824	0.36532338235218514	67.65668293439526
6	3.0	ltm	3	diff_vonmises	-0.34512210194440646	-19.77403985809823	8.796642901161194	0.34903152122950454	3.747330188291028e-30	1.6989626310436645	0.13635392986151657	-0.2703982915538818	0.40675222141539835	45.80007928666629
7	3.0	perception	3	diff_vonmises	-0.07993221986138378	-4.579778845169065	4.16488393071824	2.114029391465296	0.4153106806974674	3.579075998843125	0.8345038921617793	-0.5337520582512189	1.368255950412998	61.17105787304783
8	3.0	wm	3	diff_vonmises	0.2075370032430367	11.890994378618881	1.0639906396855021	96.59116797799156	1.0382170014486707	97.22577228443696	0.2472228138842567	-0.22841625462576332	0.47563906851002	85.8123128541169
9	4.0	ltm	3	diff_vonmises	-0.3366123455362028	-19.286466731223754	0.932143481545203	36.641649042071336	0.8504302314774053	38.97314472029065	-0.1599837536706783	-0.47253511641804025	0.31255136274736195	79.36671175177858
10	4.0	perception	3	diff_vonmises	-0.08920921021249996	-5.111311238871609	1.0577155344234441	295.38359135648517	1.0372571236662402	297.4414573329715	0.42037622150232323	-0.6071454577738535	1.0275216792761768	83.69091568336162
11	4.0	wm	3	diff_vonmises	-0.40184833721998203	-23.024213727054843	0.7419370475282008	145.06860198739668	0.7284579331741456	147.18711290526895	-0.24117411814598455	-0.39102581147847815	0.1498516933324936	80.01963824067214
12	5.0	ltm	3	diff_vonmises	-0.2671132625446538	-15.304462595778555	2.826097660744025	1.0381529093843453	0.16824897487321436	2.658503636780358	0.15993515181648144	-0.38421238178509387	0.5441475336015753	74.6927089260555
13	5.0	perception	3	diff_vonmises	-0.09188103194308474	-5.264395347645457	1.0123410584459516	336.1227143202587	0.9952250004222253	337.9611310149239	0.46140364996422534	-0.5726464796046145	1.0340501295688398	86.31688657918878
14	5.0	wm	3	diff_vonmises	-0.1535786893675868	-8.799410723913415	0.5153347112755083	123.18768169974716	0.49755896939628186	124.15423775862189	0.17162657188347197	-0.33357111009390117	0.5051976819773731	120.85567565947711
15	6.0	ltm	3	diff_vonmises	-0.3716215919593262	-21.2923487952022	0.8710878066869333	214.6343016584276	0.8562592248976653	216.40377743433075	0.05075959516253192	-0.411599240941797	0.46235883610432893	87.4773331716513
16	6.0	perception	3	diff_vonmises	0.08722807873082437	4.997800766311099	1.4877899665159189	1.5833483602915819	3.191538921758486e-08	3.599542526106094	0.10956068723237788	-0.5380680634738716	0.6476287507062495	110.80538744101216
17	6.0	wm	3	diff_vonmises	0.3951546455232543	22.64069344347058	0.10469502773453293	8.80269629453585	2.556642368728756e-19	10.631319721878032	-0.14066146700682958	-0.4337421278295921	0.2930806608227625	169.68246657808135
18	7.0	ltm	3	diff_vonmises	-0.3098192418940356	-17.751334972470982	0.9962408801083675	216.54900276315044	0.9808940563231192	218.69585870535442	-0.0965519943197819	-0.4590564087472835	0.3625044144275016	77.30960675816283
19	7.0	perception	3	diff_vonmises	-0.3352214429161347	-19.206773881380165	0.4951322239811577	235.47377042957424	0.48042678683106194	237.92691073455794	0.049613742834665686	-0.6228459057573801	0.6724596485920458	117.86593292836382
20	7.0	wm	3	diff_vonmises	0.703349528709132	40.298959517548795	9.558479246896761	0.4719808939290223	0.2213293896828437	2.3085914728251278	0.12117651846671673	-0.40234981143120985	0.5235263298979266	41.84367650669117
0	1.0	ltm	4	diff_vonmises	-0.27555757728446534	-15.788286191249869	0.0002507093742328782	3446.150186619297	1.3590310860274907e-32	3447.811439757399	-0.12688193878284437	-0.4018941218486134	0.275012183065769	177.82481944664454
1	1.0	perception	4	diff_vonmises	-0.10525249978243305	-6.0305240207350295	10.375133225947051	0.9536809036149927	0.23917046849916015	2.77750724116088	0.6564755035996883	-0.4856938860932771	1.1421693896929654	40.831967986774885
2	1.0	wm	4	diff_vonmises	-0.03939324536577976	-2.2570667007824694	2.949168561422547	0.5528043597655873	0.04839098195231052	1.870845203659106	0.046203719677269106	-0.2861925785537754	0.3323962982310445	76.92575444067816
3	2.0	ltm	4	diff_vonmises	-0.07081445932345166	-4.057369647734624	6.358342693078292	0.2860506298561267	8.420073440947165e-24	1.243322959806608	0.0837371413453499	-0.1978801498731975	0.2816172912185474	54.00601266912852
4	2.0	perception	4	diff_vonmises	-0.020091164354685644	-1.1511389230271676	7.644954129443315	1.2492634012367545	0.3384977524316622	2.135855029039715	0.8904223710336472	-0.36482824160207256	1.2552506126357197	47.256579440498996
5	2.0	wm	4	diff_vonmises	0.4361897021013015	24.99182899747323	3.4660897726364293	0.4655985413165159	3.807021679363867e-15	1.1401566320302423	0.14933316587434547	-0.18113875068414267	0.3304719165584882	73.66133743703946
6	3.0	ltm	4	diff_vonmises	-0.224657255534271	-12.871912579105784	2.76677290584734	0.5436396738730359	0.48577502054560395	0.9864037061582993	0.09913445173927193	-0.12733409088253678	0.2264685426218087	69.85815449025463
7	3.0	perception	4	diff_vonmises	-0.08245052065534202	-4.724066852207316	4.1886132852514	1.7995648333088652	0.3521932515287939	2.0983046223514656	0.9581299277666265	-0.3030819063173023	1.261211834083929	63.04067848801756
8	3.0	wm	4	diff_vonmises	0.09290389944587993	5.323001338556708	1.2193982470384002	106.37930028466882	1.2060739274647891	106.30476926815865	0.289657334257555	-0.08560897381104748	0.3752663080686025	86.7384771169923
9	4.0	ltm	4	diff_vonmises	-0.2724230112664709	-15.608688787813659	7.310343036607272	0.39710312069454795	0.3219281159566881	1.451553476762513	0.10975879995377036	-0.25362688258125843	0.3633856825350288	46.77780261089228
10	4.0	perception	4	diff_vonmises	-0.108984551699183	-6.244354844488511	2.7967073351632417	2.065643377532755	0.2171384371423364	3.0920561953663506	0.6952038717030293	-0.4214502520483984	1.1166541237514278	76.42676123322877
11	4.0	wm	4	diff_vonmises	-0.4972408595956289	-28.489802656286678	1.0909464424075568	133.55224145004544	1.0767309532430398	134.5063566625404	0.01626704424900538	-0.22527356897190032	0.2415406132209057	77.16645902261168
12	5.0	ltm	4	diff_vonmises	-0.21824196330224832	-12.504343409867824	1.0651016737115464	120.9407600922777	1.0488114095082124	121.67632589212083	0.11250305213699363	-0.2043609363817147	0.31686398851870834	82.33489431750769
13	5.0	perception	4	diff_vonmises	-0.08489411509162666	-4.864074500248075	2.5136866038853487	1.9437767848904746	0.14770881121058374	2.6717091781734332	0.6590359524113123	-0.3665603826402566	1.0255963350515689	82.15840382680184
14	5.0	wm	4	diff_vonmises	-0.17170539619200378	-9.837994521423495	0.5430271696453001	83.68998905391399	0.5240086032614619	84.07903560708745	0.20119445631511113	-0.20852119959928928	0.4097156559144004	121.27809076739935
15	6.0	ltm	4	diff_vonmises	-0.3967481205628825	-22.731992838000718	1.552856806248919	0.9083760111648711	4.7999932942877264e-20	1.857219130973458	0.1062260737261263	-0.2775868268205471	0.3838129005466734	108.34355620915709
16	6.0	perception	4	diff_vonmises	0.2456356616319905	14.073886709416623	0.298979511981522	111.22384959621175	0.27923598201725724	112.01906505124086	0.22755046691704806	-0.3869271112000998	0.6144775781171479	145.34502757541316
17	6.0	wm	4	diff_vonmises	0.30910972792415176	17.710682816491065	0.000200464969119833	4087.2712912734414	1.1554869475605616e-30	4088.1515985817177	-0.009696034706621504	-0.2705014143119797	0.2608053796053582	176.96135721760004
18	7.0	ltm	4	diff_vonmises	-0.13612119116614496	-7.799169756113571	0.8851585730292588	117.76441052649776	0.8667059791625701	118.82890761420592	0.07751847688929558	-0.26448854037505676	0.34200701726435234	88.60299352518948
19	7.0	perception	4	diff_vonmises	-0.2765687641883214	-15.84622293313972	0.6801956951304312	150.05896937855132	0.6579912352912508	151.1332602973979	0.33695456731915385	-0.40224703145966423	0.7392015987788181	107.35078778808277
20	7.0	wm	4	diff_vonmises	0.35021557954651356	20.065874627743383	0.9879831309756937	28.501904513086586	0.9150469658724031	29.04850050057332	0.2167424190760041	-0.20075862089715102	0.41750103997315513	90.41972669106713
0	1.0	ltm	5	diff_vonmises	-0.2612494960925185	-14.968493526020803	2.2434567683421798	0.5836717793402108	5.0704811625657296e-14	2.828759941453019	-0.12758546319117486	-0.44657986690948587	0.318994403718311	91.72080175282086
1	1.0	perception	5	diff_vonmises	-0.04668715374795532	-2.674976867236223	8.531334168829602	0.8913165777748928	4.384756745020131e-26	3.391122392537304	0.4826320101090975	-0.5397138516375312	1.0223458617466288	46.518531196202645
2	1.0	wm	5	diff_vonmises	-0.13979670669019026	-8.009761283176182	5.262540272564747	0.48466465080629817	0.08139507046019322	2.8601669796674605	-0.061126264690721244	-0.45554342380214424	0.394417159111423	56.67602598812837
3	2.0	ltm	5	diff_vonmises	0.056006603192389516	3.2089419877878425	0.9230584030229506	12.172702873894318	0.7747500178886485	13.19801965175235	0.037967035810275274	-0.2414068806764984	0.2793739164867737	88.72321448112271
4	2.0	perception	5	diff_vonmises	0.035371787894318836	2.0266541601764065	5.115039591045426	1.9915781144174618	0.5710879295704732	2.799578206771782	1.0198698690902221	-0.43988351560304095	1.459753384693263	55.43651513016991
5	2.0	wm	5	diff_vonmises	0.046120564726576524	2.6425137075927703	1.6697461146262862	2.3447672820879943	0.621983305317544	3.4866670951564314	0.1435615720481448	-0.30179598808624064	0.44535756013438543	79.87999860684405
6	3.0	ltm	5	diff_vonmises	-0.1638125668230412	-9.385768710165033	1.290243998068307	166.1756748593513	1.2752662627443416	167.1514925617329	0.07027429512820049	-0.2575810790763988	0.3278553742045993	72.45979062968149
7	3.0	perception	5	diff_vonmises	-0.005713387877521832	-0.3273530121032083	4.396458641475603	2.318121134868157	0.45892293078325275	2.9190892795158088	1.1780730757213287	-0.4280394035098147	1.6061124792311434	60.52176206683501
8	3.0	wm	5	diff_vonmises	0.13772522061669512	7.891073873844784	0.787452562879482	132.0817652709807	0.7690871518965271	132.90701921409564	0.2175209307575301	-0.2730699068960494	0.49059083765357947	98.68746018295369
9	4.0	ltm	5	diff_vonmises	-0.5612512153876427	-32.15732588829985	0.5997244823765147	134.735423258835	0.5808737188261377	136.57556576158706	-0.0017535698353938756	-0.4209297772602252	0.4191762074248313	105.18491219011034
10	4.0	perception	5	diff_vonmises	-0.0015399595840741283	-0.08823318478816922	1.9133050044362112	4.169347605720881	0.3871302237393943	5.258895675573143	0.9062125567599741	-0.5470855051523213	1.4532980619122955	86.20454009557503
11	4.0	wm	5	diff_vonmises	-0.10211586438149481	-5.850808050389944	0.6148630500287343	168.04559449347545	0.5965097312940463	170.19074029521514	0.01582123521462364	-0.4968735026848634	0.512694737899487	104.30080402810995
12	5.0	ltm	5	diff_vonmises	-0.035670492913934385	-2.04376869711975	0.96019911317447	127.30516220617658	0.9428928286795268	127.89573185492864	0.22294286166876986	-0.2126605217141222	0.43560338338289206	90.23588333099877
13	5.0	perception	5	diff_vonmises	-0.0920918662125278	-5.276475261461268	1.0263480193653178	250.96682507975197	1.0077918389452212	251.29463070544884	0.7671077113352709	-0.35782860723693943	1.1249363185722103	91.76192905609929
14	5.0	wm	5	diff_vonmises	0.2344201885993798	13.431287439405239	0.2973430729030482	160.6325845373213	0.2850592840062186	161.30567562854938	0.21252622258006681	-0.34185503972822673	0.5543812623082935	145.2902079035734
15	6.0	ltm	5	diff_vonmises	-0.5736688334653371	-32.8688029957571	0.6971762799557021	112.1640449644161	0.6847194774169555	112.4288240930692	0.19162459813798804	-0.1507388653032784	0.34236346344126645	108.39274160872519
16	6.0	perception	5	diff_vonmises	-0.13235746233237414	-7.583523978706808	0.5514261261427977	192.46525787450955	0.5387376008667796	192.69558578291748	0.4008398330686802	-0.28448987557150573	0.6853297086401859	122.44311561256507
17	6.0	wm	5	diff_vonmises	0.08619425631360789	4.938567105038581	0.18364958919913937	9.592579504336257	2.4625601319811325e-10	9.972293947061058	0.2319715657479644	-0.32721865449428433	0.5591902202422487	169.2692702512666
18	7.0	ltm	5	diff_vonmises	-0.043776218111330666	-2.5081925408234027	1.0915900157430816	71.1314849280543	1.062755518351588	72.31437992188606	-0.033212219124539644	-0.26412288503132686	0.23091066590678722	75.10704361818364
19	7.0	perception	5	diff_vonmises	0.022515815212324222	1.2900611839626335	0.7238824888836439	88.42776413621567	0.6790296011131495	89.66146609101267	0.40984558233749624	-0.4633884102601389	0.8732339925976351	105.0094827128199
20	7.0	wm	5	diff_vonmises	0.11140079652415638	6.382795475229812	0.7006971268294574	149.4498401949728	0.6885588411167325	150.83870634649963	-0.04651395856584628	-0.291320765289818	0.2448068067239717	93.93661159073775
0	1.0	ltm	6	diff_vonmises	0.008208368179027597	0.4703048533477662	5.5400373785722765	0.21936070537779953	3.9061275024036646e-19	3.470782366991665	-0.35157073190604043	-0.5523890729913017	0.20081834108526125	57.94862029314146
1	1.0	perception	6	diff_vonmises	-0.07444745047682927	-4.265524707831525	9.2095855165234	1.0201491783795817	0.1888806947838414	4.263963490849132	0.40483199388975466	-0.7274026779081053	1.13223467179786	43.048024997076595
2	1.0	wm	6	diff_vonmises	-0.10783668534695437	-6.178586947060733	5.0454823338580645	0.4030977602384953	0.04921146644170394	3.336195862780237	-0.206195011443293	-0.5297765698137368	0.3235815583704438	58.149914438562234
3	2.0	ltm	6	diff_vonmises	-0.18596473007880626	-10.654994171805152	2.290824449685386	0.6195333398963403	2.8488934784087887e-33	2.737248634610001	-0.08892158217573909	-0.4320965842329468	0.3431750020572077	90.82097855204698
4	2.0	perception	6	diff_vonmises	-0.03754986967011053	-2.1514490533636303	8.347173708422932	1.295510119315945	0.21177536241721778	3.500251180773764	0.7886200563267204	-0.5910698950290257	1.3796899513557461	45.4611910557899
5	2.0	wm	6	diff_vonmises	0.14875905135660428	8.523265807103288	3.251003762631819	0.5534237642773234	9.611699255967163e-19	2.621952985093829	-0.03799672905929952	-0.4167275391190622	0.37873081005976267	76.14688752146026
6	3.0	ltm	6	diff_vonmises	-0.2196874279042141	-12.58716243099602	2.3526124916285207	0.7305079493126925	3.1070090604337913e-13	2.1102264207066375	0.07948678269952536	-0.3320945633446336	0.41158134604415897	89.63083288783996
7	3.0	perception	6	diff_vonmises	-0.09308544353091346	-5.333403048424692	2.1904798575152093	5.77038766537533	0.8774129610019877	6.9860973136343905	0.9197672645317025	-0.5741727693434407	1.4939400338751434	73.03768576075504
8	3.0	wm	6	diff_vonmises	-0.05818535727240624	-3.333775401169709	1.138023039999747	234.87631623658277	1.124076311926147	235.83239266500632	0.26190567850912316	-0.30570055753273095	0.5676062360418541	81.38213938393272
9	4.0	ltm	6	diff_vonmises	-0.16256231351312003	-9.31413447218429	3.291907355327574	0.69633931588118	0.28041016074277386	3.379199005299907	-0.21745336376714075	-0.5257084432390623	0.30825507947192154	62.346330299169125
10	4.0	perception	6	diff_vonmises	-0.16724002872271798	-9.582147811458404	1.8295115597121074	4.3284285435234215	0.48432419342011973	6.289216838291776	0.5820572592744495	-0.6222388083039075	1.204296067578357	82.87460270343078
11	4.0	wm	6	diff_vonmises	-0.4939429435146032	-28.30084598365558	0.7436119472163919	158.92911926895096	0.7280550482143622	161.48351712726972	-0.26870642753233653	-0.4766909179551462	0.20798449042280964	81.81886454771295
12	5.0	ltm	6	diff_vonmises	-0.1726313708203526	-9.891048959564076	1.463369209574142	1.5337775390471173	0.18397000523124848	2.9290045577156834	0.09888244640919686	-0.352119935287787	0.45100238169698387	98.2313176590541
13	5.0	perception	6	diff_vonmises	-0.09698384974247279	-5.556765271174627	2.407317169034227	2.6962525329126215	0.2669501581668019	4.190907703507379	0.6982042196050297	-0.5368746274642646	1.2350788470692944	80.02420172396606
14	5.0	wm	6	diff_vonmises	-0.27321352865900045	-15.653982098037288	0.5347286330967226	145.1931169520503	0.5197565095329976	146.4737725405075	0.08719764287138787	-0.3527452906254389	0.4399429334968268	115.6092116119299
15	6.0	ltm	6	diff_vonmises	-0.3041309627496559	-17.42542058480574	0.6519091610487486	109.5678248839764	0.6351882218704181	110.92772844999944	-0.02216837975795727	-0.2968083373934416	0.2746399576354843	99.30292808758009
16	6.0	perception	6	diff_vonmises	0.1801173925717014	10.319966411259495	0.00020614975631432706	8915.226488263123	1.1313543858955294e-32	8916.50425713172	0.08915365705956901	-0.4958499720137297	0.5850036290732987	178.87465377000836
17	6.0	wm	6	diff_vonmises	0.18541294371881303	10.623379142184653	0.44885277824696285	1.7086381469562861	7.387695211573529e-17	3.1276170988479035	-0.09245805825941394	-0.3326041185711085	0.24014606031169455	154.2051147938314
18	7.0	ltm	6	diff_vonmises	-0.5100589648233906	-29.224225987192003	0.7506977413420725	111.68373831973767	0.7310410950650487	112.82608610079326	0.08717559178553813	-0.2898009839477087	0.37697657573324683	96.89732756205743
19	7.0	perception	6	diff_vonmises	-0.19142263214485197	-10.967708925185303	0.5378302222879452	283.6617934751528	0.5270757763604385	285.3677402156833	0.143300254932214	-0.4839927645856754	0.6272930195178894	115.65803303547497
20	7.0	wm	6	diff_vonmises	0.2616529566545331	14.991610113424214	0.9250473722710515	82.94077301492715	0.8947672283265559	84.35784725191685	0.02217553982035625	-0.3243498026323248	0.3465253424526811	84.4936376970958
0	1.0	ltm	7	diff_vonmises	-0.2623694181064009	-15.032660330800056	4.065341193986305	0.2660027833379313	1.8074030108712394e-24	2.5103804380991996	-0.19320616448378522	-0.3994787179189389	0.2062725534351537	67.88914383469788
1	1.0	perception	7	diff_vonmises	-0.08190494745261355	-4.692807810275539	13.781348115693532	0.671078654603252	3.054244103823981e-18	3.1885474488328964	0.4768756731264311	-0.5074730877637533	0.9843487608901844	36.50674355595035
2	1.0	wm	7	diff_vonmises	-0.11744297693237869	-6.728986911677583	4.737671901707644	0.4225020463404774	0.08074254515648302	2.598115653779945	-0.09159746509190747	-0.4115596196654468	0.3199621545735393	59.345671261269985
3	2.0	ltm	7	diff_vonmises	-0.11041825394667777	-6.326499932348382	4.748311718296749	0.3493447840850808	1.457510712929057e-20	1.4445693158821842	0.06475078599003159	-0.22988821332481346	0.29463899931484505	62.69790614297412
4	2.0	perception	7	diff_vonmises	0.013382931317314292	0.7667854819955641	6.716359621694733	1.626271522480551	0.5033251141224692	2.7594050920889286	0.9649703832544821	-0.47659492692763433	1.4415653101821164	49.16883057335224
5	2.0	wm	7	diff_vonmises	0.04180796752057733	2.395420088949106	2.897416076220192	0.7518031868389241	0.2305113017134077	1.9972782446302122	0.08765093799131807	-0.28712537599015225	0.3747763139814703	71.8094603190917
6	3.0	ltm	7	diff_vonmises	-0.1826055001621949	-10.462524475169237	1.4805063509752974	149.70512856217437	1.4635659189875454	150.57539778048076	0.07478419201737552	-0.24602680762772522	0.32081099964510074	67.72051118477034
7	3.0	perception	7	diff_vonmises	-0.018575767909779203	-1.0643131024448993	4.068187316828541	2.8141593433746785	0.8232721047598347	3.4601414050227404	1.117689379110726	-0.47261022354523785	1.590299602655964	59.42101604041747
8	3.0	wm	7	diff_vonmises	0.09208369404266312	5.276007030618558	1.2228961771939495	100.06816873770194	1.195172306133973	100.84997795545226	0.21604353842216995	-0.2522520677000557	0.46829560612222565	78.5997960283612
9	4.0	ltm	7	diff_vonmises	-0.49705797902065724	-28.479324371185875	4.818025811207186	0.3633875711970954	1.6760995325520056e-27	2.1864215667600724	-0.03910181754497949	-0.3479596140754594	0.3088577965304799	62.23514386360419
10	4.0	perception	7	diff_vonmises	-0.04741988428539973	-2.71695923455214	2.3228752636085703	3.162516859465291	0.3820500742212501	4.478596170037293	0.7772830695233148	-0.5271456525915886	1.3044287221149036	79.14888159727175
11	4.0	wm	7	diff_vonmises	-0.07204362782335194	-4.1277958150893355	0.6416512452688437	170.6901330546792	0.6283261807125046	172.684962435049	-0.10863995953818062	-0.4030198792961883	0.2943799197580077	96.35626982835004
12	5.0	ltm	7	diff_vonmises	0.011016417723853235	0.6311942409299072	1.11505505119394	111.6487446538313	1.0900074463888159	112.52446759530348	0.20930221318867837	-0.2693090333401109	0.4786112465287893	82.00965720255383
13	5.0	perception	7	diff_vonmises	-0.09094994849736901	-5.211048195831448	1.0244637654612665	292.23142250253017	1.0077505271200737	293.05892669502305	0.6386251644240986	-0.4154711747209241	1.0540963391450227	89.51530411689475
14	5.0	wm	7	diff_vonmises	0.15934836704186903	9.129988903800642	0.9624825383437332	1.6993400940489771	8.44318976519143e-15	2.5632701833086053	0.16064445804469812	-0.3250086268835086	0.48565308492820675	129.9131684435162
15	6.0	ltm	7	diff_vonmises	-0.4788472552445698	-27.435926756937523	0.770396246906287	143.2624070880533	0.7582009154118893	143.89455185848104	0.1466845244389532	-0.20162067126993755	0.34830519570889074	99.12758971800608
16	6.0	perception	7	diff_vonmises	-0.04577005559804565	-2.6224310138471427	0.5478008915651185	148.77901992689772	0.5305939740017486	149.4701920471871	0.3066596109379347	-0.33921580860542555	0.6458754195433603	120.41050179271673
17	6.0	wm	7	diff_vonmises	0.10588399072334691	6.066705786450139	0.2749688477619733	5.507685136099297	1.449571819517117e-17	6.286707117324667	0.1319338717719516	-0.34712713857903654	0.47906101035098814	164.07029278027576
18	7.0	ltm	7	diff_vonmises	-0.04086259345265384	-2.341254144795976	1.2702629203853868	135.04813980029078	1.2519970974586596	136.33721460015425	-0.049751378929023815	-0.30113570749037777	0.25138432856135395	68.73917007940571
19	7.0	perception	7	diff_vonmises	-0.0582242232837069	-3.3360022595837444	1.576584887994672	1.5333138426129806	1.9769709416594865e-15	2.9555210983074396	0.21413196741147322	-0.441143996864319	0.6552759642757922	108.12269248263999
20	7.0	wm	7	diff_vonmises	0.33581118057964576	19.240563360519257	0.7531242980833552	99.90793588473565	0.7362707647073488	101.23486759513479	-0.06536814584701389	-0.2706658858290716	0.2052977399820577	89.09778903215977
0	1.0	ltm	8	diff_vonmises	-0.40076648882997534	-22.962228380234436	0.0008615168724014854	929.6686843695882	1.553345420745778e-23	931.895943129996	-0.2269806084727577	-0.4819229648074952	0.2549423563347375	175.41312166193495
1	1.0	perception	8	diff_vonmises	-0.12726013770488012	-7.291468790743306	11.508871517764806	0.7707347329080194	0.1230250280921952	3.1007982693888825	0.47514604793721593	-0.5202550473535906	0.9954010952908066	39.19617028535242
2	1.0	wm	8	diff_vonmises	-0.1035034144770536	-5.930308814728436	2.685057353802759	0.8053642115355015	0.1892071201949667	2.665842179117067	-0.013230098838972859	-0.38703348151694317	0.3738033826779703	73.78200724639981
3	2.0	ltm	8	diff_vonmises	-0.06402723793054185	-3.668490507299987	2.968553374094849	0.4578445099976107	1.214456514275168e-17	1.8337276314298343	0.006209691038244924	-0.29105997204462536	0.2972696630828703	79.7641630499538
4	2.0	perception	8	diff_vonmises	0.013068907452956685	0.7487932399014845	5.8559738377618356	1.5100766893464141	0.4363763818731305	2.825090778687375	0.7600547688290802	-0.46860335535261116	1.2286581241816914	52.390317003131685
5	2.0	wm	8	diff_vonmises	0.49049490058607514	28.103287676270995	3.8018921460851254	0.5141195411389997	3.159486204790939e-12	1.5217443383190639	0.14224322127660205	-0.24200146616251397	0.384244687439116	70.25233822258852
6	3.0	ltm	8	diff_vonmises	-0.18950459807616196	-10.85781366808706	2.056230527436739	1.1464750634785827	0.49009705682426397	2.1451992704346035	0.07609467318747631	-0.2448590864500279	0.3209537596375042	75.94259884333368
7	3.0	perception	8	diff_vonmises	-0.08413665593573876	-4.820675287462157	3.997391402568858	1.9199876013843507	0.2690253531222387	2.9489437544543065	0.872388893146423	-0.4341534244716929	1.306542317618116	64.40325652939
8	3.0	wm	8	diff_vonmises	0.2817160079283639	16.14113827556929	0.7700070868515969	109.85175131921365	0.7539121633378626	110.05198868394714	0.27854771689814584	-0.16895455902325285	0.4475022759213987	104.88249383979854
9	4.0	ltm	8	diff_vonmises	-0.34237147224018616	-19.61644038504309	5.104751415796336	0.5675908739794573	0.2597706363799014	2.37672429512068	0.015286949323422172	-0.3895475595363982	0.40483450885982036	54.67874891757356
10	4.0	perception	8	diff_vonmises	-0.08457510497783101	-4.845796567105596	1.3342578814981438	7.920726731645495	0.6882662992013041	9.53666936591722	0.5049661710440807	-0.5361582828425773	1.041124453886658	87.39302983549982
11	4.0	wm	8	diff_vonmises	-0.5717631978887651	-32.75961811992954	1.0661341739992223	199.2546583575522	1.0524030128608597	200.9770615599614	-0.09098586009373832	-0.3719510966604034	0.28096523656666506	74.07558100033619
12	5.0	ltm	8	diff_vonmises	-0.30596947007141817	-17.530759294946616	0.9743324082962244	150.24676602387038	0.9571352458246272	151.12130404899688	0.1983646825146934	-0.26540142673694156	0.463766109251635	87.71299629431527
13	5.0	perception	8	diff_vonmises	-0.11186069861427739	-6.40914592398299	1.9603384742750132	3.1586249752404028	0.43455906746941003	4.114491473756159	0.6446386549678088	-0.42279016451969054	1.0674288194874992	83.87339242984905
14	5.0	wm	8	diff_vonmises	-0.14132733022659486	-8.097459551835554	0.46544591838357535	122.09677797677979	0.45093348063516325	122.52137470919077	0.2279733876285519	-0.24809877732674757	0.47607216495529947	128.73791884994455
15	6.0	ltm	8	diff_vonmises	-0.40683811327517744	-23.310106835732977	0.7145908925947524	122.79313519452681	0.6992232880091444	123.74350035493532	0.08947620180072136	-0.2507526408466667	0.34022884264738806	99.95158392085652
16	6.0	perception	8	diff_vonmises	0.11752886384881571	6.733907869504817	0.3171598136058493	154.46854949820738	0.3035485808337855	155.48794583893633	0.16246160641103558	-0.39332238190721114	0.5557839883182467	142.77949117145337
17	6.0	wm	8	diff_vonmises	0.4366973313928128	25.020914013434044	0.00019054339063473733	4127.162307696658	3.5389789685110157e-31	4128.146846733856	-0.03152829679322622	-0.28184828787834704	0.2503199910851208	174.17975227989507
18	7.0	ltm	8	diff_vonmises	-0.27136076309222706	-15.547826450634009	0.802081661282446	62.130837110954374	0.7630707366681547	63.62117215665416	0.020814230434268666	-0.33868235320849394	0.3594965836427626	91.38748196506961
19	7.0	perception	8	diff_vonmises	-0.2906779623459753	-16.654620439887047	0.7132648197654855	196.1628492471424	0.6920740841220825	197.8040130438658	0.3278376650588015	-0.5133274112503159	0.8411650763091174	102.94910690157494
20	7.0	wm	8	diff_vonmises	0.4370380636833818	25.040436535627475	1.2643639808127642	77.15751364284266	1.226107817095476	78.15841209933825	0.15715868620039686	-0.2868798751445123	0.44403856134490916	75.57359615875842
0	1.0	ltm	9	diff_vonmises	-0.06327559952101833	-3.6254247987143637	0.22119799033381252	4.254108832531092	2.066999201431784e-15	6.486043503674597	-0.19784504921652235	-0.496156610244433	0.2983115610279107	167.31441624109294
1	1.0	perception	9	diff_vonmises	-0.12122245395175126	-6.945534993654315	11.907930392026921	0.711304954885042	0.14473196857078954	3.069491823754045	0.4068700945782252	-0.5220075586521032	0.9288776532303284	38.39229583648665
2	1.0	wm	9	diff_vonmises	-0.032135069356015886	-1.8412038484598945	2.0498027475424982	1.147930818563372	0.20401825213219915	2.9777842629636684	0.025868699052598698	-0.39940064300796796	0.42526934206056666	82.88450696625915
3	2.0	ltm	9	diff_vonmises	0.03444956292877682	1.9738145618892513	3.6258726631001434	0.37656771183088944	4.304640778800731e-41	1.5642884700562338	0.02535381239951978	-0.24876976834372355	0.27412358074324333	71.99793427980373
4	2.0	perception	9	diff_vonmises	0.01049448889840669	0.6012899220255999	6.3031196043129984	1.3440403203829232	0.4560343814794492	2.3977182468737146	0.7450103578419316	-0.40507628975312815	1.1500866475950597	50.73319929869098
5	2.0	wm	9	diff_vonmises	0.42405059843921417	24.296309590563826	3.658578620388659	0.5126869580797917	2.7188528470508195e-10	1.2451908128751858	0.17713910157716325	-0.19792902004668525	0.3750681216238485	71.65673693571998
6	3.0	ltm	9	diff_vonmises	-0.2636078763698014	-15.103618762396003	2.9293273718753863	0.6464748039592505	0.4739341798610718	1.351746083885571	0.09072954160823993	-0.18391874782636036	0.2746482894346003	67.39321742375117
7	3.0	perception	9	diff_vonmises	-0.07863848596444291	-4.50565335306134	5.007322294334398	1.5353735970068263	0.17836034296151537	2.2460012780983356	0.9082910469984085	-0.34643291772066137	1.2547239647190698	59.07134693038583
8	3.0	wm	9	diff_vonmises	0.21439268721785293	12.283796136051324	0.9426177334842222	79.00799512839737	0.9220932712077132	79.06615138172879	0.28927770423360855	-0.1269691595384641	0.41624686377207265	96.55364441770996
9	4.0	ltm	9	diff_vonmises	-0.34018711563822823	-19.491285970799364	12.60907433949339	0.28784904666617656	2.161048531348869e-40	1.5912174670308483	0.1501377521958116	-0.2532501254076161	0.4033878776034277	38.190307761632994
10	4.0	perception	9	diff_vonmises	-0.05592628005722365	-3.204339811145579	2.017787149054737	3.2929536578117613	0.45188883968988	4.641302804676748	0.6042634731506447	-0.4902787960064512	1.0945422691570958	81.61332578412203
11	4.0	wm	9	diff_vonmises	-0.32884583966262676	-18.841478723104284	0.8675707294667366	155.2395178000171	0.8558164186266355	156.40891904071742	-0.01947435572245837	-0.2539133765644159	0.23443902084195756	85.0668752906626
12	5.0	ltm	9	diff_vonmises	-0.2906852070758473	-16.655035532332423	1.0547316595975684	83.42235902372097	1.0229782629745232	84.5099712964592	0.12290126763174314	-0.2872917298660518	0.4101929974977949	82.15197533793764
13	5.0	perception	9	diff_vonmises	-0.0564624960328596	-3.235062723457009	0.9677835668221605	266.502745323894	0.9496896206315164	267.73551154991947	0.505675166755978	-0.4585332250671357	0.9642083918231137	90.18028192535033
14	5.0	wm	9	diff_vonmises	-0.12222593077916502	-7.0030299807043015	0.46742051353965947	108.09075757068517	0.44973725775060575	108.62075009349621	0.22895901115061434	-0.27456870738180505	0.5035277185324194	128.27906527245628
15	6.0	ltm	9	diff_vonmises	-0.44862511702304825	-25.70432578898333	0.7313612679463829	90.09242973213787	0.7000344485214919	91.49606760043297	0.13882968484860925	-0.37230217004905874	0.511131854897668	99.46253408345301
16	6.0	perception	9	diff_vonmises	0.041621024532473655	2.384709044721201	0.7688353163177379	221.13794473556501	0.7516846335790689	222.55826753311644	0.3059464605869664	-0.44336738374139273	0.7493138443283591	99.11451351202518
17	6.0	wm	9	diff_vonmises	0.340373301653593	19.50195364368412	0.00024236000595642782	4764.933098612759	1.344631207023626e-31	4766.235560445295	-0.02349227114734731	-0.39107193739801005	0.36757966625066274	176.3593038806543
18	7.0	ltm	9	diff_vonmises	-0.08348426099569034	-4.783295810821692	0.9501524616121031	176.54610328301732	0.9336495211827754	178.38910072033983	-0.05299124219083495	-0.39827109265587524	0.3452798504650403	80.42630301018067
19	7.0	perception	9	diff_vonmises	-0.25513754257043814	-14.618304384625478	1.291396699621454	2.3090119511716085	0.01102048009762834	4.077327130984673	0.2580142063373657	-0.5727185527649432	0.8307327591023089	116.3089914433946
20	7.0	wm	9	diff_vonmises	0.5175778397118015	29.655025784984844	1.2083161412515	66.13322331273919	1.1617194855691377	67.16030384968498	0.18832922268111219	-0.29974954778678775	0.48807877046789994	78.0772387405207
0	1.0	ltm	10	diff_vonmises	0.043932387100376655	2.5171403647865627	1.9186047598872553	0.8640164772099527	3.9533491801522955e-21	3.5779905061799915	-0.13482409789388106	-0.560085713683621	0.42526161578974	98.94075587776709
1	1.0	perception	10	diff_vonmises	-0.02104790713299845	-1.2059562463041118	10.826226370920722	0.7512866067044514	3.1114511440870914e-21	3.6427811436012383	0.3944411914695669	-0.5797666252213407	0.9742078166909076	41.233431034762276
2	1.0	wm	10	diff_vonmises	-0.011211106317787259	-0.642349075681663	2.8545667680614146	0.7130121226670463	0.02268791400525673	3.422266796329588	-0.1032264564820291	-0.5325449692657402	0.42931851278371114	79.04726138683691
3	2.0	ltm	10	diff_vonmises	0.21231334401269117	12.16465854623635	2.0552007838520425	0.534242632350151	2.6397965300622126e-27	1.7278194101603215	0.005182113123407273	-0.27039575027558016	0.27557786339898743	95.69994955924511
4	2.0	perception	10	diff_vonmises	0.014942193987980029	0.856124652177008	5.888182987321387	1.540233008805784	0.41117149031366595	2.457075629513567	0.8906081083970685	-0.40141686518470565	1.2920249735817741	52.890728446435304
5	2.0	wm	10	diff_vonmises	0.012962363917399765	0.742688744979671	2.2093301781001027	2.0703481563936212	0.7359452946385137	3.122512351119672	0.2239944118529691	-0.3139463023711354	0.5379407142241045	71.62669721882509
6	3.0	ltm	10	diff_vonmises	-0.2515737272545033	-14.414112808058329	1.2202609186590905	103.17867417694806	1.2004090545228834	103.96735343795297	0.07867747392968027	-0.21086880579343514	0.2895462797231154	75.46354553008192
7	3.0	perception	10	diff_vonmises	-0.029008500078002878	-1.6620646244744843	4.646957403920788	1.9291078723781738	0.27780082669515677	2.388942700199084	1.1160031314597625	-0.35899159282004206	1.4749947242798045	60.60201826132263
8	3.0	wm	10	diff_vonmises	-0.005569571603407155	-0.3191129465711407	2.9881263628605508	0.8219089782802571	1.3914500845866757e-16	1.448661415592039	0.30651309607944277	-0.2291982311341849	0.5357113272136277	79.49760119294538
9	4.0	ltm	10	diff_vonmises	-0.4773321562106313	-27.3491179767485	0.13363286031533753	84.00337834951404	0.11448473914655045	85.49272513673495	0.005902143690974526	-0.4499121869716429	0.45581433066261745	160.18579872196867
10	4.0	perception	10	diff_vonmises	-0.019685107819235284	-1.1278735973021576	2.4091043605558085	3.143801670482397	0.2510001443925102	4.180431970095911	0.9709794972670308	-0.5302425424568515	1.5012220397238822	81.37477832307127
11	4.0	wm	10	diff_vonmises	-0.09495536651072056	-5.440541743182166	0.6477809367422867	207.5567613280335	0.6344925758135845	209.1311120323079	0.09547669493420585	-0.4004971427562509	0.4959738376904568	103.9469575662503
12	5.0	ltm	10	diff_vonmises	0.04574675841788241	2.6210961837492333	0.7216472195167202	144.25513426523744	0.7063060443494699	145.34064797238105	0.11183695856929887	-0.2900681315465725	0.4019050901158714	99.71812193980884
13	5.0	perception	10	diff_vonmises	-0.020786718855973683	-1.190991260372299	0.9029537116242626	358.28742619511974	0.889294673909369	359.2737615445074	0.6159346033961555	-0.45656153365360197	1.0724961370497574	94.76746552512503
14	5.0	wm	10	diff_vonmises	0.12271638538494611	7.03113095965831	0.27171684491797704	165.50065310519682	0.2591469001372172	166.6254575470307	0.14029631382937424	-0.4181775397160159	0.5584738535453901	147.84903852300044
15	6.0	ltm	10	diff_vonmises	-0.5522048321374208	-31.639006308204298	0.6406115241334837	225.12854751238203	0.6287840259996375	226.22160970680852	0.20925898786214958	-0.3506561476420522	0.5599151355042018	108.35953550940572
16	6.0	perception	10	diff_vonmises	-0.03801984368258234	-2.178376580759094	0.766956482235839	344.44109162531123	0.754821427247649	345.30780620430727	0.5423706238584742	-0.42957639685326043	0.9719470207117347	102.92447484064739
17	6.0	wm	10	diff_vonmises	0.02967982042227464	1.7005284469025257	0.5369122491861797	4.587170750878392	1.494868475804478e-12	5.622936104016024	0.2686380806030343	-0.49732605091617277	0.7659641315192071	150.2470990411698
18	7.0	ltm	10	diff_vonmises	-0.09682557246900014	-5.5476966514118065	0.8940350688940115	102.74150775897117	0.8727265946175949	104.34710225696075	-0.09256477759276294	-0.32970299308524353	0.2371382154924806	80.78996960272951
19	7.0	perception	10	diff_vonmises	0.0855295261481382	4.900480872042136	0.48037805331132183	193.2808879628988	0.46149203151766893	194.87285162036025	0.2976284348196998	-0.5736996782755597	0.8713281130952595	124.86500893830942
20	7.0	wm	10	diff_vonmises	0.16314596346386367	9.347575151074917	0.5573736227893551	170.20676581331716	0.5456999079335461	171.70181632387107	-0.007653075564874712	-0.3441342226436106	0.3364811470787359	108.80610038723182
0	1.0	ltm	11	diff_vonmises	-0.5119657806104742	-29.333478484100805	0.7226166123206125	1.5301594338459599	5.728375254800594e-24	1.5119101847938712	0.20138514604679977	-0.1364468689083617	0.33783201495516146	137.9204721509756
1	1.0	perception	11	diff_vonmises	-0.12054000944564144	-6.906433803702333	14.421077050419182	0.8175170580095074	0.0016721190473538417	0.8005161226784848	1.0997969297192014	-0.12743690461787668	1.2272338343370781	35.672581020635306
2	1.0	wm	11	diff_vonmises	-0.10424162288737769	-5.972605041041068	2.9805866782030517	4.178678006301241	2.892170394124871	3.8164345092969887	0.2789133365416938	-0.000794858178505331	0.27970819472019914	70.2287197581347
3	2.0	ltm	11	diff_vonmises	-0.09838042479000371	-5.636783127171431	3.3126301104240494	8.235875470519739	3.1865839950968438	7.991378903315138	0.28884797493667946	-0.020778058392815213	0.3096260333294947	57.925093933191164
4	2.0	perception	11	diff_vonmises	0.009226038431136186	0.5286130637296029	5.300156807880151	1.5905032365336118	1.1678566735860743	0.8482418977521954	1.105815572708966	-0.10525454923529079	1.2110701219442568	55.25731695586899
5	2.0	wm	11	diff_vonmises	0.6360929098914683	36.44543911497651	1.2175331492706978	0.7104614231748171	2.0786102552817468e-13	0.133712341016245	0.25036927183226315	0.0025151434951231517	0.24785412833714	117.56728467477322
6	3.0	ltm	11	diff_vonmises	-0.16422028962763896	-9.409129506079722	3.492050078281352	45.0125480785184	3.4615543508539357	44.94482980646746	0.2044583643205442	-0.04985593941093214	0.25431430373147634	51.18478592774707
7	3.0	perception	11	diff_vonmises	-0.029952091207040357	-1.716128413754316	5.198385004893966	1.6076597883149009	0.2229190655446518	1.1056116517435275	1.2059409237119643	-0.1659448321728032	1.3718857558847675	58.652634310636216
8	3.0	wm	11	diff_vonmises	0.33541083734098803	19.21762538258757	0.8818472428412129	37.303934523834464	0.8692210810922609	36.54275299944298	0.33098377648678046	0.00597761762566984	0.3250061588611106	117.97969000290959
9	4.0	ltm	11	diff_vonmises	-0.33824721243639194	-19.38013770467023	14.962703673835954	0.33287030639878806	0.7648629734794234	0.26895295872247205	0.4292225756049002	-0.05842926453040559	0.48765184013530577	34.226571542252486
10	4.0	perception	11	diff_vonmises	-0.08574909647592971	-4.913061325130893	2.840090612149457	2.157325900000234	0.05146530926562589	2.3681091511933055	0.9727791894069486	-0.35339815452568724	1.3261773439326359	80.28116877788742
11	4.0	wm	11	diff_vonmises	-0.507494950835105	-29.07731880705073	1.7304049367908583	86.37176741407048	1.7119780227143644	86.31669078538413	0.2909932627934708	-0.08207443164956896	0.3730676944430398	72.54177469622383
12	5.0	ltm	11	diff_vonmises	0.008095293319978719	0.46382614115522885	2.3768323603182715	8.96927789824627	2.284448677419802	8.709627097678947	0.2644077554226669	-0.019176548838839513	0.28358430426150644	68.6579932367957
13	5.0	perception	11	diff_vonmises	-0.075128061049463	-4.30452082113542	1.9543191267063134	1.9055101035111632	9.371399611311213e-13	1.0866093695263004	0.7964123083226567	-0.15348541575227898	0.9498977240749358	98.08191172590965
14	5.0	wm	11	diff_vonmises	0.16085524357417494	9.216326569349079	0.6838493615768707	20.154202401204884	0.6392427507581481	19.486197074707636	0.35335316186214527	-0.036431293330586145	0.3897844551927314	123.25975274394202
15	6.0	ltm	11	diff_vonmises	-0.4174793615215355	-23.919805449000282	0.43127406038019955	59.93750837705283	0.4138266000534539	59.74372117977494	0.23748001258798546	-0.10639544886618779	0.34387546145417325	134.63515286263438
16	6.0	perception	11	diff_vonmises	-0.045110822934422784	-2.584659764504385	0.8835345872681085	111.61540584245192	0.8696577416158485	111.21748139632815	0.42138937305430346	-0.09747542861827885	0.5188648016725823	105.14244960754748
17	6.0	wm	11	diff_vonmises	0.131129208479835	7.513150216785631	0.00016735654682050155	5763.6920003944415	1.2094069629685281e-30	5763.308963944849	0.21448254369124697	-0.09254541062364297	0.30702795431488994	179.36128769991694
18	7.0	ltm	11	diff_vonmises	0.1815476035905928	10.401911466455077	1.7027320871783571	134.1250480680465	1.6809852151075582	134.69868928353873	0.22287550247109778	-0.2245627267696051	0.44743822924070287	66.65612214947822
19	7.0	perception	11	diff_vonmises	-0.2683017448981553	-15.372557618659965	2.278598662097252	2.151971234724351	0.41087242719779543	1.9741425970796158	0.7460633148070035	-0.20638077588655596	0.9524440906935594	82.72657632992801
20	7.0	wm	11	diff_vonmises	-0.33333499149939116	-19.098688176944286	0.00023850980888516407	4096.280026806621	2.3471734448690702e-31	4095.9886575942132	0.2018767422370047	-0.10911249798493827	0.31098924022194296	176.83288439067633
0	1.0	ltm	12	diff_vonmises	0.018086421807756534	1.0362756360778222	2.3199852759198114	0.5571689202075725	2.7397595710385707e-41	3.9695858761112066	-0.3175895442395196	-0.6287447732013398	0.3111552289618202	90.28143008448382
1	1.0	perception	12	diff_vonmises	-0.06304695275173532	-3.6123243038351456	7.524720720821963	1.0212346641479024	0.14477828888821154	4.380959652573578	0.2958913780146004	-0.723119895782028	1.0190112737966284	47.64618236388242
2	1.0	wm	12	diff_vonmises	-0.0802831226285228	-4.599884092745593	2.747005427018498	0.8986100004821049	0.1367515088322982	4.053764859066501	-0.17679708032507258	-0.6065269536598411	0.42972987333476853	73.3190278181832
3	2.0	ltm	12	diff_vonmises	-0.005590848931340178	-0.3203320476610188	1.8995771711422857	0.6207551985077517	2.6162783444760633e-17	2.563444240698668	-0.09759328529555544	-0.40103483686239905	0.3034415515668436	99.40773795773376
4	2.0	perception	12	diff_vonmises	0.0022413184735731654	0.12841808908044633	5.903616589964339	1.5324218945900918	0.32268889131410355	3.3008543428821437	0.7441033058997694	-0.5418546804893091	1.2859579863890784	52.76317615862794
5	2.0	wm	12	diff_vonmises	0.3193330777107839	18.296437611751056	3.207869907662536	0.6854307922512585	0.04108397623418962	2.2691483594897437	0.09015217041590134	-0.3499296500799257	0.44008182049582706	74.31794595878961
6	3.0	ltm	12	diff_vonmises	-0.1620351952102842	-9.283932818127697	2.0199353539521705	0.8048593626060658	0.08646149073327844	2.1301439041694494	0.048750858991125245	-0.3050421547397509	0.3537930137308761	89.85087578341533
7	3.0	perception	12	diff_vonmises	-0.08432018612916438	-4.831190792958664	3.0759573313851107	2.5451849755511575	0.3576510274438656	3.714402966614838	0.8718990707533347	-0.4956675711161519	1.3675666418694865	71.01233517738021
8	3.0	wm	12	diff_vonmises	0.09324661808459488	5.3426376701155425	0.7728387982250188	144.60620282898398	0.756426160633231	145.23791507212601	0.2666052717911356	-0.2545557154296798	0.5211609872208154	101.34972787585792
9	4.0	ltm	12	diff_vonmises	-0.2098477043340733	-12.023387798851553	4.817645510735704	0.42192992379551925	1.7079320885529496e-17	2.9250836693147564	-0.10685759452014915	-0.46551807408110485	0.3586604795609557	62.23010282263962
10	4.0	perception	12	diff_vonmises	-0.07635650549344826	-4.37490550314207	1.772113202448029	3.7958788161206427	0.37217114191663386	5.573193222483784	0.576056569911497	-0.5863166555473487	1.1623732254588457	87.0975072633207
11	4.0	wm	12	diff_vonmises	-0.3759539165604238	-21.54057271032579	0.7326787669735159	215.71857172587295	0.7196866453371569	218.1714774762646	-0.17251197037819566	-0.4820225526709372	0.30951058229274153	87.91093532129699
12	5.0	ltm	12	diff_vonmises	-0.3079082153298499	-17.641841215805755	0.6706537198008814	155.10674575752745	0.6541876676422943	156.41185612865257	0.12580693891852945	-0.35143715759340743	0.4772440965119369	103.50592424069752
13	5.0	perception	12	diff_vonmises	-0.09628898905332449	-5.516952686336877	1.8810600083353641	3.8499456894168	0.4547377067889108	5.179222540833009	0.6793356524422358	-0.5174874945290546	1.1968231469712904	84.1322368062329
14	5.0	wm	12	diff_vonmises	-0.1886313103658609	-10.807777967986166	0.3880419122862283	221.03960036926	0.3786213847253688	222.03179735171622	0.15804697154121783	-0.36317265984186164	0.5212196313830795	134.12008163059483
15	6.0	ltm	12	diff_vonmises	-0.4228899843474141	-24.229811301460273	0.6023640281424864	185.36766110445168	0.5914647833594089	186.70421217398658	0.029506161486168025	-0.3204407777273417	0.3499469392135097	106.02677016980032
16	6.0	perception	12	diff_vonmises	0.13218654609830488	7.573731199844369	0.15824938419981233	228.4746608881784	0.1480410384575584	229.75032457696264	0.1631203758606361	-0.5149392420638002	0.6780596179244363	161.40624412145837
17	6.0	wm	12	diff_vonmises	0.25468211710659433	14.59221042766444	0.15680778354268787	6.8737363635665645	7.911756419623132e-29	8.281510341772876	-0.04616241600168469	-0.3885454734575068	0.3423830574558221	169.25465180905795
18	7.0	ltm	12	diff_vonmises	-0.5283696980086374	-30.273353718496782	1.3934203683147328	1.0394707474434162	1.13829569657788e-16	2.5743305664216893	0.020933930747215446	-0.3831817653181085	0.40411569606532394	112.70095089485562
19	7.0	perception	12	diff_vonmises	-0.1330259426777582	-7.621825081184761	0.5851236324400305	339.55996049532996	0.5730644201895518	341.52271852778927	0.2621072437858629	-0.5925494533106281	0.8546566970964911	112.26893883246842
20	7.0	wm	12	diff_vonmises	0.21816063240638323	12.499683492790735	0.8871061980198329	70.7654131728999	0.8434464230756393	72.41881099138317	0.07345818158420414	-0.3938634416697191	0.46732162325392324	88.09775111575595
0	1.0	ltm	13	diff_vonmises	0.04648878547915466	2.6636112026446286	4.499402656444448	0.3714924339519119	4.870997547027781e-20	4.020343029909362	-0.33544670155759426	-0.6398198481205197	0.30437314656292547	64.45310311515118
1	1.0	perception	13	diff_vonmises	-0.01783870225001979	-1.0220823509166594	10.35343229593543	0.7703205455273455	0.03655782372229151	4.4896023068706645	0.2354292769576044	-0.7229515032400865	0.9583807801976909	41.71807451293515
2	1.0	wm	13	diff_vonmises	-0.05241158773044714	-3.00296277453427	3.71985114781191	0.5568142206182997	0.03214022641902668	4.172313864811192	-0.2741617807995463	-0.6549712811380184	0.3808095003384721	68.14939847374436
3	2.0	ltm	13	diff_vonmises	0.08172200896851557	4.682326207226204	1.8122755941589905	0.5677002898090853	5.005261326046567e-30	2.2218034353390106	-0.07774655072829756	-0.3462557508173446	0.26850920008904705	101.58268434965765
4	2.0	perception	13	diff_vonmises	-0.0007442212489617086	-0.0426407365894608	7.029720834767407	1.4852583627358902	0.350761519724234	3.089482463455094	0.8636875027851555	-0.5265237758910015	1.3902112786761571	48.67692965078459
5	2.0	wm	13	diff_vonmises	0.01901799841447688	1.0896510439360165	2.7736040964195268	1.1761232321989903	0.34960262921721386	2.83295547605082	0.11592585201119321	-0.3924193142599685	0.5083451662711618	70.3343388050802
6	3.0	ltm	13	diff_vonmises	-0.2464780375212314	-14.122151292633706	1.024643000608846	57.80277075390075	0.9889027256207117	58.833776957440456	0.0404317089338484	-0.24675702246515296	0.28718873139900136	81.14250851989536
7	3.0	perception	13	diff_vonmises	-0.04222281859461681	-2.4191893046180373	4.05030242676331	2.3584410669545286	0.5244345768945324	3.1236261392950833	1.0405112638091794	-0.44471571800631315	1.4852269818154924	61.85325102823424
8	3.0	wm	13	diff_vonmises	-0.0029532438520232353	-0.16920840859388922	2.4735786024266075	1.2323490700907769	0.3594669719246574	2.117252047747611	0.25426019517270265	-0.26735654794296376	0.5216167431156664	76.12044160838803
9	4.0	ltm	13	diff_vonmises	-0.31153432277617893	-17.849601868541367	0.3760592089668627	130.4006225109803	0.36127028140161255	132.6634669009498	-0.14912181244622857	-0.4854134528245453	0.3362916403783167	126.75969822186333
10	4.0	perception	13	diff_vonmises	-0.04524698508711197	-2.5924612811828913	2.6159141457288464	2.739083382481907	0.2521874388227418	4.1886934122285435	0.8132163170397192	-0.5531832973411991	1.3663996143809183	77.76742893617805
11	4.0	wm	13	diff_vonmises	-0.013029273792394127	-0.7465223984245959	0.5846726116515982	133.4890572856081	0.5647874301270545	135.8461740454823	-0.10918606789373086	-0.48902229526829366	0.3798362273745628	102.63562478841484
12	5.0	ltm	13	diff_vonmises	0.02703422101970384	1.5489467668528867	0.693768350233919	106.14506791704933	0.6689289460860263	107.74752804996422	0.05554486911936607	-0.3831100484976293	0.4386549176169954	99.46659254752453
13	5.0	perception	13	diff_vonmises	-0.059161071926563745	-3.389679732862001	0.976671140917965	396.59289142150226	0.9620714543490793	398.1450754486263	0.5787564964482783	-0.5545340872674274	1.1332905837157057	89.3344709275313
14	5.0	wm	13	diff_vonmises	0.029138841770976	1.669532653376434	0.3597628423880056	73.73241139899575	0.32975031971727986	75.30656049384793	0.06158977443107716	-0.45874488305201755	0.5203346574830947	136.8636982802826
15	6.0	ltm	13	diff_vonmises	-0.48810484620623945	-27.966347647499653	0.6662218526555687	237.72337130160923	0.6552620602690185	239.22138523209404	0.08203292762274828	-0.37412573494667356	0.45615866256942184	102.04253368085568
16	6.0	perception	13	diff_vonmises	0.04820941356655447	2.7621959301643044	0.47399813385523143	190.2560957588085	0.4555625758441835	191.66316227958762	0.31619479419251917	-0.5426886362834971	0.8588834304760162	126.06739319172078
17	6.0	wm	13	diff_vonmises	0.0741187886352813	4.246693771423829	0.7056601565254942	2.9632972447162302	1.4969901135678418e-21	4.60160732022946	0.11405360779493179	-0.5259902269719751	0.6400438347669068	141.73708386406506
18	7.0	ltm	13	diff_vonmises	-0.6400492594227922	-36.67212124539993	5.321849875359419	0.28666852683949423	1.5959806513221516e-30	1.8942766389988714	-0.04454194426348557	-0.30147736139323633	0.25693541712975076	59.14266282500627
19	7.0	perception	13	diff_vonmises	0.04116891310470336	2.358804968040329	0.48033365712101206	206.90356154820105	0.46477305328693796	208.8049567826209	0.14236708217008243	-0.5520927653497054	0.6944598475197878	122.21405650713841
20	7.0	wm	13	diff_vonmises	0.23353891106979885	13.380793956380536	0.6323745663822492	159.62352191021785	0.6188169732350219	161.39044140785833	-0.0649775745299408	-0.37076536126601667	0.3057877867360759	99.02173503781631
0	1.0	ltm	14	diff_vonmises	-0.42148666238903637	-24.149406875947196	0.17835655330815628	4.746473630865644	4.632118329080832e-20	5.669641269546683	-0.006567624614895351	-0.2753259362634912	0.26875831164859587	165.649082259793
1	1.0	perception	14	diff_vonmises	-0.08623874836661294	-4.941116311897643	13.657323971657988	0.8272834431893673	0.03570663234553887	1.9466564584493142	0.887142452054407	-0.3140956056140516	1.2012380576684585	36.54318661749127
2	1.0	wm	14	diff_vonmises	-0.0802538268407737	-4.598205567750058	4.247486529450826	0.34717929557329574	3.8787835531774667e-17	1.0655671879246778	0.10617190002848256	-0.16953388172630732	0.2757057817547899	66.38813553859234
3	2.0	ltm	14	diff_vonmises	-0.1406145361847169	-8.056619461573876	9.776792630495727	0.24943615450726264	1.7074377205739524e-21	0.6364034950239152	0.20568081008627404	-0.1012867610452737	0.3069675711315477	43.413179784340514
4	2.0	perception	14	diff_vonmises	-0.010540841291733175	-0.6039457185335378	7.245066894284082	1.3999052929735232	0.4898590339777719	1.5473984427284673	1.0963179384709805	-0.26328846390886695	1.3596064023798475	48.46078578703876
5	2.0	wm	14	diff_vonmises	0.09254517546506749	5.302447968446023	2.8970201309590773	0.49724245999732564	0.14954215957912362	0.8589880937995656	0.16134076321966717	-0.12263284357384736	0.2839736067935145	76.17045308037544
6	3.0	ltm	14	diff_vonmises	-0.18032689411610703	-10.33196996555541	2.1005474848671764	84.9121638213703	2.082313050123482	85.11302629959125	0.12994665100470826	-0.10380350376106762	0.23375015476577587	60.690162523965824
7	3.0	perception	14	diff_vonmises	-0.03263877295248875	-1.8700639386633504	4.34086523072009	2.212784368124297	0.7893310463392342	1.9939462979253544	1.1771892530774797	-0.2647160303392297	1.4419052834167094	59.82381125184449
8	3.0	wm	14	diff_vonmises	0.0280820651473745	1.608983812955983	1.5214926343700506	100.38964048950498	1.50518448532647	100.39124296582537	0.2848795847736909	-0.09466686250797984	0.37954644728167075	76.54770519477583
9	4.0	ltm	14	diff_vonmises	-0.37348757856250236	-21.39926195219215	20.47402624608344	0.21695625821907336	4.40244798608669e-14	0.8300256205699257	0.2568960331134664	-0.13210268040661727	0.3889987135200837	29.920032125886422
10	4.0	perception	14	diff_vonmises	-0.08796047870104032	-5.0397641935199795	3.336662630474115	2.0169219460518018	0.06879650997733532	2.547381028931892	0.9690367350964755	-0.3819531246392855	1.350989859735761	73.60905223246976
11	4.0	wm	14	diff_vonmises	-0.3175231121195798	-18.19273422231116	0.9924690796929309	119.28737882173063	0.9775785903825898	119.92866414079336	0.12002565766608342	-0.18530496896451787	0.3053306266306013	86.12537879416283
12	5.0	ltm	14	diff_vonmises	0.05893864926318268	3.3769358529822067	1.5432875352380813	74.6142368098169	1.5184461206440532	74.87965841764422	0.20630166797083405	-0.13276184792297485	0.3390635158938089	72.34149920996106
13	5.0	perception	14	diff_vonmises	-0.0670932107150402	-3.8441578079537155	1.8240777186537276	2.6623484690183576	0.3330052483015782	2.661381059800041	0.7239691315744902	-0.2679413866451082	0.9919105182195984	91.57822825327457
14	5.0	wm	14	diff_vonmises	0.13525039438015407	7.749276775462736	1.1528035049390841	1.177432760886944	1.902613786472202e-12	1.3967818771183114	0.21379866672392017	-0.17882502757702193	0.3926236943009421	122.3401890761099
15	6.0	ltm	14	diff_vonmises	-0.44101320386042364	-25.26819529074486	0.5545739105368535	71.40500343870828	0.535705504806583	71.67538782741921	0.18490269719990948	-0.16942760059344764	0.3543302977933571	120.30167614143444
16	6.0	perception	14	diff_vonmises	0.051181816070808794	2.932502048672194	0.5536157660661278	115.21700898731596	0.5355815994484019	115.28061431385194	0.37470313444185877	-0.2307315883110519	0.6054347227529107	123.38398900488934
17	6.0	wm	14	diff_vonmises	0.07205855803165762	4.128651253012502	0.00027193099467137227	4614.414301501192	7.773878620905105e-32	4614.616427364179	0.16755172567468435	-0.23186323299523792	0.39941495866992227	179.75523419328485
18	7.0	ltm	14	diff_vonmises	0.07772070639827194	4.4530684573963955	1.3848616869498493	119.37589009564057	1.366555746737093	120.10666600401235	0.09255804138280155	-0.20921944780091728	0.30177748918371883	71.09916971211786
19	7.0	perception	14	diff_vonmises	-0.15886458094099878	-9.102270002033686	2.0463261591734794	1.374022224290906	1.9550519310227157e-11	1.9223791716575798	0.41274868190168185	-0.2939573680477573	0.7067060499494391	95.93299214195042
20	7.0	wm	14	diff_vonmises	0.2647235080279479	15.167539747898982	0.6848107626866655	48.293712387654466	0.661116751794222	48.75364485959293	0.09032650630687655	-0.14533378530689856	0.2356602916137751	105.2143645998859
0	1.0	ltm	15	diff_vonmises	-0.8398051145727086	-48.11728867851675	0.27197988010985613	36.36360336895735	0.2433490349779733	38.33241219905015	-0.2098898482772995	-0.3841209572645514	0.17423110898725191	132.39853793602737
1	1.0	perception	15	diff_vonmises	-0.0813413412513774	-4.660515553637308	11.753637606726942	0.738407458112623	1.3883383929255746e-18	3.08027243335117	0.508303467631492	-0.49024058377581364	0.9985440514073056	39.5602114231925
2	1.0	wm	15	diff_vonmises	-0.07847397644146246	-4.49622765170485	5.08954521721388	0.4066602004916883	0.12244388822952221	2.3592113708967712	-0.06688843945626488	-0.37800680412867727	0.3111183646724124	56.482233238409975
3	2.0	ltm	15	diff_vonmises	-0.16697239708667463	-9.566813648248939	5.5834473661478965	0.27295736242790425	0.0090594565449285	1.1197163146534055	0.07110177036547902	-0.177573893279012	0.248675663644491	57.40253735913842
4	2.0	perception	15	diff_vonmises	0.025482372258305828	1.4600323823821764	6.533845779583223	1.8296649512911687	0.6525678409882599	2.677611419733282	1.0890549779314989	-0.4649975615383207	1.5540525394698195	49.3104897544126
5	2.0	wm	15	diff_vonmises	0.09298291558363857	5.327528629763702	2.5964391963111426	0.6955716732394716	0.21087045519923447	1.7673714458736987	0.07562722332874783	-0.248372799457253	0.3240000227860008	75.87383544288923
6	3.0	ltm	15	diff_vonmises	-0.14923968269755186	-8.550803954441298	1.6770969107774298	137.3608620383959	1.6617364083179285	138.02794873636088	0.04815977210908784	-0.198428774532168	0.24658854664125585	63.05643312403819
7	3.0	perception	15	diff_vonmises	-0.008851398631290879	-0.5071477843608408	4.526349117129108	2.6221425579883904	0.9876332805033441	2.995697990015846	1.1387651282308882	-0.42130277608947886	1.5600679043203671	56.23972488663006
8	3.0	wm	15	diff_vonmises	0.17189844340520574	9.849055311986728	1.2762984112813944	120.01687670324988	1.257151763742918	120.58456240192565	0.1988521120011768	-0.1979911891319066	0.3968433011330834	77.46967359822264
9	4.0	ltm	15	diff_vonmises	-0.6835591673460432	-39.16505533640503	1.0124870339706598	123.64616924613055	0.9895454283488826	125.33031944996593	-0.035594918832345	-0.37218164861710434	0.33658672978475934	78.41676894184803
10	4.0	perception	15	diff_vonmises	-0.014627885835495052	-0.8381161215730645	2.701225936176256	2.4997266826188396	0.31840753338138944	3.499411556370318	0.794622425862309	-0.449309845187141	1.24393227104945	75.8913402075716
11	4.0	wm	15	diff_vonmises	-0.01693702401151786	-0.9704199933717085	0.6334975153066815	140.11897329680897	0.617779351163492	142.10477702174504	-0.1162140320547067	-0.3981260404960274	0.2819120084413207	96.63621519893064
12	5.0	ltm	15	diff_vonmises	0.005693542025461805	0.3262159285393277	1.2703337556283094	122.94920885575344	1.2483879085195686	123.64661951146073	0.22317784166694565	-0.23621989819603328	0.45939773986297894	77.4107235172986
13	5.0	perception	15	diff_vonmises	-0.12068701073201177	-6.914856356994346	1.105213467191845	211.80984767781715	1.083406430265938	212.3262677785632	0.6807785961190405	-0.35700118464637143	1.0377797807654119	87.49092832552031
14	5.0	wm	15	diff_vonmises	0.270714653830971	15.51080711685972	0.9251378813964302	1.7458351516416828	3.1173884495513964e-11	2.363819155536275	0.19554125287152596	-0.2863311319771419	0.48187238484866785	131.05744432089014
15	6.0	ltm	15	diff_vonmises	-0.520800883864132	-29.839692612097704	0.7861218129649266	92.32524749800425	0.7724545163470843	92.57886948351873	0.1652918877688201	-0.12721753249760948	0.29250942026642957	101.82076495003986
16	6.0	perception	15	diff_vonmises	-0.04838578673248013	-2.7723013681912057	0.48029605668437814	117.12613049971354	0.46224079392657125	117.48292924543648	0.30786300787194065	-0.2784361357621403	0.586299143634081	128.37412418633028
17	6.0	wm	15	diff_vonmises	0.138100463842093	7.912573726950959	0.21118029404414088	6.954962210621569	1.6038832230567214e-16	7.402532644048995	0.17392475505552163	-0.2918676472695969	0.46579240232511854	167.41602225092947
18	7.0	ltm	15	diff_vonmises	0.09294603181415696	5.325415345439873	1.3999614873649417	102.58859969413638	1.378351483729899	103.68202332179816	-0.053573780652634184	-0.2645984187119268	0.2110246380592926	64.94825177529938
19	7.0	perception	15	diff_vonmises	-0.09812386072134524	-5.6220830888625954	2.59125557885502	1.106627941828241	2.26754254554124e-17	2.268750931390745	0.30492658181359283	-0.35734359884867367	0.6622701806622665	85.44301899511609
20	7.0	wm	15	diff_vonmises	0.3043027676767968	17.435264282030463	0.6784119592982578	96.23433812925728	0.6637631108708408	97.4165245779898	-0.05995446320929432	-0.2401810726239546	0.1802266094146603	93.97823254828734
0	1.0	ltm	16	diff_vonmises	0.45706542251077104	26.18791967123095	0.4941285034075735	120.25334113713556	0.47912925051606853	123.57194643774805	-0.4695023688374711	-0.5631266293966348	0.09362426055916373	84.89230786936827
1	1.0	perception	16	diff_vonmises	-0.05626751070864945	-3.2238908873127774	11.402842408630908	0.8564503091214044	0.1462406496129063	4.285353820753907	0.3552500694001093	-0.7289616595276025	1.0842117289277118	39.065943407664776
2	1.0	wm	16	diff_vonmises	-0.043455952107870836	-2.4898426505036326	5.410618466819137	0.3315229384526767	0.028716084239880552	3.364602885773114	-0.25125106824640736	-0.5346793783840983	0.28342831013769093	56.860376431940495
3	2.0	ltm	16	diff_vonmises	-0.09629184387264957	-5.517116255435477	17.457552182766342	0.25166687201459453	7.857240976404336e-35	2.0631295445439033	0.08779663093202383	-0.3283572652530926	0.41615389618511645	32.41883011793817
4	2.0	perception	16	diff_vonmises	-0.03299770164926228	-1.8906290381346045	9.32674328693464	1.327082960486459	0.3034086992720923	3.3764015911727374	0.8826236015308486	-0.5969473128696048	1.4795709144004534	42.74111368498589
5	2.0	wm	16	diff_vonmises	0.01281827090231524	0.7344328233580127	4.104420577236323	0.5310375300628514	0.049593119640417765	2.4892556731926647	-0.0020152986900742187	-0.38944828070646	0.38743298201638576	65.15183788410809
6	3.0	ltm	16	diff_vonmises	-0.28615852282232285	-16.395675629417145	2.96587557383565	0.5156949923398698	0.15213162798806656	1.4880195331881771	0.061387314883652455	-0.2190945546993857	0.28048186958303817	73.11895674746663
7	3.0	perception	16	diff_vonmises	-0.062071496619093905	-3.5564347843346393	3.078475375017081	3.864913490051877	0.9831379502880606	4.64766821582834	0.9952983869126009	-0.4980030003899293	1.4933013873025303	64.32608774906453
8	3.0	wm	16	diff_vonmises	-0.005357359288382131	-0.3069540765595062	1.418127440590239	203.0299791417841	1.4016873086734083	203.8914347143275	0.23639813657759134	-0.2867841219008689	0.5231822584784602	72.41243670898638
9	4.0	ltm	16	diff_vonmises	-0.07391643279896462	-4.235099636043043	0.8551317174213451	128.4451482094741	0.8353236774259885	130.77307008083545	-0.23702265723424176	-0.4479838490372501	0.21096119180300832	77.1195696823296
10	4.0	perception	16	diff_vonmises	-0.12621272080659168	-7.231456223080695	2.83820736584576	2.457342794147943	0.3287081283226737	4.054794602720128	0.6863688302152596	-0.5392544726395464	1.225623302854806	73.14872330130959
11	4.0	wm	16	diff_vonmises	-0.03110409452129095	-1.7821333416459582	0.6115270394874454	133.0450097454785	0.5976052458753512	135.32377071655483	-0.25338265461778775	-0.41199506352415227	0.15861240890636452	88.73030935181373
12	5.0	ltm	16	diff_vonmises	0.03657730540720154	2.0957252257936934	1.8498146540267633	1.357144596988366	0.2776315215259918	3.0707419495310044	0.0349087703229094	-0.38116724762064286	0.41607601794355226	83.73093861196139
13	5.0	perception	16	diff_vonmises	-0.08417108485746334	-4.822647919370162	1.760550563141841	4.419182627686835	0.5172189836390387	6.173252442112079	0.5668969062280855	-0.5747709720568783	1.1416678782849639	83.51181282650975
14	5.0	wm	16	diff_vonmises	-0.14305802675229332	-8.196621158376031	1.7128129266284533	0.9325626620857178	2.600890081114629e-13	2.5042100354171413	0.03930962307691882	-0.384313778449324	0.42362340152624284	104.19577857272358
15	6.0	ltm	16	diff_vonmises	-0.33910758442699046	-19.429433388542794	0.7320993167528163	182.88480271238777	0.7192396461206915	184.45294722086334	-0.0033032045562535473	-0.3477914449927404	0.34448824043648685	94.12805509068062
16	6.0	perception	16	diff_vonmises	0.25688726423033964	14.718556051060459	0.11928676764517314	17.899899377182894	2.7300385346729047e-11	19.438160191183737	0.10471590477720083	-0.5741337944899918	0.6788496992671926	171.28339580088425
17	6.0	wm	16	diff_vonmises	0.1354468984755068	7.760535630783484	0.7343580218153886	1.631240251419484	6.602317166697465e-15	3.3638859168376913	-0.060509832030408994	-0.42605285073846055	0.36554301870805156	140.19305846985526
18	7.0	ltm	16	diff_vonmises	-0.4697289873177617	-26.913488488261915	0.9235353471115443	121.53051596006519	0.9061935710204129	122.74492737495432	0.007744714078349091	-0.2744386397409624	0.2821833538193115	83.77800534175314
19	7.0	perception	16	diff_vonmises	-0.1501979676803572	-8.605709639526811	0.436795965564676	188.10858331243378	0.4248010616880883	189.6964092678448	0.04698449526084403	-0.4279306727620842	0.4749151680229282	125.50219153773754
20	7.0	wm	16	diff_vonmises	0.3405954114777381	19.51467959919603	0.7280106331269665	59.86920767076829	0.697897891681483	61.1985166383183	-0.03395202358096938	-0.2827384613241417	0.24878643774317233	93.31867409161413
0	1.0	ltm	17	diff_vonmises	0.05680374071648233	3.2546146036098684	7.346218171735548	0.2894521090971538	1.9278232036925934e-20	3.5683182142156973	-0.26065912642701966	-0.5679153544616449	0.3072562280346252	50.18495958163953
1	1.0	perception	17	diff_vonmises	-0.11539870690289292	-6.611858866802963	12.877650351179085	0.6200479011992057	0.11220420283033306	3.8385357674967966	0.19716219799332202	-0.6463560317152672	0.8435182297085893	36.93382782165304
2	1.0	wm	17	diff_vonmises	-0.10085434975595986	-5.778528586552764	2.5164046090727847	0.9144892215929658	0.14528066763889652	3.7230804815987186	-0.14056928864525786	-0.5469640358193445	0.40639474717408663	76.05451699744523
3	2.0	ltm	17	diff_vonmises	-0.03163452644422739	-1.8125248521492245	1.1538720990749205	0.8942097726500082	1.0905134821494602e-32	2.689486869526337	-0.0966639682510873	-0.3950771290230317	0.2984131607719444	122.43148937569703
4	2.0	perception	17	diff_vonmises	0.005420426322910143	0.3105675514643671	6.832150630951487	1.3540264264259965	0.4042697176354492	3.1031787912074686	0.6733578046122655	-0.5366657956184815	1.210023600230747	48.69401251933607
5	2.0	wm	17	diff_vonmises	0.29275414357808655	16.77357686199129	3.5922643793367803	0.5960757056159149	0.09645984448663297	1.9805537341631114	0.08564917923494003	-0.303158455329229	0.38880763456416906	68.46954930847866
6	3.0	ltm	17	diff_vonmises	-0.3038174431648493	-17.407457235801626	4.032473878284886	0.5232014978449865	0.12678528641516362	1.8107342906373263	0.07817397784876567	-0.2800996765656613	0.358273654414427	64.07592617564447
7	3.0	perception	17	diff_vonmises	-0.07531829324976962	-4.315420323340477	4.264162953810983	2.045598037831039	0.38350803773180114	3.3717925896714314	0.8690298594135403	-0.5050759708029822	1.3741058302165223	61.04061304469931
8	3.0	wm	17	diff_vonmises	0.15910372114244054	9.115971726288207	1.7181584268605186	1.88952777795142	0.5135743894766682	2.5480950864264846	0.2536988267068604	-0.230591418349135	0.4842902450559954	84.85835683964766
9	4.0	ltm	17	diff_vonmises	-0.2586321735189434	-14.81853198893063	0.7545969974652473	120.51494513229368	0.7322648304468687	122.7718121135676	-0.14238968337889446	-0.449671340925919	0.3072816575470245	87.70691187832313
10	4.0	perception	17	diff_vonmises	-0.07144881463837716	-4.093715529991546	1.2289173690926016	17.827533207313348	0.8957076801657405	19.781665614349894	0.48627473522492526	-0.60540121654023	1.0916759517651553	83.91840910123472
11	4.0	wm	17	diff_vonmises	-0.2221995651186354	-12.731097290940111	0.6570576859670559	132.7598243364959	0.6425806937239541	134.83061940139388	-0.20134939958860087	-0.38551656927913314	0.18416716969053226	88.70289777533654
12	5.0	ltm	17	diff_vonmises	-0.2370839550939545	-13.583910017152727	2.4420616570002154	1.104869623328976	0.16951346546396936	2.8024936480807576	0.11755382652180446	-0.39414413872361537	0.5116979652454199	79.28150890013583
13	5.0	perception	17	diff_vonmises	-0.07566789598831337	-4.33545108476525	0.985576711720695	384.1081047751706	0.970638903837164	385.97846537291383	0.45862865831864497	-0.5795809942143535	1.0382096525329985	87.4091724093372
14	5.0	wm	17	diff_vonmises	-0.13763884946046018	-7.886125171120856	0.4838239639103216	139.62252786955185	0.4675438536171993	140.72493662263022	0.15782941161111808	-0.36597783260954486	0.5238072442206629	123.55275005598642
15	6.0	ltm	17	diff_vonmises	-0.399742108668656	-22.90353572037391	0.8231514804544111	228.1266784611612	0.8086389716774233	230.0151841439031	0.05560409242049502	-0.43968212460156764	0.49528621702206266	90.17307158256615
16	6.0	perception	17	diff_vonmises	0.051768274022423844	2.9661036141616237	0.6430532184348785	64.19785286687934	0.5851760742765619	66.26261575907579	0.16160731649607385	-0.5500084468056388	0.7116157633017126	107.08291988555567
17	6.0	wm	17	diff_vonmises	0.19455368096361408	11.147104807949795	0.9475629719724185	1.336017843498494	4.879786199748394e-31	3.2665649957274128	-0.07664085069583043	-0.4532694717772975	0.37662862108146705	130.43089830030578
18	7.0	ltm	17	diff_vonmises	-0.3245356958714087	-18.594525674772974	0.9576991720184874	208.55333794343423	0.9424371594571022	210.73537537503128	-0.11737610924669184	-0.4571393287824108	0.339763219535719	78.18673139827901
19	7.0	perception	17	diff_vonmises	-0.23055664649285262	-13.209922782730148	0.40319729654581177	218.47233847743254	0.3883548306598275	220.92513513487748	0.039813154496528114	-0.6540958308519897	0.6939089853485179	129.20496231422294
20	7.0	wm	17	diff_vonmises	0.5141258327859222	29.45724035728203	1.0754848032493667	54.35026107950087	1.0131136530269442	56.27679080291405	-0.024555056703750466	-0.4345010781884193	0.40994602148466885	77.21033108193026
0	1.0	ltm	18	diff_vonmises	1.5688484221476866	89.88839328482095	712.1471550510068	1387.3892332942223	0.7404844776390123	1.214245699756965	inf	-0.34810232922986295	inf	0.0
1	1.0	perception	18	diff_vonmises	-0.10660858246367651	-6.108221835041064	15.564814965579911	0.7805194748552299	0.23164530352639184	2.0527013730903247	0.8118870542862139	-0.36950437749945897	1.1813914317856729	33.74115915810739
2	1.0	wm	18	diff_vonmises	-0.019958939546284298	-1.1435629995588446	5.213927601789409	0.21784685308826024	1.9122483452117846e-12	0.9221732774212574	0.04639005021964926	-0.14676271849063036	0.19315276871027962	59.76381011958648
3	2.0	ltm	18	diff_vonmises	-0.16136438907821093	-9.245498457888402	134.9151268256	0.5230629781781923	8.248743069076891e-46	0.658376544114602	2.313752551393997	-0.10478388141159821	2.4185364328055954	11.64150105334005
4	2.0	perception	18	diff_vonmises	-0.030743519839030953	-1.7614739341531895	9.89017813574237	1.316703112085411	0.656717130251128	1.876494334862766	1.111395514777401	-0.3679239136590987	1.4793194284364999	41.09027551706944
5	2.0	wm	18	diff_vonmises	0.13049691783523457	7.4769226314244195	4.698579819877164	0.2171720029608291	1.4256048007785703e-17	0.8005705064450629	0.05471664609850041	-0.127399638969269	0.18211628506776942	63.03956169329069
6	3.0	ltm	18	diff_vonmises	-0.21416919757710856	-12.270991122871777	3.0120284072064463	30.914159461069893	2.961417718328703	31.036053422052277	0.11597059579542446	-0.08993978475637832	0.20591038055180277	50.705604872842
7	3.0	perception	18	diff_vonmises	-0.04356844572676044	-2.49628806008816	2.7460478100803187	192.5140834495347	2.7080732167921906	192.30839427480424	1.0895345962793215	-0.3170822203556547	1.4066168166349762	57.134038707741496
8	3.0	wm	18	diff_vonmises	0.13621645484408215	7.804627962800265	2.2897222515136493	87.14223689372417	2.2678470042769034	87.20817196696761	0.24128371184094277	-0.10243616245644738	0.34371987429739015	60.80959544392874
9	4.0	ltm	18	diff_vonmises	-0.42418672126253987	-24.304108853835793	15.789532961600422	0.26305092919848727	0.6899942013212002	0.9560516863854026	0.14328030002711678	-0.21965779653856723	0.362938096565684	31.933527226903948
10	4.0	perception	18	diff_vonmises	-0.12204161279449824	-6.992469338094538	3.5568977367317096	1.8469566997852567	0.3823380682721244	2.5436517377626857	0.7589475950459675	-0.35268515413708273	1.1116327491830502	66.75515704449936
11	4.0	wm	18	diff_vonmises	-0.3743604304870859	-21.449272683610655	1.141961548003824	62.3179086070573	1.1240416620240228	62.99018387538881	-0.03719307535622107	-0.14807713028739755	0.11088405493117648	71.44716394071777
12	5.0	ltm	18	diff_vonmises	0.04057879282326152	2.324993566508639	1.9577101526468015	125.77566708177417	1.9340696349932942	126.36948693235449	0.16945677970596762	-0.22986498470178418	0.3993217644077518	60.96491363571835
13	5.0	perception	18	diff_vonmises	-0.09429872801736712	-5.402919128847185	2.2295075947894025	2.0812283399502136	0.31446506590520357	2.674273003442826	0.5773131777481488	-0.31567549866706335	0.8929886764152122	82.79627182359377
14	5.0	wm	18	diff_vonmises	0.06196616683931508	3.5503998324962702	4.894616363786779	0.426150242787553	6.05003347538762e-32	0.8659539121921492	0.22747805883229963	-0.137800363749892	0.3652784225821916	61.73604541028112
15	6.0	ltm	18	diff_vonmises	-0.41391829352672754	-23.71577128233867	2.7447650859337895	0.5393312873031045	2.017710898262896e-18	1.1229640137097254	0.15691659357731655	-0.17733905165101463	0.3342556452283312	82.93455134876879
16	6.0	perception	18	diff_vonmises	0.37006905085868896	21.203394742615092	0.2875807217443071	5.808519636040239	3.8608912518421725e-12	6.359622181228946	0.19522084448940302	-0.3328704551278554	0.5280912996172584	160.57262020313252
17	6.0	wm	18	diff_vonmises	0.15239950316863768	8.731848331453556	0.0004037796855976813	2026.4417403007692	9.954429846433179e-24	2027.0637072013785	0.031248915869696248	-0.22920083899674637	0.2604497548664426	179.15328973658507
18	7.0	ltm	18	diff_vonmises	0.07980487399113316	4.572482464265284	1.5795288291108864	139.60776649488236	1.5632283260838058	140.35522278596764	0.06008660751738404	-0.21688342205198552	0.27697002956936956	65.29202218956539
19	7.0	perception	18	diff_vonmises	-0.37767602381746346	-21.639242188023015	0.7823458215862857	135.19465264729112	0.7671764613108923	135.89300813967253	0.18394027824622583	-0.23134459134398355	0.4152848695902094	98.91645367111825
20	7.0	wm	18	diff_vonmises	0.7224255792421924	41.39193670287144	11.575813827665957	0.20072940599060454	1.0659647860134926e-16	0.6313020344409404	0.16884336674297837	-0.10047483934148393	0.26931820608446233	39.868968245450276
0	1.0	ltm	19	diff_vonmises	-0.017027641543606534	-0.9756119955102808	0.00028027131070331883	2653.453369691398	8.868857172790956e-31	2655.6265233414056	-0.22749842477122684	-0.46422127957083603	0.2367228547996092	179.9756421389867
1	1.0	perception	19	diff_vonmises	-0.0549388046743747	-3.1477616393352696	12.026770017147564	0.8382969084508928	0.11751609152709945	3.243001703364424	0.5687118131168607	-0.5435876136829806	1.1122994267998414	38.42101465677189
2	1.0	wm	19	diff_vonmises	0.02201752067286308	1.261511009897095	3.1502784848115404	0.48707318311762265	1.3727590072722752e-13	2.4410582005300796	-0.0605283510683427	-0.3879045070333783	0.3273761559650356	77.3806789556564
3	2.0	ltm	19	diff_vonmises	-0.09183518156952221	-5.261768314751226	11.448413159384764	0.22513316844599773	2.053289860187726e-32	1.2541010164908881	0.10080320809242044	-0.19959637587691023	0.30039958396933064	40.087051521139614
4	2.0	perception	19	diff_vonmises	-0.022022771620128466	-1.2618118670138474	8.371906903893333	1.2918340371024977	0.3610233095755825	2.2493585808267413	0.9701215839268678	-0.3933492468330299	1.3634708307598977	45.178707447402644
5	2.0	wm	19	diff_vonmises	0.043368055796182005	2.484806562809096	3.362310506864659	0.7041291480370006	0.2755990657396188	1.6762637281275323	0.1469279421422448	-0.24532319449651213	0.39225113663875694	67.27522575861465
6	3.0	ltm	19	diff_vonmises	-0.2547391530729488	-14.595478347817002	1.4260447347776284	20.473024660824887	1.360980698554849	20.875167466222635	0.07374889811082141	-0.12233204835525413	0.19608094646607555	71.63708475829878
7	3.0	perception	19	diff_vonmises	-0.0528200313611867	-3.0263648707446467	4.368295335502388	2.0538039922222824	0.6683923548421276	2.151143636495753	1.0572632107851536	-0.30084497022977996	1.3581081810149336	59.78374319052796
8	3.0	wm	19	diff_vonmises	-0.002211876124589094	-0.12673116674470775	1.4815238815696787	103.12832301523655	1.4603866975266337	103.4056829023067	0.26540969457661845	-0.15386647953919486	0.4192761741158133	74.4138662972475
9	4.0	ltm	19	diff_vonmises	-0.36842895560012767	-21.109424206300112	25.353026915056553	0.17438727000321522	1.672836529046902e-32	1.3029879311904564	0.14114836847499537	-0.20737697003804353	0.3485253385130389	26.865089170360648
10	4.0	perception	19	diff_vonmises	-0.08435711161714142	-4.83330646757621	3.500081523698545	1.9689359699946478	0.14404571389454193	2.8212497953031006	0.8905665989088928	-0.4131900906556312	1.303756689564524	70.43662615578333
11	4.0	wm	19	diff_vonmises	-0.13642360065258283	-7.816496543371179	0.7569139111108641	143.52460672943457	0.7446784620689311	144.6280833914911	0.011834151356623579	-0.24984353510276414	0.2616776864593877	93.21875898630226
12	5.0	ltm	19	diff_vonmises	0.08570716349343928	4.910658742211796	0.9723755848476513	72.2213424016212	0.942198721432174	73.34271820401018	0.04277350561346083	-0.2662713256596323	0.3090448312730931	83.27460919113003
13	5.0	perception	19	diff_vonmises	-0.03923341079618141	-2.2479088545241934	1.3306208157046013	6.68158556499448	0.6458132307229517	7.74752183438816	0.5680496959871002	-0.4422859178788535	1.0103356138659536	90.28189256686721
14	5.0	wm	19	diff_vonmises	-0.01854124317603498	-1.0623349809125424	1.327579467079494	1.1081994980074623	3.1476681279835387e-17	2.1414703508544326	0.10518702306341021	-0.3094763565578642	0.4146633796212744	116.11607390485838
15	6.0	ltm	19	diff_vonmises	-0.44114661703998753	-25.27583930286529	0.6023613430735937	101.89103509127878	0.5797455070164329	103.10362439435085	0.118379824625233	-0.33955019040871015	0.45793001503394315	109.96412331436954
16	6.0	perception	19	diff_vonmises	0.16081876409512055	9.214236449160428	1.179592222836843	2.372177502090021	6.791070329806469e-14	3.338596977432619	0.3590628842786677	-0.4472108489299236	0.8062737332085913	121.28016588545222
17	6.0	wm	19	diff_vonmises	0.04195789292945262	2.4040101821194333	0.49889166648979644	3.263231192404194	3.8960813820439935e-09	4.439437274832006	0.09792000894552078	-0.40994321027577096	0.5078632192212917	152.20492986481233
18	7.0	ltm	19	diff_vonmises	-0.12590815867602423	-7.214006098399667	0.9705518362438823	140.388297651912	0.9564565259228498	141.53873259003072	-0.008195068495204794	-0.25701488373009695	0.24881981523489216	80.81478826422301
19	7.0	perception	19	diff_vonmises	-0.09563736105673804	-5.479617152319908	1.1764002949337788	1.8096518239162145	2.0055191564320866e-13	3.0035872746478125	0.20013973289474113	-0.4135342966574959	0.613674029552237	121.53317031964701
20	7.0	wm	19	diff_vonmises	0.2833626922973077	16.235486340099932	0.5931738177187748	73.0987789233166	0.571701257026962	74.03411340070242	0.05316369959095013	-0.2427994706675376	0.29596317025848773	109.21815640604206
0	1.0	ltm	20	diff_vonmises	-0.27190915951369854	-15.579247251084402	0.0002775799589159089	3413.9681642469527	3.161525554986519e-29	3416.095850478746	-0.18780233820461945	-0.4894402936027973	0.30163795539817784	177.88097350129013
1	1.0	perception	20	diff_vonmises	-0.09088902373318333	-5.207557463975778	8.574822001730949	1.0572912228744054	0.18315797821657204	3.303078994773058	0.5899021552397175	-0.55528495521154	1.1451871104512574	44.91172695371415
2	1.0	wm	20	diff_vonmises	-0.040432741637061266	-2.3166254499464856	2.7057486108790627	0.7636970404592713	0.15257579468499946	2.598532088536066	-0.00760338055261478	-0.3809478988591113	0.3733445183064965	74.9075230905944
3	2.0	ltm	20	diff_vonmises	-0.042779649166968046	-2.451093346317617	2.906909128172761	0.39373208306253527	2.5308598458395266e-17	1.6544571960851993	-0.010064453958962882	-0.26255869661223763	0.25249424265327475	80.62288748848553
4	2.0	perception	20	diff_vonmises	-0.0014894346312412994	-0.08533831823075057	6.093873749199414	1.495548128313133	0.3659187997884997	2.596798798056721	0.8634699822596937	-0.4269876675968276	1.2904576498565214	52.197094963386405
5	2.0	wm	20	diff_vonmises	0.48591631027937643	27.84095377557765	3.662527214754129	0.5419673551475191	2.920543132353226e-18	1.4696688067501005	0.16309765350019495	-0.2336434930862345	0.39674114658642945	71.60921652193349
6	3.0	ltm	20	diff_vonmises	-0.1553011522093486	-8.898100575114475	2.1425514974146465	0.6245424981690415	0.26376408904872006	1.3190531007355586	0.06723222267345602	-0.17010550583221162	0.23733772850566764	81.13642118881455
7	3.0	perception	20	diff_vonmises	-0.08425590495704544	-4.827507753094095	3.692884833676169	1.898355496605991	0.26077672219702286	2.4450468115537247	0.9003326393386931	-0.34882923466408705	1.2491618740027801	67.40109978582817
8	3.0	wm	20	diff_vonmises	0.17923051735621914	10.269152204457606	0.8175152323711345	98.60583398131546	0.8021551514685805	98.6353071948622	0.2802512542465436	-0.12874618896247458	0.4089974432090182	103.72711807241868
9	4.0	ltm	20	diff_vonmises	-0.27013793191168545	-15.477763384931974	6.069365514507785	0.4852276730888665	0.2679521572500459	2.018322841358241	0.05360132915297294	-0.33943769167760796	0.3930390208305809	50.84576795401196
10	4.0	perception	20	diff_vonmises	-0.08540721563716162	-4.893472995973089	2.51863953707793	2.0797739593068014	0.14918489869733778	3.251357923344697	0.6336954425536037	-0.4494596765266866	1.0831551190802902	81.52560100829336
11	4.0	wm	20	diff_vonmises	-0.5610157234808579	-32.1438331959316	1.108913691107001	161.8741172225143	1.091787766705398	163.36493020203622	-0.016190918159757928	-0.3417635703816906	0.32557265222193266	75.2380986476555
12	5.0	ltm	20	diff_vonmises	-0.34848001830079484	-19.966434293277235	0.8642993567373064	164.40256559389115	0.8520804161849954	165.16341868262157	0.14463427440625054	-0.223344641886424	0.36797891629267454	92.61337305905872
13	5.0	perception	20	diff_vonmises	-0.11619045637232758	-6.657222769833292	2.871919126441786	1.898790986261124	0.10628344117112752	2.5493300670640506	0.7629402865336754	-0.36747723771216834	1.1304175242458436	78.24776637699111
14	5.0	wm	20	diff_vonmises	-0.17257776516756654	-9.88797758190139	0.41929535659128586	123.32547927020626	0.40611423282337716	123.70443418250598	0.21212464268077014	-0.2359189561904813	0.44804359887125145	133.3579938058697
15	6.0	ltm	20	diff_vonmises	-0.40004385240154033	-22.920824362762705	0.5022203096337815	94.96060868443257	0.4871837839721574	95.7329704314252	0.07793006958130633	-0.2330152599937847	0.310945329575091	120.05736899111989
16	6.0	perception	20	diff_vonmises	0.22534098812309175	12.911087570760767	0.06417611163997389	211.05481799545467	0.055322135965878975	211.73316508548675	0.19200230372415206	-0.3903407867892419	0.582343090513394	171.6083177737553
17	6.0	wm	20	diff_vonmises	0.3936811556296843	22.55626869141384	0.00019169118145142744	4156.746611828725	1.3343617889534684e-29	4157.549612913719	-0.000982802970497687	-0.25460822765421653	0.25362542468371885	175.2156110694722
18	7.0	ltm	20	diff_vonmises	-0.41290905721817095	-23.657946301327016	0.933106696545502	1.325588570976674	8.358581675190806e-22	2.3933626408194106	0.05522612699703533	-0.3134384897995222	0.36866461679655754	129.95870778617353
19	7.0	perception	20	diff_vonmises	-0.22159432212779195	-12.696419421984906	0.7487660639174966	180.0847822522744	0.7266706998190525	181.27165427563048	0.41560282463880327	-0.44638304117315997	0.8619858658119632	102.52921036565023
20	7.0	wm	20	diff_vonmises	0.20230053191425323	11.590966671938327	1.65706281477773	1.4192110469251669	0.24049708917734136	2.1409334196992824	0.2258724222521511	-0.24485089457617903	0.47072331682833013	93.81174928890533
0	1.0	ltm	21	diff_vonmises	-0.48921743743658297	-28.030094429321604	0.0002979765381044446	1842.4078948534484	1.9167215575789284e-27	1844.621065439986	-0.26485538176132195	-0.4396056778781485	0.17475029611682658	173.26000604844023
1	1.0	perception	21	diff_vonmises	-0.0913144072865746	-5.231930146259376	11.766263218965523	0.7752158675555176	0.1006388572506732	3.230478506701391	0.48186558708026817	-0.5368083195251587	1.018673906605427	38.88279552686711
2	1.0	wm	21	diff_vonmises	-0.04158888906047814	-2.382867817803197	3.623738019279901	0.4816028065890017	0.06292748530592507	2.4215522288318816	-0.059336750696454166	-0.3760933581012835	0.31675660740482936	68.26145869254199
3	2.0	ltm	21	diff_vonmises	-0.10264868364159845	-5.881336345237165	11.018137364805902	0.22629801999786472	8.117089830343104e-60	1.321815951877718	0.08574059517183574	-0.2103735425193964	0.2961141376912322	40.86840108377595
4	2.0	perception	21	diff_vonmises	-0.004070055670806335	-0.23319701232049017	7.689352207558772	1.4276500423637184	0.46573496777539697	2.5620936681674533	0.9360482838248549	-0.4548904561936975	1.3909387400185524	46.389496092440794
5	2.0	wm	21	diff_vonmises	0.2580703220663573	14.786340271984153	3.605728147588756	0.4599925976880961	0.04204191429041539	1.488158684031073	0.08714217939497354	-0.23071996098094688	0.3178621403759204	70.25473993098694
6	3.0	ltm	21	diff_vonmises	-0.1918636938521591	-10.992979899518836	1.4487452795934253	46.940570040619484	1.4139492110343814	47.50065197242781	0.05564649156183421	-0.1584679194709624	0.2141144110327966	69.03669353487297
7	3.0	perception	21	diff_vonmises	-0.05275962901593551	-3.022904071289062	4.649095882353883	1.9745143896430692	0.6488882780837183	2.3784213960854745	0.9931570402997266	-0.3517588976561104	1.344915937955837	57.76328984031417
8	3.0	wm	21	diff_vonmises	0.12948377644878198	7.418873905930654	1.3764521875198987	133.82396399590786	1.3620675659303831	134.09658905664833	0.23413690715740643	-0.14144541513126718	0.3755823222886736	77.0026804080029
9	4.0	ltm	21	diff_vonmises	-0.4276843863151944	-24.504510299503302	16.820901765157995	0.20669003648467324	0.04632007382801078	1.676875429550411	0.05600539880299693	-0.2739791628158789	0.32998456161887585	32.71763900365792
10	4.0	perception	21	diff_vonmises	-0.06659986360623593	-3.8158911007842495	2.969148371049074	2.0442456225824777	0.26716473643155836	3.149776437103409	0.6877029351258342	-0.4293679645047049	1.1170708996305392	73.363792133642
11	4.0	wm	21	diff_vonmises	-0.22811673616853403	-13.070126218756299	0.7804371278109075	150.4214716261655	0.7684483883228299	151.91271352787356	-0.09944727542323761	-0.2965143171163156	0.19706704169307798	85.45909136724752
12	5.0	ltm	21	diff_vonmises	-0.08447675061281157	-4.840161277093293	1.1143427150329106	108.69266630647907	1.0904258888595058	109.75311514420572	0.10613271463705587	-0.2779582934615803	0.38409100809863617	79.28509729596468
13	5.0	perception	21	diff_vonmises	-0.0942957775106984	-5.402750077267642	1.2636335062907964	11.931906789528865	0.8589059732704384	12.972681865720912	0.5783800503503826	-0.43534527165681547	1.0137253220071982	86.74892634888207
14	5.0	wm	21	diff_vonmises	0.0149368117044655	0.8558162700474826	1.3053499327460922	1.1866680640818286	8.073108005509057e-16	1.9209061989433533	0.1670889884168436	-0.2709778344351114	0.43806682285195503	116.88755670332128
15	6.0	ltm	21	diff_vonmises	-0.43301661574502887	-24.810024541228266	0.7251974685999463	137.07990891561596	0.7106448348329594	138.0057479580119	0.1151585518085696	-0.25589952409581684	0.37105807590438644	100.0605625061939
16	6.0	perception	21	diff_vonmises	0.19112482481163678	10.950645821884027	0.31583314470370866	64.27122138325566	0.27939978311250746	65.23716588277617	0.21928470563834956	-0.42458439746776744	0.643869103106117	144.43778947262695
17	6.0	wm	21	diff_vonmises	0.20307088540824103	11.635104675876985	0.2279688123431386	5.18558911507483	9.405835741019893e-17	6.224851963308969	0.03257113836734238	-0.3420959842127387	0.37466712258008106	165.93809845149627
18	7.0	ltm	21	diff_vonmises	-0.13041321805864148	-7.472126987479448	1.0184079955649366	129.8824241356428	1.0019122831657692	131.14544595416666	-0.02712712207767254	-0.27957729082962857	0.25245016875195603	78.03431788174112
19	7.0	perception	21	diff_vonmises	-0.19964828459402575	-11.43900409426441	1.619008005105878	1.443418787668516	6.829688703651546e-10	2.8034096638177832	0.20868538455762398	-0.42047618641955936	0.6291615709771834	106.77913377697388
20	7.0	wm	21	diff_vonmises	0.6289749752099286	36.03761149887449	7.658202914180025	0.3389202875056548	1.904974435040884e-38	1.4520235475225909	0.13655570316394977	-0.23109664311284434	0.3676523462767941	49.134406037077724
0	1.0	ltm	22	diff_vonmises	-0.14601014830687847	-8.36576526406336	0.0004402143046072225	1629.7002560552528	8.369387465673413e-25	1631.2216411098939	-0.12794519538829263	-0.3563015782961543	0.22835638290786164	179.36654542405336
1	1.0	perception	22	diff_vonmises	-0.07945557009937755	-4.552468825500193	15.465750005939263	0.6809832771422274	0.07479774751775348	2.5079146584791254	0.6294523223547189	-0.4147113432636392	1.0441636656183582	34.17138242103121
2	1.0	wm	22	diff_vonmises	-0.00775188458465327	-0.4441502699731555	2.963904673337957	0.493898736699959	1.8504493967670483e-11	1.75830620919759	0.04138435644087346	-0.27898712192079134	0.3203714783616648	79.83157217392599
3	2.0	ltm	22	diff_vonmises	-0.12450690362296296	-7.133720097837877	17.93270609058156	0.20532513016975576	1.0149265044859268e-30	0.8431874810980143	0.21018168135030335	-0.13419745556995297	0.34437913692025635	31.968415644234938
4	2.0	perception	22	diff_vonmises	-0.008966925245998134	-0.5137669718050005	7.914303125215546	1.3209327854884765	0.5399356967008636	1.8700525993271102	0.9817577756475315	-0.3352288390069907	1.3169866146545222	45.91673383205162
5	2.0	wm	22	diff_vonmises	0.047904129463690895	2.744704439517784	3.587432067137852	0.6371921656371562	0.41878933791712575	1.2001313275921683	0.18340018327478091	-0.17290761806054494	0.35630780133532586	64.35687827245187
6	3.0	ltm	22	diff_vonmises	-0.236310018271178	-13.53956670359787	2.101762777487569	50.956175998142704	2.0711447274993544	51.216781356533176	0.1008911348859165	-0.11317153551378922	0.21406267039970572	59.474367611083494
7	3.0	perception	22	diff_vonmises	-0.040345057409021265	-2.3116015137499306	4.835217375040318	2.0253190123475933	0.8631976517834306	1.9816795095989506	1.0993388649322902	-0.28350138151453097	1.382840246446821	56.351608991817386
8	3.0	wm	22	diff_vonmises	0.06587151721913218	3.774159926779603	1.709301982610266	78.171103496697	1.684061907840602	78.29838592829923	0.27139121703478963	-0.12128649294029259	0.3926777099750822	70.48803952977136
9	4.0	ltm	22	diff_vonmises	-0.41169771997714216	-23.588541789849046	31.653213788042475	0.1777050819890973	2.0099185552162126e-22	0.9279654236054625	0.2492464323983043	-0.14769028418517394	0.39693671658347823	24.047338841048145
10	4.0	perception	22	diff_vonmises	-0.06850275995499104	-3.924919030418772	3.357380317908196	2.083676180794244	0.23564832433570584	2.7966921664555167	0.8986392724305317	-0.39315003811795374	1.2917893105484854	70.57168177011917
11	4.0	wm	22	diff_vonmises	-0.11411898749593206	-6.538536345823122	0.8462200028428196	119.16130555078007	0.8335231633208058	119.90542720240741	0.05804502270908074	-0.18662151521421677	0.2446665379232975	90.76963167333702
12	5.0	ltm	22	diff_vonmises	0.06086006958022464	3.4870251278193996	1.3200928199298	113.05212617803312	1.2988354815474725	113.88695110457626	0.10444087156746917	-0.234668513625218	0.3391093851926872	72.95688776388843
13	5.0	perception	22	diff_vonmises	-0.019580216404062236	-1.1218637619055876	0.921051935004692	228.84312034117852	0.9028649777339519	229.69036311019167	0.5183088481534384	-0.38567821281909076	0.9039870609725291	93.86438998479164
14	5.0	wm	22	diff_vonmises	0.1056821257052464	6.055139772881648	1.4127283273493332	1.0767767030164153	1.2203398167749616e-19	1.766511083040695	0.16867346017506124	-0.2544827518230121	0.42315621199807335	113.1930749769152
15	6.0	ltm	22	diff_vonmises	-0.4736129342047188	-27.136022252737533	0.7297459151144892	43.4730050330405	0.6730404219117052	44.39982392941361	0.21088749995829303	-0.3021651234749796	0.5130526234332726	103.55859769596773
16	6.0	perception	22	diff_vonmises	0.04413199126622637	2.5285768410629808	0.8821276738790709	169.70683767411347	0.8601723211759164	170.48360551967204	0.465664170667317	-0.3552026861744846	0.8208668568418016	96.010382624346
17	6.0	wm	22	diff_vonmises	0.049279123769572795	2.823485810099337	0.3704618061268981	4.6520129441126175	1.9289521012491584e-18	5.474871836850366	0.1651603007995378	-0.37727284683974105	0.5424331476392789	159.0446388005814
18	7.0	ltm	22	diff_vonmises	0.07482701367198796	4.287272076972619	1.3261685879216238	179.0325627512938	1.3112024871179415	180.301455383309	-0.021474229642862497	-0.30869337383153095	0.28721914418866845	68.27733109402897
19	7.0	perception	22	diff_vonmises	-0.11773759994130947	-6.745867566636762	1.1730919479512922	1.7982826722789182	4.554052944142426e-21	2.890386126039898	0.21281261384150413	-0.3956050053498235	0.6084176191913276	121.62738924748098
20	7.0	wm	22	diff_vonmises	0.40987153226092704	23.483908941111284	0.7360977878710427	35.34982841649653	0.6927667591835146	36.16333550159394	0.061727611038135066	-0.2075877914196158	0.2693154024577509	98.76440998710493
0	1.0	ltm	23	diff_vonmises	0.11804875212316861	6.763695273443577	3.7968665145114526	0.5497252212365691	4.895168615172058e-65	3.9877770361961495	-0.22392314871687874	-0.6344675605426244	0.4105444118257457	70.31730605913737
1	1.0	perception	23	diff_vonmises	-0.12066839471318674	-6.913789737684336	8.423411196059453	0.8976158705008929	0.20703735266651896	4.094923320083542	0.22982762826415704	-0.7001497685748511	0.9299773968390082	44.5379686519172
2	1.0	wm	23	diff_vonmises	-0.034643184745260826	-1.9849082747954412	0.83155452730337	84.84328418181866	0.7839658198495202	87.65221618774628	-0.07333184215147881	-0.59793289653852	0.5246010543870412	87.32965150820701
3	2.0	ltm	23	diff_vonmises	-0.13668460848552402	-7.831451190618566	0.0005428818493747968	1811.81860304817	5.009256037597234e-27	1813.941330582569	-0.1812766665416916	-0.49436600125523	0.3130893347135384	179.4350251579915
4	2.0	perception	23	diff_vonmises	0.017259058257870163	0.9888711965463716	5.19372232654552	1.4249849844739166	0.36348201474321856	3.1494688993087117	0.5631790329035309	-0.5080693110604516	1.0712483439639824	55.292158048599674
5	2.0	wm	23	diff_vonmises	0.5502561279087235	31.527353780380643	4.103012542979115	0.6433011324545708	1.090888486923041e-11	1.8344265370738388	0.2094811118073877	-0.29182111811989614	0.5013022299272838	67.56739893473272
6	3.0	ltm	23	diff_vonmises	-0.260569982831325	-14.929560284031243	1.9099497587590701	0.7790063126600452	8.342248798866228e-17	2.17443895550904	0.04474796531276698	-0.3375019844027357	0.3822499497155027	99.04127938880801
7	3.0	perception	23	diff_vonmises	-0.13910607285190799	-7.970190879053686	3.1768683532127024	1.906066773831845	0.10922891195265143	3.361772610488409	0.6946109852299414	-0.49574117383508287	1.1903521590650241	73.88261069570623
8	3.0	wm	23	diff_vonmises	0.28357686355508305	16.247757449263467	0.4845070820136345	106.03526532173545	0.4664116299080599	106.18704748829188	0.32068604207967866	-0.23541121287718525	0.5560972549568639	128.46461327690741
9	4.0	ltm	23	diff_vonmises	-0.2110249365155846	-12.09083823435913	5.8964914053044275	0.4842865336353986	0.05720553096579068	2.755800103382726	-0.0057746174463330635	-0.4391912321217267	0.43341661467539366	54.42307849848794
10	4.0	perception	23	diff_vonmises	-0.07371850789116374	-4.223759374165537	0.8919583756671599	286.83477158132763	0.8736178356752863	288.81725559998455	0.3728698383953031	-0.5781015160931915	0.9509713544884946	91.22132977194127
11	4.0	wm	23	diff_vonmises	-0.5968415712142827	-34.196503068535165	0.9995513058600591	195.9599351680753	0.984993217059219	197.90383566477746	-0.1187040115680702	-0.4080561320275855	0.2893521204595153	75.87330053063121
12	5.0	ltm	23	diff_vonmises	-0.5698901522936689	-32.65230051249496	3.046980985530372	0.9386371262567217	1.551191120573108e-17	2.461473009409392	0.22843979983930746	-0.390355999056024	0.6187957988953314	78.6284540693554
13	5.0	perception	23	diff_vonmises	-0.09527949366572266	-5.45911286118937	1.9651091532556815	3.414838917540554	0.41369750890119117	5.106721634565854	0.5646539253739316	-0.5530701492520903	1.1177240746260217	82.62855758425957
14	5.0	wm	23	diff_vonmises	-0.3451065138664677	-19.77314672702162	0.372327830409433	202.09288307571322	0.36181088376581944	202.7498314766331	0.2416554910749653	-0.33803912157346616	0.5796946126484315	136.68844513877073
15	6.0	ltm	23	diff_vonmises	-0.3928843708802594	-22.510616288091406	1.2224689263063022	2.2958453660982903	0.2734713722485697	4.28103268248176	0.0007914783825565541	-0.4431595471440729	0.44395102552662946	97.65247185195975
16	6.0	perception	23	diff_vonmises	0.2180853179438928	12.495368291953739	0.3101269163578995	197.1326639574413	0.29606523206548946	199.1340638073714	0.07732631323533212	-0.5979768895455138	0.6753032027808459	141.6436505123685
17	6.0	wm	23	diff_vonmises	-0.39813310222629883	-22.811346442017484	0.970656804770313	143.32796719321826	0.9521175979947739	145.21518362720948	-0.12354573528669732	-0.39084145843649765	0.2672957231498003	76.68867386767364
18	7.0	ltm	23	diff_vonmises	-0.42256976852176975	-24.211464286117554	1.2290296755661974	1.5313899839519973	3.6753001713842635e-15	3.726648093900471	-0.004318705641465415	-0.5427121679793513	0.5383934623378859	118.65584041030033
19	7.0	perception	23	diff_vonmises	-0.3207198699817588	-18.37589495593928	0.5153967232164951	154.53598280114028	0.4851657210966587	157.04953095345414	0.25993898122160886	-0.7591481977342589	1.0190871789558678	119.68858261135287
20	7.0	wm	23	diff_vonmises	0.3421982658538601	19.606516390121897	1.2014341978756298	122.47764905918113	1.1675891252907764	123.70129250092782	0.3108214336587807	-0.38490256326833183	0.6957239969271125	79.17269963696958
0	1.0	ltm	24	diff_vonmises	-0.32491371232885313	-18.616184422371028	1.276078763804581	0.7922193946093788	1.7844826289028922e-17	3.110379599299321	-0.1836134306451524	-0.47076720155742774	0.28715377091227534	117.40511430667247
1	1.0	perception	24	diff_vonmises	-0.027611337674773667	-1.5820131154750952	8.23240890653808	0.9771117100014243	5.0368044009281447e-20	3.5565954563670212	0.53413048296989	-0.5660496696419672	1.1001801526118573	47.37033730872761
2	1.0	wm	24	diff_vonmises	-0.08989462361519006	-5.150582534067453	5.208777490115344	0.444543108140766	0.050557424935957905	2.8703664272447607	-0.08626015169816392	-0.4553169123473003	0.3690567606491364	57.69401685131797
3	2.0	ltm	24	diff_vonmises	0.050547175865251814	2.8961398433844643	1.5037473462192856	1.115083530215566	0.3598164218290186	2.1284438246287354	0.01361665089531744	-0.2260303250368207	0.23964697593213813	87.20578410590895
4	2.0	perception	24	diff_vonmises	0.02310212896192799	1.3236544872854197	5.638123143935004	1.874492252074693	0.5120629060960905	2.6661249718740123	1.0683779407575966	-0.4315517409803254	1.499929681737922	53.53467324925853
5	2.0	wm	24	diff_vonmises	0.06755617789333646	3.8706838733231717	1.7472571476990926	1.856417786430734	0.520643456740326	2.992351314742635	0.13239060533653524	-0.29389515957727547	0.4262857649138107	80.8170354518727
6	3.0	ltm	24	diff_vonmises	-0.15711865410338977	-9.002235762900067	1.2314576536306399	109.36607272606584	1.2149700318954297	110.09936072522068	0.051876136649930515	-0.19038590962151858	0.2422620462714491	74.25765399077312
7	3.0	perception	24	diff_vonmises	-0.016573756217146726	-0.9496062819212162	4.553220890280543	2.0886569006666633	0.4594153440725973	2.4108381381963815	1.145999295395471	-0.3544643970916669	1.5004636924871377	59.88671095344111
8	3.0	wm	24	diff_vonmises	0.08391751830672153	4.808119626186967	0.9495449409133151	127.19149662863825	0.9321800255785496	127.7704732909464	0.22929279091473376	-0.21300905877184917	0.4423018496865829	90.93445051164178
9	4.0	ltm	24	diff_vonmises	-0.5731074036297589	-32.83663543568574	0.6222660292203369	123.27323641882592	0.603903981487257	124.98895755006302	-0.027943203814324136	-0.37700959854228167	0.34906639472795753	101.9186371175921
10	4.0	perception	24	diff_vonmises	-0.014820447323150073	-0.8491490821124578	2.7342483542471077	2.449310850314029	0.10995279171376351	3.298566697411357	0.936700392359351	-0.47084329559436505	1.407543687953716	79.99352660668316
11	4.0	wm	24	diff_vonmises	-0.10793158182544803	-6.184024114769073	0.6371802811991801	208.31009940324046	0.6231970619833704	210.3146955791862	0.011650249539520985	-0.4592327082986678	0.4708829578381888	102.00621893215936
12	5.0	ltm	24	diff_vonmises	-0.03604506332143784	-2.065230000600193	0.9312318154632631	108.29299064257698	0.9124181590604924	108.95587598277172	0.17209608259246068	-0.2102328099449693	0.38232889253742997	90.35775572877273
13	5.0	perception	24	diff_vonmises	-0.0972140287182184	-5.569953555017494	1.063959493763864	243.21797679491263	1.044371762383097	243.5638908399139	0.775397446672585	-0.3596999971216377	1.1350974437942227	90.08465176684535
14	5.0	wm	24	diff_vonmises	0.21618251402900587	12.386345658389747	0.307701617586493	152.39579941174625	0.2954121503858382	153.10651166770447	0.18650331151963684	-0.3300558125247868	0.5165591240444236	144.02813446689834
15	6.0	ltm	24	diff_vonmises	-0.564597864745597	-32.349074772020806	0.6263022421034355	126.74390787639452	0.6157329928903565	127.04079189382752	0.17430005578908236	-0.1584557552741419	0.33275581106322427	113.25372068181596
16	6.0	perception	24	diff_vonmises	-0.030415513200886722	-1.7426805381352504	0.3638859301393766	156.6838560044163	0.3492660089388947	156.89375296406894	0.37007331237349916	-0.31356499631711543	0.6836383086906146	140.48923114336793
17	6.0	wm	24	diff_vonmises	0.09240686737146696	5.294523498410212	0.24995755071598977	6.879612018632638	8.567752918936757e-14	7.306737929638539	0.22123835502208933	-0.32330218872164507	0.5445405437437344	165.52704659207248
18	7.0	ltm	24	diff_vonmises	-0.9984522249109355	-57.207098532843446	0.00014595192534226065	4647.705861997163	1.5314391483770493e-30	4648.704529234689	-0.0509781718466229	-0.26689960448311467	0.21592143263649177	153.49496374183542
19	7.0	perception	24	diff_vonmises	8.829128326699649e-05	0.005058717898992925	1.1597241456070562	4.891546618936996	0.43971097656332614	5.982470828518007	0.40903575658896707	-0.41408189499717557	0.8231176515861427	99.95250614056235
20	7.0	wm	24	diff_vonmises	0.1030943284081798	5.906869909524369	0.6085885649448493	128.81925072290173	0.5955294994927578	130.02874913731253	-0.0017009330960036095	-0.2752803912762367	0.2735794581802331	104.04017454645228
0	1.0	ltm	25	diff_vonmises	0.06681162849726567	3.8280243352893017	7.181686071286268	0.17819074786655145	9.211658423787342e-10	3.7974464368252736	-0.41743989572814766	-0.6043822628964046	0.18694236716825696	50.76495949485604
1	1.0	perception	25	diff_vonmises	-0.0384144563621818	-2.200986221842491	12.441274970875261	0.6854556882601259	0.09887277320850016	4.409184707004574	0.1816229395301282	-0.7362691702580734	0.9178921097882016	37.606667141529755
2	1.0	wm	25	diff_vonmises	0.0076084760754199805	0.4359335676478251	3.486238586879689	0.5031421502029237	0.01427098048866061	3.848760659946426	-0.26273414058727884	-0.6063188218004161	0.34358468121313723	71.74957807886298
3	2.0	ltm	25	diff_vonmises	0.08878387951850804	5.0869415852085025	0.23181270272163967	3.109725991790516	1.94893862095448e-12	4.694813333770254	-0.13145595187920556	-0.35989834257167896	0.2284423906924734	166.55547246749214
4	2.0	perception	25	diff_vonmises	-0.015585459335160114	-0.8929810416774445	8.515780377365054	1.3461983719806885	0.4013285547568343	3.031073963691102	0.8503683507828445	-0.545251140914327	1.3956194916971714	44.21771681915453
5	2.0	wm	25	diff_vonmises	0.028415894795877788	1.6281108428915572	3.767574950437395	0.7571329263677888	0.253509947038177	2.3114522193639377	0.09679500073509689	-0.35329390750394435	0.45008890823904124	63.43626048552812
6	3.0	ltm	25	diff_vonmises	-0.30812849623800564	-17.65446238215039	2.8751104219131753	0.5095603053084904	0.3925576746341058	1.2349739818082837	0.04555488852555173	-0.17240129025469259	0.21795617878024431	68.30425394802265
7	3.0	perception	25	diff_vonmises	-0.05126162383446732	-2.9370746967022052	4.324118151260145	2.292414046389228	0.769243966539932	2.8711851228719807	0.9837934584604672	-0.4098491669345439	1.3936426253950112	58.34750572476409
8	3.0	wm	25	diff_vonmises	0.0445856083766806	2.554567187006928	1.8432285049493689	3.454075577068726	1.1041137324775223	4.074683755764209	0.22361750771990851	-0.22226371344652918	0.4458812211664377	71.9241587234103
9	4.0	ltm	25	diff_vonmises	-0.1217196140652663	-6.974020169900972	0.6243783121887582	114.10782846892141	0.6073525633945988	116.02923865199463	-0.14466599306412675	-0.372270744164366	0.22760475110023926	95.13351730287945
10	4.0	perception	25	diff_vonmises	-0.06676008204516558	-3.825070941135093	3.066129007741979	2.2931639451207957	0.32716588023375137	3.637944785492919	0.7386341618104398	-0.49388679922666373	1.2325209610371035	71.14791852994554
11	4.0	wm	25	diff_vonmises	0.24934686507130116	14.286523003403559	7.18147069328094	0.2727176618552153	6.584750829814545e-39	2.144904737265839	-0.05528107222045903	-0.3413720258825288	0.28609095366206977	50.766936146248895
12	5.0	ltm	25	diff_vonmises	0.13860061796575893	7.94123044734308	0.7608191152389756	136.1607391866811	0.7399167651736931	138.24184372697542	-0.06471959767609547	-0.43809824928098706	0.3733786516048916	90.37472818915009
13	5.0	perception	25	diff_vonmises	-0.05004203646150365	-2.8671974874839394	0.970843500201627	347.658876113276	0.9540508357553117	349.70855802075965	0.4251694119702023	-0.607695308955563	1.0328647209257653	87.54249209144632
14	5.0	wm	25	diff_vonmises	-0.025731774895512382	-1.4743221008935443	1.4227745440526651	1.198806618262382	5.812468088277577e-19	2.940974007493328	0.03484770919887353	-0.4388469663259425	0.47369467552481603	112.92281506217816
15	6.0	ltm	25	diff_vonmises	-0.42634513650410466	-24.427776937614166	0.7536388020070895	249.29379639268961	0.7401036869437888	251.3402353845462	0.04608945528006814	-0.47312284289769124	0.5192122981777594	94.13167338932261
16	6.0	perception	25	diff_vonmises	0.15678232918199791	8.982965764359244	1.4050846261639436	2.27445954717557	1.029321712068198e-15	4.324530807226653	0.2587857872231817	-0.6312625831440624	0.890048370367244	113.38369683535439
17	6.0	wm	25	diff_vonmises	0.0874689799633199	5.011603390212592	0.9956869074061314	2.0437749726778316	1.848881514262393e-17	4.238321310974442	0.022161664003041204	-0.5794432634916327	0.6016049274946739	128.68203412377557
18	7.0	ltm	25	diff_vonmises	-0.37742964154049335	-21.625125523405803	0.9940269647145582	133.98082290010828	0.9758038082903256	135.7379498160718	-0.1299320169974294	-0.36269737212479214	0.23276535512736274	74.96919089888414
19	7.0	perception	25	diff_vonmises	-0.06898133830661236	-3.9523395501330016	0.6647955847878317	2.552918561422078	3.2741423345176853e-18	4.461302487668121	-0.0007000107297203684	-0.5223576837644868	0.5216576730347664	143.76657014508976
20	7.0	wm	25	diff_vonmises	0.3818592532243501	21.878923577772632	0.6223688374574667	99.61979794359819	0.6023585521217473	101.25973319431534	-0.058495687741505265	-0.34570993030931874	0.28721424256781347	100.27272123128353
0	1.0	ltm	26	diff_vonmises	0.09431196135855871	5.4036773434463194	0.000830815802949549	764.6309085980839	4.122293352872226e-33	768.2925499464583	-0.4816438839867345	-0.6838507608220254	0.20220687683529093	179.59663278522078
1	1.0	perception	26	diff_vonmises	-0.03513899497051348	-2.013316108141849	7.6661620139233735	1.1923509187402257	0.2179661786681289	4.850971229480269	0.3453485996426131	-0.8230768783683374	1.1684254780109504	46.56638573986345
2	1.0	wm	26	diff_vonmises	0.013635592270387888	0.781261888254434	3.540015746449594	0.5182669647441774	0.023923933749777353	3.8776025502200513	-0.25944035396389314	-0.6089222200046607	0.34948186604076753	70.39129284239397
3	2.0	ltm	26	diff_vonmises	-0.14490228090885296	-8.302289137896357	0.7274973096690672	1.1158855207064218	5.0103354252069356e-33	3.0834286076969395	-0.16736026298057183	-0.4152633437713981	0.2479030807908263	140.54569933860594
4	2.0	perception	26	diff_vonmises	-0.038664317600948336	-2.215302216287724	9.134637421148163	1.2578454628588704	0.21869815317708793	3.2044511782591654	0.8675007891882539	-0.5468133570142953	1.4143141462025492	43.60311100762337
5	2.0	wm	26	diff_vonmises	0.15915412380905855	9.118859586361625	3.3279077041978886	0.652426469632529	0.06400271966080115	2.472425343816124	0.0340325500820457	-0.37979186484706307	0.41382441492910876	71.71754672104532
6	3.0	ltm	26	diff_vonmises	-0.2782300321067001	-15.941406573503306	2.120447819509722	0.45578084381172373	1.3254393047514523e-13	1.2702652533481225	0.041397596944721254	-0.19866291987926074	0.240060516823982	94.24811891482109
7	3.0	perception	26	diff_vonmises	-0.09087119009732951	-5.206535671907981	3.0802788074049277	2.7329842706737213	0.6258580746086903	3.362969727892649	0.9075102757028115	-0.40462552689106585	1.3121358025938774	68.3302746078501
8	3.0	wm	26	diff_vonmises	-0.04368932686869346	-2.5032140393436437	1.231554481538491	163.20769556875294	1.2165939472595917	163.72293286968906	0.25241740476629815	-0.20277947403799246	0.4551968788042906	79.99352694648161
9	4.0	ltm	26	diff_vonmises	-0.04357006541868373	-2.496380861599476	3.1060656580645256	0.585867243504186	0.21920727549808763	2.7595967455608776	-0.1490066376068815	-0.42080896793115447	0.271802330324273	66.15866522927809
10	4.0	perception	26	diff_vonmises	-0.11499034142564167	-6.588461248457621	3.186606923187498	1.9336835499681604	0.1462069962059945	3.3239591396225645	0.7014213068319022	-0.482940677284373	1.1843619841162751	73.03721305872665
11	4.0	wm	26	diff_vonmises	-0.24405383072118467	-13.983254474324113	0.6447553339767436	168.75118462701886	0.6327196662842746	170.82293418132784	-0.17730844635939036	-0.39350903699235573	0.21620059063296537	91.66191732752173
12	5.0	ltm	26	diff_vonmises	-0.16260119733154788	-9.316362350871557	0.5810656550188882	63.9784387199885	0.5476967128462356	65.70403423056855	-0.03869192507881536	-0.3795486603470781	0.34085673526826277	106.0603250341312
13	5.0	perception	26	diff_vonmises	-0.07758599975168096	-4.445350335074372	2.503754498577066	2.524464441656121	0.24393628769548073	4.226286315998289	0.6431988850522451	-0.5585731871556658	1.2017720722079108	78.84229282877169
14	5.0	wm	26	diff_vonmises	-0.27495440981391533	-15.753727240847772	0.48386434420653857	154.7808674796336	0.4697512552697729	156.26769164803457	0.04826868854435418	-0.39146623476707454	0.4397349233114287	119.86265080594245
15	6.0	ltm	26	diff_vonmises	-0.3538390722186246	-20.27348546495193	0.541172266831725	114.13889030379254	0.5223394640498662	115.91279720259566	-0.04149407125901661	-0.39426948404469897	0.35277541278568236	109.45732894953912
16	6.0	perception	26	diff_vonmises	0.30946727056373385	17.731168500735087	0.02383042184866212	101.24830609634685	7.335809067990213e-05	102.80033270819695	0.13805956565202848	-0.6275100746572075	0.765569640309236	175.6669957189174
17	6.0	wm	26	diff_vonmises	0.09592922663644132	5.4963398182220455	0.33590013253580014	76.85943309157747	0.3134996606452009	78.7204184403719	-0.0853341340683933	-0.4350913329942614	0.3497571989258681	135.7778569771931
18	7.0	ltm	26	diff_vonmises	-0.4969632526078857	-28.473896947525652	0.6094639870124633	47.25771086235527	0.5706030343031522	48.440470259657765	0.039699751394426386	-0.2914229062350824	0.33112265762950877	107.34177819745148
19	7.0	perception	26	diff_vonmises	-0.14899009199589103	-8.536503460630424	0.4863049086369443	210.02887628019474	0.4728717870144769	211.63015188250768	0.1385649418414232	-0.4741872348322751	0.6127521766736983	121.71638445340909
20	7.0	wm	26	diff_vonmises	0.2484911291383513	14.237492946067842	1.2088148013607258	2.0757089605465393	0.30285703353968857	3.4431414019732585	0.06524264785916567	-0.332420525536453	0.3976631733956187	98.60492014985962
0	1.0	ltm	27	diff_vonmises	0.11203297051189354	6.419016376645105	4.710380426986173	0.5447636885207479	1.1392472150749088e-21	4.074876970522923	-0.19103888298114463	-0.6484997345389014	0.4574608515577568	62.95764790476571
1	1.0	perception	27	diff_vonmises	-0.10090940861510483	-5.781683226806576	8.485280488332018	0.8592835144341231	0.16261403615798048	4.175890944150654	0.20609672542100976	-0.7020474683280125	0.9081441937490222	44.718476918219665
2	1.0	wm	27	diff_vonmises	-0.0656451694378708	-3.7611911542111756	1.6814676886820226	2.056355131100151	0.298838467926403	5.13352645611973	-0.12267751097243962	-0.6260118254871799	0.5033343145147403	83.1813734272339
3	2.0	ltm	27	diff_vonmises	0.01574022308826296	0.9018483515518423	1.282833734306068	0.9193973794806252	9.904733875155158e-31	3.0231116225344596	-0.11858852258465485	-0.4532742552838959	0.33468573269924107	117.67942881853291
4	2.0	perception	27	diff_vonmises	0.01227999032599201	0.7035916181408222	5.381800081050119	1.4332091462859355	0.33992197285956827	3.178638869701418	0.6016534884991936	-0.5148401405424559	1.1164936290416496	54.691240594424215
5	2.0	wm	27	diff_vonmises	0.4166881667182676	23.87447332600035	3.60382660459907	0.6566958315883165	0.007562069466025106	2.0395968537249516	0.1496954864743416	-0.3219248971159705	0.4716203835903121	71.78996802313145
6	3.0	ltm	27	diff_vonmises	-0.23238040405568697	-13.314416393935621	2.3382862536119973	0.7614028954176706	1.1511769187323917e-21	2.2945164303571577	0.06616728275944367	-0.36116709584244455	0.4273343786018882	89.89479364856575
7	3.0	perception	27	diff_vonmises	-0.1092747308884997	-6.260980887338886	3.168036562065916	2.203451673370315	0.18284210137644852	3.712504254201606	0.7849370820268795	-0.5316764115872253	1.316613493614105	72.54257904882547
8	3.0	wm	27	diff_vonmises	0.17523945824893705	10.040481361823092	0.5607508732438847	69.76413768012816	0.5282807831016355	70.27674117352906	0.296864404701477	-0.2904550933889416	0.5873194980904186	120.50730231959017
9	4.0	ltm	27	diff_vonmises	-0.16861451996759785	-9.660900358767703	3.9869449607360914	0.5530965790219465	6.263916157188613e-14	2.9513101845428986	-0.04525128825636254	-0.46956942531346835	0.4243181370571058	68.57720564787573
10	4.0	perception	27	diff_vonmises	-0.07203258980605991	-4.1271633832843095	0.9052998070066286	384.79011025267636	0.8897426605854432	386.87232845662646	0.47234593334171393	-0.6367847852920505	1.1091307186337644	91.120968954499
11	4.0	wm	27	diff_vonmises	-0.4184524510611153	-23.97555937270653	0.7814154006636884	209.2066748519379	0.7687203926420311	211.3533053302615	-0.13181372730728214	-0.43043137805528886	0.2986176507480067	86.01366144692291
12	5.0	ltm	27	diff_vonmises	-0.42653161536338274	-24.438461389219214	2.2435048964578512	1.0518364193927436	3.744332808082474e-17	2.5622901977018473	0.1735728398788008	-0.40125736495943803	0.5748302048382388	91.61191767371612
13	5.0	perception	27	diff_vonmises	-0.07259908272646759	-4.15962103674771	1.0105824124788412	99.34607155917578	0.9513252880529651	101.01609603033087	0.5600982869465625	-0.5724100304975721	1.1325083174441346	88.41153852463245
14	5.0	wm	27	diff_vonmises	-0.27338484654272394	-15.663797889729757	0.39423426563835556	200.38484461142906	0.3829241876915735	201.31622293094742	0.20508361275386022	-0.3779837453424335	0.5830673580962937	133.8767982044492
15	6.0	ltm	27	diff_vonmises	-0.4170834100583327	-23.897119101266732	0.663952976322735	219.21475132964724	0.6507603645983916	221.14816046821727	0.017891948755256237	-0.44284596029762113	0.46073790905287737	99.94654891300021
16	6.0	perception	27	diff_vonmises	0.08954819519512686	5.130733647694446	0.46361599714087603	205.68177141641428	0.4476525830063147	207.568863868009	0.16185994957488248	-0.5673817843855815	0.729241733960464	124.49546927073963
17	6.0	wm	27	diff_vonmises	0.40187818934705455	23.025924127945586	0.00023543339621665265	4345.612768276226	2.545446187552256e-29	4347.454071756192	-0.1302111840808493	-0.4558747490427777	0.3256635649619284	175.02187577598897
18	7.0	ltm	27	diff_vonmises	-0.4545536746533687	-26.04400711980077	1.9439335208927089	0.9411415376496038	1.2226828460349783e-19	3.0687653509720985	-0.011171103391434845	-0.4786310319514367	0.46745992856000185	97.99228407248489
19	7.0	perception	27	diff_vonmises	-0.20455515063353363	-11.720146808964286	0.4758804653892621	316.1803001028261	0.4621238461785616	318.66708091350085	0.21276348929889366	-0.7403923901532288	0.9531558794521224	122.83970514889336
20	7.0	wm	27	diff_vonmises	0.30624424254018434	17.54650259773331	1.0392960050089666	134.90849019298128	1.0110720661947827	136.60121267249036	0.13664329022466148	-0.42863238168148143	0.5652756719061429	81.81912948944222
0	1.0	ltm	28	diff_vonmises	-0.054160340564405676	-3.1031589313316363	0.2940034658746761	3.469271081881754	1.530141812636959e-14	6.822780385079339	-0.36076308378298183	-0.6831252630246825	0.32236217924170063	163.27338655267133
1	1.0	perception	28	diff_vonmises	-0.0916292757260908	-5.249970778945524	7.620014976682186	0.9759955979131145	0.17710239354796578	4.210591489634756	0.26217715573216793	-0.7041106979369772	0.9662878536691452	47.00824065700746
2	1.0	wm	28	diff_vonmises	-0.042273817564718215	-2.4221113303643618	1.462300732952519	2.791155087039189	0.4052096788268789	5.672199890025888	-0.10939882379818822	-0.5942402145059205	0.48484139070773224	83.5656130111245
3	2.0	ltm	28	diff_vonmises	-0.014440186065595407	-0.8273617169422381	1.1725669526376303	0.8415351390826463	2.897704991280659e-26	2.797271530649539	-0.1304171387237752	-0.41503229255995666	0.28461515383618147	121.72483757830241
4	2.0	perception	28	diff_vonmises	0.01745610013332594	1.0001608643973299	5.334652824065701	1.5422290319552052	0.3806528699766311	3.227164596262384	0.6591408759494116	-0.5230258601081039	1.1821667360575154	54.67353627620045
5	2.0	wm	28	diff_vonmises	0.5053634767774081	28.955194339403075	3.954050557112646	0.617416490182269	7.641526240083797e-14	1.887895695000779	0.17124978124356832	-0.30029445623731654	0.47154423748088486	68.85535070720007
6	3.0	ltm	28	diff_vonmises	-0.19660961344884023	-11.264901062317096	2.19293739873525	0.6124057827855636	9.681826231834358e-16	1.8736153970472995	0.03572851534375926	-0.29403694268051667	0.3297654580242759	92.7744076497198
7	3.0	perception	28	diff_vonmises	-0.11249175133572724	-6.445302581572312	3.3780247027333243	1.9240488886167404	0.16738970687617227	3.1647562705786827	0.7560395391213646	-0.46032043073502965	1.2163599698563943	70.83953203310583
8	3.0	wm	28	diff_vonmises	0.26281051423621776	15.057933277398115	0.5770862112479158	123.36170311776877	0.5619122124925411	123.6163143253446	0.287370511732032	-0.219692097826357	0.507062609558389	119.51876951776484
9	4.0	ltm	28	diff_vonmises	-0.2464605574103819	-14.121149756056608	5.476624506951571	0.4722984635313496	0.06967944486884978	2.804828537653653	-0.048204028801415943	-0.4467535137536431	0.39854948495222714	55.9479370765803
10	4.0	perception	28	diff_vonmises	-0.059474706319989704	-3.407649659915454	1.291924624793564	6.9508030573164135	0.5962469787246667	8.734668253237306	0.43909645796358054	-0.5532174655346165	0.992313923498197	89.9693566422043
11	4.0	wm	28	diff_vonmises	-0.5555246967696552	-31.829220540186082	0.942819509333267	208.62928130126	0.9285124177127546	210.79674947259056	-0.14388100418436522	-0.4454078229892282	0.301526818804863	77.65060205645773
12	5.0	ltm	28	diff_vonmises	-0.4782338216690541	-27.400779602048853	1.1384381033669122	4.015485130007759	0.48716837258950324	5.380043845990637	0.1619553903436568	-0.3653761607803651	0.527331551124022	94.97732797887451
13	5.0	perception	28	diff_vonmises	-0.10853566398763653	-6.218635473141612	2.1226742805324306	3.1013823699713283	0.3856992615849855	4.537300684558918	0.6348076803819995	-0.5152691754143197	1.1500768557963192	81.43188992305207
14	5.0	wm	28	diff_vonmises	-0.2602338528387117	-14.910301454086738	0.36630079739643623	191.0804660762964	0.3557755307323242	191.76198554766057	0.21563984996828367	-0.3280047554561385	0.5436446054244222	137.57289186838273
15	6.0	ltm	28	diff_vonmises	-0.4174908144635656	-23.920461654241617	0.6272202592887848	165.61299506594935	0.6134762082112444	167.13073522549533	0.024701178546905567	-0.356349480590497	0.38105065913740255	103.52373996841033
16	6.0	perception	28	diff_vonmises	0.21791132840841626	12.48539942589149	0.16025863998253326	228.01294290690686	0.15006596614136267	229.55886322603544	0.1118780144415723	-0.5497375155034554	0.6616155299450277	160.33429278968342
17	6.0	wm	28	diff_vonmises	0.5859996751758966	33.57530818361603	0.0001273495592655976	6742.7082333047265	1.5955419583328998e-31	6744.253920547411	-0.10933985581300476	-0.3826589734319441	0.27331911761893934	169.86240229122032
18	7.0	ltm	28	diff_vonmises	-0.49290580617252516	-28.241422391179093	0.9167262593147876	1.7260981368412611	5.108489619082019e-18	3.5788295727340236	-0.007045277645907344	-0.47965841781298285	0.4726131401670755	129.9716845920619
19	7.0	perception	28	diff_vonmises	-0.24454207671496703	-14.011228909132013	0.5818303558711064	232.76682275615596	0.5622767910408449	234.95592991436476	0.29319048013238813	-0.6647968094763357	0.9579872896087238	112.99811482300224
20	7.0	wm	28	diff_vonmises	0.2804758613369179	16.070083109901898	1.0380574221296603	72.87393627045697	0.9878299244708499	74.27340842495119	0.216618338068983	-0.38866792611397827	0.6052862641829613	84.2348568524433
0	1.0	ltm	29	diff_vonmises	-0.3509278647429703	-20.106685563310002	0.0002475219141354486	3031.3318376600205	2.0568834517580574e-29	3032.8077906304775	-0.11548072367617124	-0.3543149192652777	0.23883419558910646	176.4941967540184
1	1.0	perception	29	diff_vonmises	-0.0655756334983793	-3.757207038353836	11.181886371100182	0.9583207961954338	0.10423261966442812	2.6557596926641027	0.7955551400387793	-0.4394048799223556	1.2349600199611348	40.03907820561926
2	1.0	wm	29	diff_vonmises	-0.007864810162050744	-0.4506204289571087	4.262561401918036	0.3512740370891842	1.4712958453306874e-11	1.6471364919680689	0.017393165298850766	-0.2620944329780879	0.27948759827693864	66.26941675687345
3	2.0	ltm	29	diff_vonmises	-0.14155597942228504	-8.110560185737661	11.301790373382255	0.21086585441144134	4.343428420304364e-30	0.9046441718475313	0.1355601357994489	-0.14397859164616544	0.27953872744561437	40.344886115596495
4	2.0	perception	29	diff_vonmises	-0.020712312191764715	-1.186728072545478	8.2479234401962	1.3686367336139225	0.3840363246033586	1.8879234772606863	1.1174659815694234	-0.32781026208475744	1.4452762436541808	45.70776634373021
5	2.0	wm	29	diff_vonmises	0.09663102760162828	5.536550051585467	2.964529451492198	0.52034690849684	0.09441965558519566	1.238895654121955	0.122249104534941	-0.1841558625495376	0.3064049670844786	75.85147770373302
6	3.0	ltm	29	diff_vonmises	-0.18176296506461934	-10.414250769986515	1.635339218850983	62.530558322190075	1.6170950109197793	62.790650993299245	0.07626114025474706	-0.09268390176400843	0.1689450420187555	67.26533517780456
7	3.0	perception	29	diff_vonmises	-0.044515822380432835	-2.550568743952815	4.302241501440728	2.1104654733814807	0.7952363601176055	1.9342736909868044	1.102392318209101	-0.2560312723402886	1.3584235905493898	59.94318643888903
8	3.0	wm	29	diff_vonmises	0.00799158702544797	0.4578842081696763	1.5233387015492146	112.21820134634105	1.5078049745780637	112.32715516938971	0.25657124430132683	-0.11061969791636628	0.3671909422176931	74.93961210787018
9	4.0	ltm	29	diff_vonmises	-0.3737026925765252	-21.411587077309775	20.764846097210917	0.1816016300541346	0.016501074587999213	1.0806654310107415	0.15308681258441273	-0.17362807343468928	0.32671488601910204	29.641683073589007
10	4.0	perception	29	diff_vonmises	-0.08719265167609462	-4.995770945594505	3.8235975682259067	1.733276610250811	0.013355821564170648	2.2937339875270277	0.9301860316944455	-0.3598315952313897	1.2900176269258352	69.75322958958313
11	4.0	wm	29	diff_vonmises	-0.26986910438489387	-15.462360702229876	0.8749962548083652	134.83544972626137	0.8616720729088676	135.77683766514406	0.04567267776004513	-0.22564435517311132	0.27131703293315645	88.09724536171001
12	5.0	ltm	29	diff_vonmises	0.04944619953673617	2.833058546416709	1.2658438469718867	74.35059199147254	1.2397005412748332	74.94565869225657	0.12615946744824313	-0.18093559385112457	0.3070950612993677	76.26579984409159
13	5.0	perception	29	diff_vonmises	-0.08032716577077686	-4.602407578913245	2.3584293049579856	2.0812857112411858	0.1800455849282548	2.421156435817418	0.727443305205701	-0.31589104310675803	1.043334348312459	84.4691814689279
14	5.0	wm	29	diff_vonmises	0.07130193015775849	4.085299669176125	1.2209344655664764	1.0820708982527687	1.6246269699454834e-14	1.6229498783012366	0.15612998001624717	-0.22224573153068364	0.37837571154693084	119.87874478167357
15	6.0	ltm	29	diff_vonmises	-0.4269463312282303	-24.462222857972098	0.4978804258082971	90.79965784111118	0.4825877561771916	91.29795643277284	0.13778429660942493	-0.2041598476495885	0.3419441442590134	123.23198701516323
16	6.0	perception	29	diff_vonmises	0.19545708989959654	11.198866327155994	0.23559331422261723	165.9432913348339	0.22290404413161818	166.22117664232567	0.3140298838883666	-0.32791052644151364	0.6419404103298803	153.17413365568265
17	6.0	wm	29	diff_vonmises	0.0984979474290387	5.6435166783853745	0.026534435120079383	47.25389336903681	1.618622038774107e-09	47.76189354974346	0.12001450360524846	-0.27906889024098547	0.3990833938462339	178.10641523825763
18	7.0	ltm	29	diff_vonmises	-0.060738286466617865	-3.480047469393769	1.0354718211821334	91.95637034789088	1.0182751236276082	92.66185480228215	0.054886690286409134	-0.17801285332808092	0.23289954361449006	81.65682956606682
19	7.0	perception	29	diff_vonmises	-0.13391759537755524	-7.672913017674578	1.8859379719152602	1.2960321471101677	6.500854344830884e-13	2.002926852551879	0.3264408247442568	-0.3039291002151608	0.6303699249594176	99.71352414718547
20	7.0	wm	29	diff_vonmises	0.21577077004869316	12.362754466077911	0.5669543957640709	57.7080282366801	0.5460485044037201	58.29306017844972	0.0778481465823937	-0.17947628027372886	0.25732442685612256	114.58413260993032
0	1.0	ltm	30	diff_vonmises	-0.33559237871069103	-19.228026936878575	0.00020777204594569907	3647.4720525124253	1.2328274773008826e-32	3648.7067359166354	-0.0758862409871881	-0.3171131631249864	0.24122692213779828	176.79247352328747
1	1.0	perception	30	diff_vonmises	-0.07425935858284685	-4.254747836145711	11.525182109035443	1.0051102835509356	0.2182092569945993	2.42943820714687	0.8704756685696768	-0.4233154778140424	1.2937911463837193	39.087780924853035
2	1.0	wm	30	diff_vonmises	0.010117478501624989	0.5796888174574559	3.6315566165654336	0.3602760344085999	1.6468856583439186e-14	1.3423824640290178	0.04900520497120517	-0.21346266998520175	0.2624678749564069	71.94830482546863
3	2.0	ltm	30	diff_vonmises	-0.14886336580114717	-8.529242584517847	23.72309859658452	0.19677337123775226	1.1944615264201261e-18	0.8005738822357691	0.2525776173791991	-0.12741529066809154	0.37999290804729063	27.792020855275638
4	2.0	perception	30	diff_vonmises	-0.03817736952672871	-2.187402146792916	9.36667209788831	1.2201289358928995	0.31186608314931297	1.7153073221387387	1.1047176806083763	-0.2982903342411253	1.4030080148495014	43.270596106273274
5	2.0	wm	30	diff_vonmises	0.0858427450200534	4.918426991466725	3.4513889576787604	0.39158030378137876	6.062178143086924e-15	0.9758904249839504	0.12223007767537722	-0.15503885033778111	0.27726892801315833	73.84295621634354
6	3.0	ltm	30	diff_vonmises	-0.2008862974718981	-11.50993700714934	1.7783420565230323	39.515516442522056	1.7510562125371218	39.68782656435722	0.09578760450952117	-0.07764425014326637	0.17343185465278754	66.15822940793791
7	3.0	perception	30	diff_vonmises	-0.05704156919955599	-3.2682411719379876	3.938224126672509	2.3106229196019714	0.9204289628642974	2.0402681484252634	1.0950488053249405	-0.24366786531838086	1.3387166706433213	61.59002408941541
8	3.0	wm	30	diff_vonmises	-0.02914299999686298	-1.6697709021700202	1.7295292667269808	103.18113402201715	1.7129653001751304	103.18838881780644	0.28128847727327155	-0.09426099196296711	0.37554946923623866	71.55947306941849
9	4.0	ltm	30	diff_vonmises	-0.1844114556569315	-10.565998103006105	4.295708024116457	0.5488403136644402	0.6881463727202533	1.2546789104013	0.08441735307797693	-0.20136665406213175	0.28578400714010865	55.2017511586171
10	4.0	perception	30	diff_vonmises	-0.11673899601012201	-6.688651775974548	3.880817896290034	1.7428327870666995	0.05948111449072098	2.292723677310806	0.9310076445808684	-0.35025317136460427	1.2812608159454726	68.43163442281639
11	4.0	wm	30	diff_vonmises	-0.34914432424394554	-20.004496220125226	0.9699006933611932	111.16699971828467	0.9564653197637075	111.8441565522793	0.057570142790801526	-0.17148147666117453	0.22905161945197605	84.67766689333082
12	5.0	ltm	30	diff_vonmises	0.0800956432300286	4.589142314466224	1.3842132934704328	60.26185399430864	1.3526582581398359	60.83227119855688	0.1092472514227616	-0.1738982868045813	0.2831455382273429	72.46113484256509
13	5.0	perception	30	diff_vonmises	-0.0641282089390804	-3.6742757199424254	2.719765249341331	1.6786574002406125	3.674505922394072e-13	2.0617870566677814	0.7110036709433112	-0.323631725244324	1.0346353961876351	83.38567241196111
14	5.0	wm	30	diff_vonmises	-0.05207136772411966	-2.9834696040657915	1.7677926919882632	0.7309317044639604	5.558178379955691e-16	1.2580364003592373	0.14964091622202225	-0.1900270917991217	0.33966800802114394	102.75688114226372
15	6.0	ltm	30	diff_vonmises	-0.3739985197758858	-21.42853672729831	1.0292003091245883	1.1914866701580606	9.261128021663713e-16	1.857959670500198	0.11800119708273976	-0.24288772309769854	0.3608889201804383	126.34662165713469
16	6.0	perception	30	diff_vonmises	0.25775437430109355	14.768237798487949	0.26586112361966613	91.17601807767373	0.24248834129443628	91.54132913278767	0.30305823782710206	-0.33643218217295257	0.6394904200000546	149.89559593534943
17	6.0	wm	30	diff_vonmises	0.07821259688959573	4.481251706531865	0.0005972019039332688	1806.1313605148523	1.1831118230057999e-25	1806.7339917200532	0.07577634507754283	-0.26754856226943957	0.3433249073469824	179.70597556072485
18	7.0	ltm	30	diff_vonmises	-0.052447640002797766	-3.005028417581817	1.0736265552454594	110.13634303454687	1.0585138036775397	110.78027761499139	0.08569399385765308	-0.1748073997878823	0.2605013936455354	81.52061096393936
19	7.0	perception	30	diff_vonmises	-0.1897871227609688	-10.874001140134755	1.0404665991461781	3.458321189280471	0.37956529044606113	4.0928147098059755	0.28945085171004403	-0.2794224797371103	0.5688733314471544	106.94934600177601
20	7.0	wm	30	diff_vonmises	0.26957225960598186	15.445352749227725	0.6356935020841037	30.692492493766455	0.5980713480030495	31.125907250943367	0.1039409091760799	-0.15180720677683057	0.25574811595291047	110.87157524068922
0	1.0	ltm	31	diff_vonmises	0.016962768219911835	0.9718950278595884	0.2989531092918924	2.9461031741329675	4.386445354262024e-11	5.589467096621161	-0.27121638264219017	-0.5495086194830994	0.2782922368409092	163.03512385000244
1	1.0	perception	31	diff_vonmises	-0.05689841136285536	-3.2600388320908187	10.121706323814033	0.8142975122114153	0.07324221432013324	3.6293089000940904	0.3993484489529008	-0.5922991658089701	0.9916476147618709	41.98062694071302
2	1.0	wm	31	diff_vonmises	-0.002623321053050264	-0.15030522464759485	2.788649260529556	0.7169076721422608	0.06647801042516292	3.1680986202874033	-0.0880102966051371	-0.48172238051366406	0.39371208390852697	76.97078343576604
3	2.0	ltm	31	diff_vonmises	0.07427440970664616	4.2556102020163395	2.371992081007918	0.4192490247805399	2.3063713869821974e-38	1.6514923923155778	-0.02330311867875523	-0.26075814674156206	0.23745502806280683	89.29442699983846
4	2.0	perception	31	diff_vonmises	0.002695218109535603	0.15442462254361847	6.837912536809384	1.4355647144361277	0.406881543509084	2.52930979351007	0.8876518414858972	-0.4305822560711314	1.3182340975570286	49.27399227951773
5	2.0	wm	31	diff_vonmises	0.1743864067539588	9.991605111453513	2.8334120060849752	0.834373292343841	0.27050925240093654	1.8799242960173392	0.1438223522684407	-0.26286329454078394	0.40668564680922464	72.43129369763707
6	3.0	ltm	31	diff_vonmises	-0.24558908404844512	-14.071218010459555	1.1946431066129835	49.01116610262489	1.1623976076458424	49.65330433298469	0.05385819625378829	-0.16748069599534876	0.22133889224913705	76.10545938554975
7	3.0	perception	31	diff_vonmises	-0.05263231127230938	-3.0156093019221553	4.758063924584026	1.7609337434107177	0.36041509341923755	2.19329227610867	1.0023617851137885	-0.33074777495498936	1.333109560068778	59.26459354330399
8	3.0	wm	31	diff_vonmises	0.07076061284255472	4.0542844716375965	1.1195391556508312	61.42192186631657	1.087074110713919	61.76050371204269	0.2519344846567506	-0.16385510645362267	0.4157895911103733	85.72403822722876
9	4.0	ltm	31	diff_vonmises	-0.29326344680037225	-16.802757787120676	2.757394020908202	0.4832983790852039	2.762601302513005e-22	1.9840325094555928	-0.014192739843958635	-0.31455416165643074	0.3003614218124721	82.77735472779523
10	4.0	perception	31	diff_vonmises	-0.04382532508435942	-2.5110061631226133	2.872790068955946	2.2239046677199847	0.19108420199299123	3.3086334660626795	0.7890714505626814	-0.4588247402010269	1.2478961907637083	76.09877818374508
11	4.0	wm	31	diff_vonmises	-0.14253989579941737	-8.166934441541146	0.6983512080989808	190.74421915290358	0.6871243101078938	192.26204365227335	-0.020153574632097104	-0.33081270675228325	0.31065913212018614	95.69501284943567
12	5.0	ltm	31	diff_vonmises	-0.08521913769502962	-4.882696923669419	0.8447865014142206	128.04204605989645	0.8268344245114335	129.23259628328847	0.07115753125668078	-0.2904600025572357	0.3616175338139165	90.33096535128684
13	5.0	perception	31	diff_vonmises	-0.06016557443663563	-3.447233487199417	0.9900719725782383	278.87459141027324	0.9718541531120609	280.006237020574	0.5818804446478083	-0.46327551322047356	1.0451559578682819	89.89125660296713
14	5.0	wm	31	diff_vonmises	0.0024043766398337777	0.13776063382232187	0.9079847211081815	1.819854001530591	1.4773830974202653e-15	2.7517692186532394	0.15211621493519473	-0.3419638768203097	0.49408009175550444	132.51493348797476
15	6.0	ltm	31	diff_vonmises	-0.48898466007382996	-28.01675726886967	0.6378493584704508	191.0784037464961	0.625401529959221	192.250535243101	0.13453593649299478	-0.3309544010844583	0.46549033757745306	106.72252188748011
16	6.0	perception	31	diff_vonmises	0.07894873597921129	4.523429369501439	0.5473399072994373	181.84346256866897	0.5292704428819796	182.91289983810287	0.3477509696431298	-0.45175738695762924	0.799508356600759	119.56122913529241
17	6.0	wm	31	diff_vonmises	0.09045783499755418	5.182852169250646	0.6057940714578932	2.828092868368824	7.048278644102455e-15	4.029925986642055	0.11273440336896845	-0.41686245600972127	0.5295968593786897	146.60388315367965
18	7.0	ltm	31	diff_vonmises	-0.19634417700841805	-11.249692674551929	0.8009157661548258	87.87686416752862	0.7781461087954776	89.35012348602935	-0.059082826338443084	-0.3061702029177731	0.24708737657933	87.24401897453946
19	7.0	perception	31	diff_vonmises	-0.08168329578192679	-4.680108105023165	1.293958790056828	2.1199332740588073	0.017708716351723042	3.6614672527482575	0.24714799319233138	-0.5092973374040518	0.7564453305963832	116.03003979382743
20	7.0	wm	31	diff_vonmises	0.21606073000813145	12.379367947981509	0.5963293649676634	106.4127984945724	0.5771286409715034	107.7357072434173	0.04060080607019856	-0.32446452329710773	0.3650653293673063	107.49955325977197
0	1.0	ltm	32	diff_vonmises	-0.22592768767095253	-12.944702978695425	0.0004317402686284014	2125.382144043657	5.593703834572836e-27	2127.4462078809056	-0.1824476157498225	-0.47453278317317427	0.2920851674233518	178.51976697543466
1	1.0	perception	32	diff_vonmises	-0.1552090214516495	-8.892821871534974	13.267444566138913	0.6833465783794881	0.1741443236796572	2.8280889639218563	0.4515871473633156	-0.4912759071353331	0.9428630544986487	36.35221497631247
2	1.0	wm	32	diff_vonmises	-0.05912144788830059	-3.3874094427022574	1.7362265515357247	1.6170685245190028	0.3664298105502513	3.1800782329700854	0.05933165458264378	-0.3596498479927416	0.41898150257538536	83.30709661627253
3	2.0	ltm	32	diff_vonmises	0.0008539532613496333	0.04892791777676615	3.3561822075345273	0.4089765832375958	1.4255151517720151e-39	1.6451818567022412	0.023546336498271425	-0.26149185661769525	0.2850381931159667	74.91275327840589
4	2.0	perception	32	diff_vonmises	0.0191416085416064	1.0967333825256136	5.751337000279852	1.3803800298945652	0.48766136018410133	2.5027258978205533	0.6774199483351703	-0.41573627801374025	1.0931562263489105	52.48940144452254
5	2.0	wm	32	diff_vonmises	0.5759706281772886	33.00068611805745	3.9633439330577134	0.5275703514244211	5.064154328375181e-15	1.175582308018119	0.21649192478370644	-0.18695404679499272	0.40344597157869916	68.7674704794515
6	3.0	ltm	32	diff_vonmises	-0.289218664926695	-16.57100885670795	6.279265241054524	0.325488044231471	0.06666940073913151	1.137711684222987	0.12495352604151805	-0.18120856372724772	0.3061620897687658	53.182201564898236
7	3.0	perception	32	diff_vonmises	-0.10390994696394354	-5.953601410462187	4.908344184533838	1.4358733448912846	0.07902534383944355	2.4040793092748975	0.8194276092728245	-0.3734673402783888	1.1928949495512133	60.496758358911876
8	3.0	wm	32	diff_vonmises	0.36970225813361174	21.182379067512063	0.7860838021388866	52.825383156697534	0.758269318784601	52.682286271475895	0.32288181647578185	-0.11795418053985784	0.4408359970156397	108.33982979095612
9	4.0	ltm	32	diff_vonmises	-0.3276992091230383	-18.775781632525057	7.892460901997075	0.4127500602143479	0.15894371748432906	1.7908799260627473	0.12273873112242673	-0.2983139141832354	0.4210526453056621	46.43900974165135
10	4.0	perception	32	diff_vonmises	-0.0708973733688079	-4.062120272595892	1.0285520960085488	153.48484530142758	0.9946750761163817	155.0266423397156	0.45730965677273616	-0.5052060036759904	0.9625156604487266	86.567540241144
11	4.0	wm	32	diff_vonmises	-0.560705442033536	-32.12605537853884	1.1324993948497117	163.57201320887447	1.1194201229373115	164.75641112724367	-0.032057253569327315	-0.2683954833727924	0.23633822980346508	73.47429212745566
12	5.0	ltm	32	diff_vonmises	-0.42104385823861507	-24.12403606697718	2.292899002232518	1.4094757331539398	0.4868800182630067	2.3655054632403236	0.2114084157015379	-0.2755741113703021	0.48698252707184	75.2055982683408
13	5.0	perception	32	diff_vonmises	-0.0841376441497124	-4.820731907952103	1.1292238531608825	19.48215294784859	0.8866757518021948	20.661658232070195	0.5148631407298634	-0.4463670420468431	0.9612301827767065	88.17057459577072
14	5.0	wm	32	diff_vonmises	-0.19740376225164294	-11.310402437023058	0.46545468493106457	126.9391245861415	0.45140172280594754	127.18669033886965	0.2722399859560731	-0.2323694145400399	0.504609400496113	129.72798546231226
15	6.0	ltm	32	diff_vonmises	-0.42695994113495406	-24.463002648186936	1.9640273395607464	1.1290566953482053	0.12484839297510403	2.4651071454416145	0.13329058140741512	-0.33780170120760095	0.47109228261501607	89.85527227555868
16	6.0	perception	32	diff_vonmises	0.05941122988771842	3.4040127282477615	0.6977759918746388	175.6159951047006	0.679409395902734	177.07068856632304	0.20618854114834306	-0.41835367659595235	0.6245422177442954	102.74133159117642
17	6.0	wm	32	diff_vonmises	-0.2431894672545732	-13.933730095721979	0.8354518733278608	71.02049038777584	0.8101434044696958	72.26047654546034	-0.03574574555393539	-0.26317468478463013	0.22742893923069474	86.28026960424461
18	7.0	ltm	32	diff_vonmises	-0.10560366558881128	-6.05064433934981	0.9214007118101066	191.67430800607568	0.9048223217276377	193.58999977918288	-0.015190010629716255	-0.42405093431306895	0.4088609236833527	83.06321282156955
19	7.0	perception	32	diff_vonmises	-0.3900189475587601	-22.346439625251136	0.9722989373994546	6.970531506646879	0.40350811380586116	8.806284963451935	0.32994481483125515	-0.5673237343590323	0.8972685491902874	105.14884527865621
20	7.0	wm	32	diff_vonmises	0.6962011748259641	39.88938900957732	15.72970475159209	0.5225622774327361	0.36277733978836507	1.1317087344961319	0.5694516258198385	-0.2177635594244634	0.7872151852443019	33.39001744222628
0	1.0	ltm	33	diff_vonmises	-0.003105920392593193	-0.17795612999920568	7.80196591899079	0.2144406240860215	0.008093311620179663	3.1908087841478325	-0.2770841411230993	-0.5081950425447783	0.231110901421679	48.21245181710859
1	1.0	perception	33	diff_vonmises	-0.12184034679144412	-6.980937645560069	12.759875144145541	0.7012407648922788	0.14198952156297187	3.6494894588541045	0.3230650835823713	-0.6233772516010025	0.9464423351833738	37.032799454398514
2	1.0	wm	33	diff_vonmises	-0.15165429192351482	-8.689150872262326	3.0447807378008163	0.6676090545627555	0.14754198176345246	3.149531055554385	-0.13686516473017746	-0.4777933209594663	0.34092815622928885	69.7074007814872
3	2.0	ltm	33	diff_vonmises	-0.16179099057876106	-9.269940923403873	2.454266569013437	0.6107639177553718	7.211452099612075e-37	2.5642801610447097	-0.05205587294086389	-0.40548880358524886	0.35343293064438497	87.78445465101693
4	2.0	perception	33	diff_vonmises	-0.009085963092364214	-0.5205873380041036	7.244339954248728	1.3481476445896148	0.3438901972964729	3.4037109467750493	0.6785123955470398	-0.5877988471452814	1.2663112426923213	47.67861213714107
5	2.0	wm	33	diff_vonmises	0.3378061512888294	19.3548667624077	3.966916370885527	0.46748340363054913	6.848591533771069e-13	2.1433963023648173	0.016641903112216916	-0.3410038671950969	0.3576457703073138	68.75050666605833
6	3.0	ltm	33	diff_vonmises	-0.27809642122425465	-15.933751233842163	3.965227498428147	0.5654184801940677	0.02651529771308952	2.0797527264967313	0.0928194725734302	-0.3258440142581246	0.4186634868315548	67.49518034364857
7	3.0	perception	33	diff_vonmises	-0.08628080454299959	-4.943525953307057	3.211487621673873	2.9364446802027673	0.5492892223109164	4.535682627665455	0.8378996049733087	-0.5976667381665572	1.435566343139866	66.51874650097116
8	3.0	wm	33	diff_vonmises	0.1234352409150334	7.072318347611952	1.0525196463970177	178.76255913701758	1.036914559784887	179.605739446582	0.2314962687009796	-0.26930803458384034	0.50080430328482	84.84946207042589
9	4.0	ltm	33	diff_vonmises	-0.3397032158551089	-19.46356055551933	2.866195056572864	0.9212304137996871	0.3584667255722304	3.5291746036995972	-0.19086076160616106	-0.5268663675922597	0.33600560598609863	64.46847210167257
10	4.0	perception	33	diff_vonmises	-0.14054407269800978	-8.052582201175781	1.0269370680564938	330.40868631416794	1.0079736888014785	332.6237132060093	0.42320652212825394	-0.6430079500330876	1.0662144721613416	84.74607287973015
11	4.0	wm	33	diff_vonmises	-0.5718047968205413	-32.76200156315257	0.8359172567005804	155.26215392094997	0.8205079826098716	157.67218102403348	-0.28448788547908066	-0.4540430770862294	0.16955519160714871	74.87500452481622
12	5.0	ltm	33	diff_vonmises	-0.22310377836004822	-12.78290489345291	2.204335025634557	1.2595588154450499	0.19184151102044897	2.6926372469096638	0.17450265767830264	-0.3619206547572727	0.5364233124355753	82.91490620306615
13	5.0	perception	33	diff_vonmises	-0.10486720097575683	-6.008448025261055	1.5155239403862664	6.354023538683946	0.6577365818042398	8.009596865313279	0.5547476380330063	-0.5568299541136856	1.111577592146692	84.74908220697927
14	5.0	wm	33	diff_vonmises	-0.20134922307229491	-11.536460690280638	0.5376565479665085	146.98581547700746	0.5232044268259776	147.97427050790213	0.15059633947681306	-0.3203631174151731	0.47095945689198615	117.79111437331396
15	6.0	ltm	33	diff_vonmises	-0.33247916472273586	-19.049652914647652	0.841348213687992	171.44656479389994	0.8267669637257895	172.92748112522196	0.019961484147550834	-0.3361892362562706	0.35615072040382145	88.33353828062052
16	6.0	perception	33	diff_vonmises	0.15227817839025534	8.724896933701887	0.5121993066696238	3.4553009846937877	3.4048290178194075e-13	5.08300879589109	0.05145002778677221	-0.5000752144786909	0.5515252422654631	151.11366400346856
17	6.0	wm	33	diff_vonmises	0.3423019097328732	19.612454746961713	0.37771618485319947	1.9031517999560597	4.619279470025196e-24	3.4414970073820137	-0.12117561780102276	-0.3473287826993471	0.22615316489832432	156.32439529028414
18	7.0	ltm	33	diff_vonmises	-0.40121030013198733	-22.98765689473993	0.9371761051127371	181.4431322778641	0.920731258000082	183.1544056717211	0.00838315116065047	-0.3866028814038067	0.3949860325644572	83.03278017488091
19	7.0	perception	33	diff_vonmises	-0.331693656816507	-19.00464662684658	0.5631361970875588	267.38947246820874	0.5501264196435542	269.5761374579625	0.09519913606233388	-0.5601137949419837	0.6553129310043175	111.25410370162203
20	7.0	wm	33	diff_vonmises	0.4472449675613173	25.625249049728893	1.1614699018633972	98.65293800485087	1.1290159141579628	100.32283121441878	-0.01513549900808897	-0.3882669306400839	0.3731314316319949	73.79464515794967
0	1.0	ltm	34	diff_vonmises	0.05281858063138244	3.026281750049649	0.4252942224046531	2.7999736016814065	1.5033984511284231e-15	5.493763120594931	-0.22234640669641959	-0.5958433153582211	0.3734969086618015	156.07544698075543
1	1.0	perception	34	diff_vonmises	-0.0641117308956299	-3.6733315975980783	8.732544105712059	0.8796161053431596	0.09641438869042199	3.6689194164759624	0.3796071861368068	-0.6001995866147163	0.9798067727515231	44.92376484847634
2	1.0	wm	34	diff_vonmises	0.009431977460530426	0.5404125009509134	1.9272356034795888	1.373813041147353	0.2065950317420583	3.8383476448687546	-0.05016280257219341	-0.511699338604603	0.46153653603240963	83.65164378075767
3	2.0	ltm	34	diff_vonmises	0.14480487489464883	8.296708184383268	2.107889787006976	0.4928973385238015	3.2669535721633583e-28	1.830504615550578	-0.02887842583700645	-0.2874595841178561	0.25858115828084965	94.57989249667938
4	2.0	perception	34	diff_vonmises	0.014817972068132136	0.8490072604467114	5.716832453291846	1.5073688964279395	0.41137108540216794	2.583983578296439	0.80820277068089	-0.4213481456518129	1.2295509163327027	53.392249269140166
5	2.0	wm	34	diff_vonmises	0.30136302165895407	17.266829242367685	2.8768722814907277	0.7870622677069609	0.17402371454925092	1.7332310339541042	0.17745007990680794	-0.24846907001141935	0.4259191499182273	74.73185610193357
6	3.0	ltm	34	diff_vonmises	-0.23275164847408675	-13.335687132277718	1.2643169213051295	3.241940747646922	0.7882925533875103	4.01560518758397	0.0571170675885857	-0.1930859225770573	0.250202990165643	81.97563453204008
7	3.0	perception	34	diff_vonmises	-0.06362165717095111	-3.645252441523728	4.550044398588265	1.6373832573141125	0.12632925002216602	2.2456180617337083	0.9458955988001115	-0.3424883541559871	1.2883839529560985	62.454001143500165
8	3.0	wm	34	diff_vonmises	0.1319153233992607	7.558191283880991	0.7899187469580266	79.05102711644913	0.7669000909442604	79.29052624622618	0.2762597106857463	-0.1739644438730945	0.4502241545588408	103.39589703904548
9	4.0	ltm	34	diff_vonmises	-0.2517338641252714	-14.423287974897773	2.98980316721263	0.5627733422372538	1.3386433334360202e-23	2.1080921947865896	0.03233451136207938	-0.33458255195875486	0.36691706332083424	79.46230130396908
10	4.0	perception	34	diff_vonmises	-0.03313203775469638	-1.8983259300122028	2.3657104532532225	2.6012330272644473	0.22853342096942073	3.8055255526375094	0.7325901039852244	-0.49154815583304573	1.2241382598182702	81.97305104953185
11	4.0	wm	34	diff_vonmises	-0.2382720155917409	-13.6519808694821	0.7405741834756101	194.37896029225402	0.7285522892380178	195.8944935363312	0.006420295275788135	-0.3397025389243282	0.34612283420011636	93.91917842274671
12	5.0	ltm	34	diff_vonmises	-0.25046499864974775	-14.350587338380409	0.7819331353242792	151.05180397914495	0.7669336772947221	152.15765246608538	0.10384646352574123	-0.28669246097285317	0.3905389244985944	95.26453266921702
13	5.0	perception	34	diff_vonmises	-0.06062981878547033	-3.4738327290504447	0.9874502197605313	234.42061878991504	0.9657300113912437	235.48439124117579	0.6083857452921393	-0.4590726404102021	1.0674583857023414	90.4430995493754
14	5.0	wm	34	diff_vonmises	-0.07980401504093881	-4.572433250044336	0.35426818234391055	170.4340072127922	0.3426954852525682	171.16798240342683	0.1976549131904619	-0.3324080942632399	0.5300630074537018	139.28187173823923
15	6.0	ltm	34	diff_vonmises	-0.4961238376148337	-28.42580201116377	0.5967296142359426	199.54806246167357	0.5847077173294327	200.7633162006675	0.1344076657373492	-0.34882878262940054	0.4832364483667497	110.41722632663802
16	6.0	perception	34	diff_vonmises	0.05818545069537452	3.333780753911501	0.5645633773188199	227.49802531182948	0.5498572367504106	228.58596092214313	0.3516450198399639	-0.4512397282119984	0.8028847480519623	117.69468196929954
17	6.0	wm	34	diff_vonmises	0.12529857407631115	7.179079473579936	0.5036375638666234	3.1028768457444933	4.974082014199115e-31	4.281789564190894	0.08623903982944114	-0.4010901796524644	0.48732921948190555	151.68829844498558
18	7.0	ltm	34	diff_vonmises	-0.30404248958660696	-17.42035144596286	1.9116797956449183	0.6321019016540852	2.20955590018356e-13	2.2539664887673467	-0.041451563283346815	-0.35179531256267493	0.3103437492793281	98.95956249104698
19	7.0	perception	34	diff_vonmises	-0.10270325274196553	-5.884462924380024	0.5794607383237894	113.96298631074954	0.5444763563937127	115.61447275102299	0.3302384001720249	-0.5671094409796158	0.8973478411516407	115.53440643368793
20	7.0	wm	34	diff_vonmises	0.11101974496770266	6.360962829268122	1.3210047951621116	1.353073356843145	0.03772109377840338	2.6452040765616935	0.10591671729293772	-0.36659946205671085	0.47251617934964857	113.32540298220079
0	1.0	ltm	35	diff_vonmises	0.014671835538831004	0.8406342540850665	5.880996564956149	0.3853012814944488	1.4911553718416964e-10	3.734843970539552	-0.23032947634124873	-0.5944160411945368	0.3640865648532881	56.19992237884583
1	1.0	perception	35	diff_vonmises	-0.07692877466308201	-4.407694111307541	11.936696878441985	0.6445387090225821	0.02614233060775998	3.9914715747486365	0.22646345361298392	-0.6414434467011219	0.8679069003141058	38.97447898818834
2	1.0	wm	35	diff_vonmises	-0.13213373651949795	-7.570705433860868	3.3228244113698366	0.7305929221998892	0.10567630657561136	3.9244450824211987	-0.18535857416256207	-0.6046427374378748	0.4192841632753127	68.5524243243465
3	2.0	ltm	35	diff_vonmises	0.03239856667457853	1.8563011327265482	2.1507052171443757	0.610100599885491	3.2292069876234035e-18	2.3539409612329703	-0.0458234177638942	-0.37018598241276274	0.32436256464886853	93.68986257837929
4	2.0	perception	35	diff_vonmises	0.01678116619882603	0.9614899985003259	6.047969251052721	1.550086837840227	0.39717727092166577	3.214501329643713	0.7545930283143242	-0.5372940434168159	1.2918870717311401	51.67646473561081
5	2.0	wm	35	diff_vonmises	0.13207673815973497	7.567439668407282	2.831968711557563	0.942994356782229	0.24506190656700155	2.512090252767141	0.09426247402659393	-0.3586998554386823	0.45296232946527626	71.98036870758003
6	3.0	ltm	35	diff_vonmises	-0.22104644347598265	-12.665028287550916	1.037765256158662	110.36158402626081	1.010834323630919	111.8416601019318	0.05220005723298016	-0.3534058669598803	0.40560592419286046	80.25541000179214
7	3.0	perception	35	diff_vonmises	-0.0464143948760477	-2.6593489350511668	3.8796225721299766	2.451840845933949	0.41655618994538846	3.7916617261276464	0.9769127245073576	-0.5468853497174297	1.5237980742247874	63.41387602696503
8	3.0	wm	35	diff_vonmises	0.08652628157701256	4.957590751323389	2.3248134005610837	1.1095395131580446	0.10241524126118424	2.169520660783601	0.2449205268965532	-0.30870493383601977	0.553625460732573	85.13978150079691
9	4.0	ltm	35	diff_vonmises	-0.30284265939620547	-17.35160623992048	0.5262801037185637	172.2272433771452	0.5113958869947038	174.7477510336808	-0.146816781516236	-0.5155306810139741	0.36871389949773814	107.00508342387694
10	4.0	perception	35	diff_vonmises	-0.04219477569668368	-2.417582564921153	1.1627648145501828	20.414020874282773	0.8427376973332745	22.359399735226855	0.6270880574154107	-0.6552050313485673	1.282293088763978	87.41709935920022
11	4.0	wm	35	diff_vonmises	-0.11151007741096715	-6.389056808825515	0.5662046396446705	96.692414275157	0.5403147148137729	99.24038314781578	-0.17658182874840378	-0.503050544864017	0.32646871611561323	101.73838863691678
12	5.0	ltm	35	diff_vonmises	-0.11054338517578484	-6.333669423661501	0.7826893788028596	95.80664298247224	0.7516860514132953	97.19811907491678	0.1574812795080085	-0.3724535116841565	0.529934791192165	96.33149826715288
13	5.0	perception	35	diff_vonmises	-0.07362367121179109	-4.218325632694449	0.9765350679792698	444.58947912551474	0.963819620758296	446.06126380561443	0.5791628354933493	-0.5370804981033999	1.1162433335967492	89.48436014488024
14	5.0	wm	35	diff_vonmises	-0.020748286270095142	-1.1887892354056844	0.3917253178482309	115.40084947854696	0.3721254071826099	116.60780244449931	0.143986935103392	-0.4093687774304584	0.5533557125338504	133.97130258905122
15	6.0	ltm	35	diff_vonmises	-0.4638338519295168	-26.57572211085727	0.7480046722449265	223.10847228078202	0.7363771136100092	224.48727922713633	0.09321716553507997	-0.3446208596380025	0.43783802517308246	96.4805028042227
16	6.0	perception	35	diff_vonmises	-0.041035270068042105	-2.351147786078327	0.572899170595933	256.57016520451896	0.5596072450413625	258.0160005533445	0.27021296871302525	-0.4841500061959074	0.7543629749089327	114.85184484742557
17	6.0	wm	35	diff_vonmises	0.13124204948757703	7.519615530285253	0.6402877042970111	2.5878919217975818	7.927779746190573e-16	4.066369612156772	0.05980076543535051	-0.4507192472037489	0.5105200126390994	144.7516747369886
18	7.0	ltm	35	diff_vonmises	-0.3387659886219242	-19.409861390613123	0.933680003755656	76.53522492775315	0.8978957421334213	78.4435662386828	-0.09393366407253723	-0.39905093140704295	0.3051172673345057	80.05500335056743
19	7.0	perception	35	diff_vonmises	-0.023711780214975296	-1.3585849310598923	0.4452301656158878	245.99290533241546	0.43082969819682243	248.22929752821608	0.13190225014790968	-0.6421718660200462	0.7740741161679559	125.81034608772822
20	7.0	wm	35	diff_vonmises	0.2948817955445527	16.89548233994251	0.8328722107806896	192.07435223186772	0.8186201462028179	194.11815204811336	-0.10522927838203344	-0.4190697570309503	0.31384047864891684	84.22150669057723
0	1.0	ltm	36	diff_vonmises	-0.9451573994333666	-54.15352996309245	0.0001988660526616511	2524.2169747705234	3.0173321098938486e-31	2526.157533337507	-0.22895303548494894	-0.38873799723887714	0.1597849617539282	156.0766813260186
1	1.0	perception	36	diff_vonmises	-0.095055922002139	-5.446303148447307	15.93074694457313	0.7201944133754631	0.11086570038370251	2.883666985614627	0.6257753613060693	-0.48752115545625263	1.1132965167623219	33.535978258920636
2	1.0	wm	36	diff_vonmises	-0.12845171927561042	-7.359741385691721	5.562053625805831	0.2850191189810298	0.043852670315523985	1.986911738743377	-0.06874516543774484	-0.3158551342013966	0.24710996876365177	56.046623922603516
3	2.0	ltm	36	diff_vonmises	-0.11422602597611595	-6.544669198983153	17.367878289128146	0.2940863593387248	1.041260818135535e-33	1.497001094056654	0.246808282434605	-0.23825512393309145	0.48506340636769646	32.50074033813647
4	2.0	perception	36	diff_vonmises	-0.025746237552505907	-1.4751507500998187	8.517639087824902	1.327141103968989	0.3564493941523141	2.7631193249776698	0.9121399883598601	-0.48772056898370403	1.399860557343564	44.587844836924404
5	2.0	wm	36	diff_vonmises	-0.006049845911646961	-0.3466306374418468	4.117979527495723	0.38404246323551705	8.568421401089154e-15	1.7851271683214036	0.015853771398085748	-0.2840323242002925	0.29988609559837826	67.44963852357367
6	3.0	ltm	36	diff_vonmises	-0.17930503318453409	-10.273421646926973	1.4936028743731282	48.66542602700888	1.440027518427665	49.44909502480224	0.1280342862181243	-0.2382827578227733	0.3663170440408976	69.37347532689574
7	3.0	perception	36	diff_vonmises	-0.04307726517430081	-2.4681454874533193	2.875506391897755	5.119676123614354	1.197782706167663	5.805898698143507	1.0737668406610772	-0.5167903678761578	1.590557208537235	64.1601098354327
8	3.0	wm	36	diff_vonmises	0.01800458386022542	1.0315866670802762	1.5039620303820045	203.953563990434	1.4879815019213192	204.71943889490777	0.24051484294979275	-0.26914366404790613	0.5096585069976989	70.5620171227203
9	4.0	ltm	36	diff_vonmises	-0.4072539363857787	-23.333931744994434	12.293421430272572	0.26787654579354847	0.19321127527950163	1.9857761552859823	-0.00919187963074708	-0.35002952006240284	0.34083764043165576	36.992563111059866
10	4.0	perception	36	diff_vonmises	-0.14827544752931843	-8.495557348843436	2.1871422237478493	3.6838664825850223	0.5112743501168933	5.214658945305569	0.707758673223815	-0.5588074667510073	1.2665661399748225	77.95410902831546
11	4.0	wm	36	diff_vonmises	-0.3230722124036076	-18.5106742486808	0.7906245374974724	133.01043138996448	0.7769068022632367	134.6883596811789	-0.1536624275676317	-0.32217409660222174	0.16851166903459003	81.65089649067285
12	5.0	ltm	36	diff_vonmises	0.03179702696941465	1.8218354464111142	1.233891002364968	53.6378738514124	1.180491461781112	54.52235705701046	0.19635038005450411	-0.26982275655517185	0.46617313660967596	77.93213402103527
13	5.0	perception	36	diff_vonmises	-0.08725673373892384	-4.999442577337112	1.7216056373638708	3.8543833271351637	0.49419277750775426	4.841271745150508	0.6261464418251992	-0.432649498190699	1.0587959400158982	86.58211113919509
14	5.0	wm	36	diff_vonmises	-0.06730920265142691	-3.8565332343175323	1.956912153105591	0.8037586124559999	1.474968618894532e-15	1.7356228376526488	0.1329841053979905	-0.2680632417208481	0.4010473471188386	98.0196655322421
15	6.0	ltm	36	diff_vonmises	-0.3513644310205672	-20.131698968494042	0.7852608839661431	111.4027431242899	0.7692769430194041	112.30086498752199	0.07260232614660111	-0.22791288579204583	0.30051521193864694	94.64067024630278
16	6.0	perception	36	diff_vonmises	0.11777454365349863	6.747984285424746	0.6196765338278103	2.7990416698443608	5.607210649575103e-19	3.6816161318448724	0.16778424522299307	-0.3676855915949605	0.5354698368179536	145.8206468446914
17	6.0	wm	36	diff_vonmises	0.07853921880961913	4.499965764045665	0.0005306887284841874	1706.26284793278	6.761815953424883e-25	1707.226036040572	-0.00916860208729986	-0.2973854608859483	0.28821685879864845	179.7081393942472
18	7.0	ltm	36	diff_vonmises	-0.1735056081398098	-9.941139068261805	1.2477141987155829	159.17093540970134	1.232611897248213	160.19215410074128	0.04799194716849797	-0.2594040077472677	0.30739595491576566	72.99493054149275
19	7.0	perception	36	diff_vonmises	-0.23981116575789724	-13.740167678039718	0.6211155469998646	179.44971741989914	0.6068054679686656	180.71287939496878	0.1495937204380695	-0.3625939402675957	0.5121876607056652	108.43827953576897
20	7.0	wm	36	diff_vonmises	0.6325838873507114	36.244386933174866	6.9603655580511035	0.2213529566845575	1.811284218657157e-26	1.1875690147454983	0.03945338463104822	-0.1890072732899188	0.228460657920967	51.57922681086967
0	1.0	ltm	37	diff_vonmises	-0.5492374388975068	-31.46898719940157	0.10763281771600884	6.738022145888384	1.589096920492595e-08	7.601666232414451	-0.019043829002324042	-0.24966220564613173	0.2306183766438077	166.25773636127548
1	1.0	perception	37	diff_vonmises	-0.10467853249678569	-5.997638117688855	18.336785160978987	0.6835966818114141	0.06724977362260058	1.7802113894202503	0.8569494243993444	-0.29396446022371686	1.1509138846230613	31.470037439901034
2	1.0	wm	37	diff_vonmises	-0.14759783947905905	-8.456733267399485	4.230968936692183	0.3206740674796966	1.4645006552061448e-13	0.9498368283202308	0.10299300333349548	-0.1511174912324728	0.2541104945659683	66.52180812331716
3	2.0	ltm	37	diff_vonmises	-0.1336735943268029	-7.658932787269711	15.904506930961295	0.2707533122711078	9.384468427611669e-17	0.6469938975733925	0.3241902447374203	-0.10297227694909028	0.4271625216865106	33.96784657396424
4	2.0	perception	37	diff_vonmises	-0.013641146371725735	-0.7815801148200806	7.5277234415931344	1.3231544742261943	0.5222625242424271	1.6738838495526573	1.0025123259627902	-0.29249196384906617	1.2950042898118563	47.24973936007015
5	2.0	wm	37	diff_vonmises	0.044198411511563986	2.53238244079505	4.177153292681223	0.34596396942854096	0.0560163081109852	0.7455165430115321	0.14691935565539319	-0.11544350996287137	0.26236286561826455	65.56995326419482
6	3.0	ltm	37	diff_vonmises	-0.2078036363965495	-11.906271332993429	2.4449023484418424	75.57093320801839	2.4150416326853255	75.79099997650887	0.19052360275516378	-0.13924502770633218	0.32976863046149596	56.547573268080214
7	3.0	perception	37	diff_vonmises	-0.03183947972483646	-1.8242678101254848	3.7985028478906457	3.0092648171278906	1.0765966142679797	3.0217614843144474	1.172880770918173	-0.34989836265209456	1.5227791335702676	60.496635353520475
8	3.0	wm	37	diff_vonmises	0.04943165574083836	2.832225248293665	1.745154306781429	95.181443782922	1.7241093327659662	95.27907264549562	0.2866312099690802	-0.11904678896566523	0.40567799893474543	70.08346754153078
9	4.0	ltm	37	diff_vonmises	-0.3975036076938076	-22.775279062079175	23.913609617447605	0.2147444334819317	0.033725702023227735	0.8714827571548608	0.27321662740493835	-0.1416800933287519	0.4148967207336902	27.594705920627575
10	4.0	perception	37	diff_vonmises	-0.11374714088677502	-6.517231104492173	2.66760792495506	2.7158224042521084	0.34295159828439187	3.5779360224668504	0.8830011870500686	-0.44871339712468794	1.3317145841747564	76.21429244277195
11	4.0	wm	37	diff_vonmises	-0.33479980083206407	-19.18261556949782	1.0279547058301293	106.7650075920453	1.0131627498238873	107.41260439702299	0.07529684669416525	-0.17148958181075002	0.24678642850491528	83.00395223569419
12	5.0	ltm	37	diff_vonmises	0.05816657326524001	3.3326991568367403	1.6828888218463642	104.83346028437491	1.6615424412343696	105.10283572766579	0.2528241469119834	-0.1517053823644332	0.4045295292764166	69.465248888872
13	5.0	perception	37	diff_vonmises	-0.04852343224185964	-2.78018787494758	0.9641775676214598	80.58151713293512	0.9174771952113846	80.83313722652662	0.633008675955054	-0.30194432048079367	0.9349529964358476	95.46264537846355
14	5.0	wm	37	diff_vonmises	0.0651854823386885	3.734853023531418	1.6966910213717203	0.869141751170578	1.2522286193045462e-20	1.1588288566764124	0.22130916852135996	-0.17080198050864157	0.39211114903000155	104.6710340152903
15	6.0	ltm	37	diff_vonmises	-0.4221279095745162	-24.186147633299832	0.741170579435697	29.365375111482976	0.6849718884619587	29.83289143846602	0.1829979076648982	-0.18743640948206375	0.37043431714696196	104.74428471146338
16	6.0	perception	37	diff_vonmises	0.016287851618171888	0.9332251550565777	0.7665727699683655	106.43433277651147	0.7442133795778408	106.76723303556285	0.35681094388192847	-0.233537018763478	0.5903479626454065	104.76984633169852
17	6.0	wm	37	diff_vonmises	0.049425040060115395	2.8318461977096328	0.00027751895438648557	4113.9141984209355	1.1859265952195482e-31	4114.294052955327	0.1212615703194615	-0.24214781100613436	0.36340938132559586	179.85629210973386
18	7.0	ltm	37	diff_vonmises	0.09298523247156716	5.327661377663615	1.5933217962704387	162.98126249842753	1.5752624439581666	163.8971920573304	0.09697740266041421	-0.27319621213588263	0.37017361479629685	65.54645801476448
19	7.0	perception	37	diff_vonmises	-0.2536786040734885	-14.534713366181105	0.7938402865120043	89.67603722395768	0.7621727042952519	90.41776833303254	0.32240260749019356	-0.30097475884376124	0.6233773663339548	100.56890850762873
20	7.0	wm	37	diff_vonmises	0.6871910939381617	39.373149401634755	12.441934585881155	0.2124485535747411	6.87899221458101e-13	0.7234157053118653	0.18062365890712723	-0.11513518540599833	0.29575884431312555	38.441496480172816
0	1.0	ltm	38	diff_vonmises	-0.32677720014455225	-18.722954409384638	1.2599161055661445	0.7345939270544973	5.504746460155231e-19	3.0915475959168885	-0.20543445747064637	-0.46897075926636506	0.2635363017957187	117.96224848621767
1	1.0	perception	38	diff_vonmises	-0.05952675827405817	-3.410632017198986	10.661306702626879	0.9028634411946791	0.015086818382830805	3.4354257950609903	0.6062971013322475	-0.5485558650197062	1.1548529663519536	41.41916421021264
2	1.0	wm	38	diff_vonmises	-0.14447426668923657	-8.277765729540754	6.611882576013592	0.37033510409785336	0.0626690899211743	2.762079760690298	-0.09546255185777464	-0.4439135976953067	0.34845104583753206	51.083542321937045
3	2.0	ltm	38	diff_vonmises	-0.06428343267936275	-3.6831693851408387	2.3344843111275666	0.7593830784118996	0.17421937051485664	2.128815001832805	0.029542211014869646	-0.29871329212335795	0.3282555031382276	79.74202485183912
4	2.0	perception	38	diff_vonmises	-0.005507824399814511	-0.3155750924085472	6.0454068723527055	1.661086129550769	0.32962958409185394	2.9580567366471713	0.9552812052075855	-0.48318185454076146	1.438463059748347	52.59785648559429
5	2.0	wm	38	diff_vonmises	-0.0021301788475915065	-0.12205025757503475	1.9933631571551826	1.2075650608944377	0.2580146356152309	2.757436369588492	0.06300800044603205	-0.35323295251073433	0.4162409529567664	82.54691704555185
6	3.0	ltm	38	diff_vonmises	-0.11862834685841343	-6.796903605601108	1.0353258720571756	141.80190130431146	1.0172720124206482	142.918064255433	0.09808356894355796	-0.28526285936206364	0.3833464283056216	81.98121057889631
7	3.0	perception	38	diff_vonmises	-0.0332263958818493	-1.903732252460824	2.911044428407633	3.7194700788392896	0.7060454881676799	4.487927218552546	1.11229146555878	-0.5052183962430984	1.6175098618018784	68.94323155093954
8	3.0	wm	38	diff_vonmises	-0.04745654942330689	-2.719059992209486	1.0128123940129063	159.18978189840098	0.9936148073337824	160.16306724045606	0.24654191059583752	-0.3039855336333517	0.5505274442291892	86.37646872135744
9	4.0	ltm	38	diff_vonmises	-0.3130490973396458	-17.93639205794179	4.478510648121822	0.40323289442328525	3.364901089864629e-16	2.5328584525397186	-0.07349985203726095	-0.4030744782582992	0.3295746262210382	64.60265358508315
10	4.0	perception	38	diff_vonmises	-0.09514707030835436	-5.451525561703213	2.1945735533843935	3.1443836794384996	0.21313637313137768	4.555322645065963	0.8280929606994514	-0.5806040673953679	1.4086970280948192	85.10167047193053
11	4.0	wm	38	diff_vonmises	-0.2738457356906608	-15.690204892729918	0.6870786643445654	236.46787531331842	0.6748457642258934	238.75056914522006	-0.08778887089049192	-0.4746387108142436	0.38684983992375166	94.47628659779451
12	5.0	ltm	38	diff_vonmises	-0.05920113496817722	-3.39197517606091	0.8901991572006325	37.06576455780544	0.83261281625744	37.746813596592474	0.19607842860176738	-0.2262342721667152	0.4223127007684826	93.98723655836744
13	5.0	perception	38	diff_vonmises	-0.09732318717753553	-5.576207874034517	1.8094564267893	3.7722057807204377	0.4544219770658997	4.270559363872443	0.8138113634354207	-0.3936136795134647	1.2074250429488855	87.62379336927714
14	5.0	wm	38	diff_vonmises	0.03252134336240662	1.863335718761693	0.38180285598512004	116.63321874120768	0.36612665705259306	117.5111636433623	0.13853485235840068	-0.32264745738198286	0.46118230974038354	135.43820860265458
15	6.0	ltm	38	diff_vonmises	-0.4379650143346231	-25.093546895760504	0.5778839197039018	110.4266848789942	0.5670846919735202	110.95962728785645	0.08684737026811007	-0.17044991711518698	0.25729728738329705	113.56958769186562
16	6.0	perception	38	diff_vonmises	-0.01535753637037749	-0.8799220177412913	0.14787375447022486	200.35655809349637	0.13865340176975544	200.778650196006	0.23665032421783394	-0.32978000744364877	0.5664303316614827	163.4467816093425
17	6.0	wm	38	diff_vonmises	0.07400287356520115	4.240052327126273	0.022617331858900264	51.04772166358075	4.302546056598747e-15	51.677603651524876	0.08453506756884721	-0.2829549417272963	0.3674900092961435	178.47068114645344
18	7.0	ltm	38	diff_vonmises	-0.46238115893646303	-26.49248893342706	2.1283176794649545	0.5214966837018571	1.491664189430025e-14	1.415112419231247	0.05406194045186999	-0.2212640870700648	0.2753260275219348	93.91819868849322
19	7.0	perception	38	diff_vonmises	-0.043766746963849905	-2.5076498840456094	0.6998711323453666	286.03702470849964	0.6875026337379266	287.2324515737555	0.33676328277458367	-0.42219056020815415	0.7589538429827378	104.97328055967225
20	7.0	wm	38	diff_vonmises	0.14888281537452305	8.530356962985616	0.8504915884653618	128.60385620788165	0.8356234416258453	129.77074049381832	0.0026506433515436356	-0.2604031631193493	0.26305380647089294	87.22301098416204
0	1.0	ltm	39	diff_vonmises	-0.05382027563910063	-3.0836746463512252	6.083347561852332	0.1840656311475389	8.683031550457222e-29	3.594094889526788	-0.3949604035409785	-0.5720170467538424	0.17705664321286385	55.23956032374096
1	1.0	perception	39	diff_vonmises	-0.03928247908822625	-2.250720260566278	10.551203950160284	0.8315566200247024	0.08512901512563432	4.375202125504006	0.3072851031891459	-0.7198679354992934	1.0271530386884393	40.950916339522934
2	1.0	wm	39	diff_vonmises	-0.04808440603109275	-2.755033525975016	4.644354304543583	0.4170011992736943	0.03481539012643739	3.6859894113682197	-0.2596540849728111	-0.5832751008297938	0.3236210158569827	60.98709115337226
3	2.0	ltm	39	diff_vonmises	-0.09448906175641485	-5.413824448793564	3.4254964717800154	0.38499903242678757	2.15883761285156e-39	2.0401175617066367	-0.05297847994904231	-0.32440715734186765	0.27142867739282533	74.13575270115717
4	2.0	perception	39	diff_vonmises	-0.014661645708240393	-0.8400504197982712	8.078379214683322	1.4407912624192234	0.34213020216133994	3.220287202920734	0.9058343085716851	-0.5626367847493611	1.468471093321046	45.632195305276525
5	2.0	wm	39	diff_vonmises	0.029746886759925872	1.7043710649973407	3.216609409897534	0.7730510523848958	0.17296121005938578	2.542162240826309	0.04928381946896454	-0.3804771042995035	0.42976092376846803	69.3767633327704
6	3.0	ltm	39	diff_vonmises	-0.24037651395616785	-13.772559743755949	1.632823043841918	1.4996714356051102	0.5972414017599228	2.434486181224045	0.03871513223462719	-0.22153835464588564	0.26025348688051286	78.79808899051535
7	3.0	perception	39	diff_vonmises	-0.04884448930477008	-2.798583089635214	3.683323889163006	2.7949480354335328	0.7594678294314124	3.4985063207319653	1.0185348773284049	-0.45640090834127844	1.4749357856696834	62.22191842746054
8	3.0	wm	39	diff_vonmises	0.007503850164687706	0.42993894453515324	1.289115410137672	161.9812027606504	1.2707134004197667	162.78912922357338	0.22683078788681144	-0.2642720852151541	0.49110287310196554	76.32025037624041
9	4.0	ltm	39	diff_vonmises	-0.2403846568185968	-13.773026295406284	0.6281193881877245	107.56547567915901	0.6082651869564416	109.85492036941527	-0.20667403884371538	-0.43054629062999794	0.22387225178628256	92.39909904768294
10	4.0	perception	39	diff_vonmises	-0.07841491746718743	-4.4928438217365185	2.9255178579562813	2.323934360672621	0.2424857561734346	3.769598050626338	0.7467520347633417	-0.5184500470897092	1.265202081853051	74.06469902268239
11	4.0	wm	39	diff_vonmises	-0.0016826658964872903	-0.09640965419931878	0.5926458364824003	142.42752754281145	0.5769978747599732	144.7918670822732	-0.19640543399457044	-0.4510872971193223	0.25468186312475183	96.49223180039084
12	5.0	ltm	39	diff_vonmises	0.023592526812366926	1.3517522143978584	1.4389964094967296	2.0284852753928244	0.3647559998115017	3.6216777922406864	0.053660191683033376	-0.3680663388020208	0.42172653048505415	89.28007638946553
13	5.0	perception	39	diff_vonmises	-0.08235889777034551	-4.718817247590204	1.0376334081237029	189.47667683206384	1.0063894817734025	191.0340754718978	0.5835772249700284	-0.5536830352800024	1.1372602602500308	86.93779521152408
14	5.0	wm	39	diff_vonmises	-0.02617392513298113	-1.4996554434112108	1.177314941541017	1.3615336481415918	1.474482135222655e-16	2.8549196942344177	0.0560955206600432	-0.4059120127713952	0.4620075334314384	121.54737811673084
15	6.0	ltm	39	diff_vonmises	-0.42107214650839975	-24.125656865445567	0.688810257764861	208.59291084823653	0.6779889441072796	209.97423901274706	0.042617642671665124	-0.3277275796416603	0.37034522231332545	99.10849590888907
16	6.0	perception	39	diff_vonmises	0.16781946686624258	9.615347171571258	0.42602085926172073	5.542135858151444	3.5778204984954227e-10	6.895059240177066	0.1939118046800865	-0.5465793184901829	0.7404911231702694	155.52414373369396
17	6.0	wm	39	diff_vonmises	0.10917629161136487	6.25534073222074	0.6929548563391779	2.2840122336176623	1.8491775317573812e-17	3.8637780514834716	0.0319239055083016	-0.4531591133526057	0.4850830188609073	142.25775094799548
18	7.0	ltm	39	diff_vonmises	-0.46236484645023324	-26.491554296812726	0.9235564412404362	8.748423985847015	0.7174829537328429	10.073890753168962	-0.037667232983621624	-0.28116854385764345	0.24350131087402183	86.59809402222072
19	7.0	perception	39	diff_vonmises	-0.05123932792329025	-2.9357972350913606	0.49874548342897207	172.04217111254593	0.4829892748446372	173.70585284697842	0.1007019125232631	-0.46239330688818825	0.5630952194114514	119.55368468439013
20	7.0	wm	39	diff_vonmises	0.2838037791380144	16.260758754471187	0.6640700488420367	120.6454932003326	0.6482847755922326	122.13788627489954	-0.04787587833911999	-0.3148791095911818	0.2670032312520618	96.95500451054883
0	1.0	ltm	40	diff_vonmises	-0.45325646924129487	-25.96968272452741	0.7344232237703665	1.250987931987145	1.057181096578454e-11	2.8533698953122117	-0.08993581361249364	-0.370294207728794	0.28035839411630037	138.07496683727572
1	1.0	perception	40	diff_vonmises	-0.06726548174945832	-3.854028211158227	11.082770640341572	0.9355460577964626	0.009947380791344704	2.731096375730238	0.7888332055697171	-0.43544969498534863	1.2242829005550657	40.67483187747678
2	1.0	wm	40	diff_vonmises	-0.1287702487465512	-7.3779917800271635	6.773889936016174	0.30404298239985145	0.0029858118293395164	1.8567195362743676	0.012975849364324832	-0.2952450683547013	0.30822091771902616	52.18192380055774
3	2.0	ltm	40	diff_vonmises	-0.08705453068246688	-4.987857195597482	2.8113826112428923	0.6119605575571392	0.2530633254886958	1.4853138416177412	0.08651305596835046	-0.20956252346924634	0.29607557943759677	72.60601658952183
4	2.0	perception	40	diff_vonmises	-0.007471745205097936	-0.42809946584922143	6.277907046231559	1.6015285557386085	0.37276037098463455	2.2678099951978448	1.0597199368403034	-0.3710164513275838	1.4307363881678872	51.89143919093189
5	2.0	wm	40	diff_vonmises	0.03976767062787191	2.278519688043429	1.9225683886364027	1.0064471216556552	0.25783163976787504	1.9781377019294448	0.10619574024534756	-0.24511836097090195	0.3513141012162495	85.30495652819965
6	3.0	ltm	40	diff_vonmises	-0.13017832103615537	-7.458668379470804	1.3040798729144847	146.2072861634803	1.2909579988468196	146.80874471274163	0.1107854534312267	-0.17923752919866942	0.2900229826298961	74.42363142868874
7	3.0	perception	40	diff_vonmises	-0.029929058954625908	-1.7148087628982882	3.4821446253621757	2.785372397748409	0.6623562909462433	2.9839227651987916	1.1562385733060216	-0.3696248819901702	1.5258634552961918	65.64444516279465
8	3.0	wm	40	diff_vonmises	-0.02173409367692353	-1.2452718392296873	1.121313371377974	131.03855334389795	1.1038956489210296	131.4724688084499	0.26989539830310605	-0.1910062671080528	0.46090166541115885	84.83037446969209
9	4.0	ltm	40	diff_vonmises	-0.33207686363975514	-19.026602760499316	8.972754948234218	0.2982270208800919	1.2796949911251868e-09	1.6296527088884005	0.09177568938224778	-0.25936727816337096	0.35114296754561874	45.34110911158416
10	4.0	perception	40	diff_vonmises	-0.08982963968206877	-5.146859228963442	2.856244561937305	2.280246141908096	0.04172788331672011	3.1457075585168486	0.9302970969642197	-0.47564025196821663	1.4059373489324363	80.02941344078431
11	4.0	wm	40	diff_vonmises	-0.3235784778825297	-18.539681123936205	0.8474650286739399	194.8962313780022	0.8341446947416344	196.33332535293553	0.049728320289943895	-0.3372120845094706	0.3869404047994145	88.99947954402477
12	5.0	ltm	40	diff_vonmises	-0.02037662959060912	-1.167494876243289	1.084350661740268	51.439171379254994	1.049119171410659	51.855791166883094	0.1943653818714033	-0.1611773693980414	0.3555427512694447	85.77025771856557
13	5.0	perception	40	diff_vonmises	-0.09588165356015965	-5.493614081732652	2.1825453067951774	2.4591730089719466	0.22949259973327343	2.5342264454120693	0.8362565401763995	-0.30642000127991526	1.1426765414563147	86.90980819359092
14	5.0	wm	40	diff_vonmises	0.09284005721652738	5.3193434482601	0.4066592355266498	90.24865427534229	0.3890790186328517	90.75287354109092	0.17686911065341704	-0.2473097436788887	0.42417885433230573	134.24271283773925
15	6.0	ltm	40	diff_vonmises	-0.4356176174088103	-24.959050959069444	0.5040682497779625	80.15332193979938	0.49089957577872145	80.45632215640674	0.12295491319530072	-0.1471202696296876	0.2700751828249883	123.45991863303422
16	6.0	perception	40	diff_vonmises	0.027089556220287234	1.5521172403048251	0.20556653466558342	171.08147340084676	0.1951660379830252	171.21628375986924	0.28257367029191016	-0.2698148547000656	0.5523885249919758	157.21059940819248
17	6.0	wm	40	diff_vonmises	0.07860339875343793	4.50364300395587	0.00034072897642683673	3353.028814142364	4.706699224250314e-30	3353.3733858563673	0.1269987665946246	-0.23664837686874307	0.3636471434633677	179.718588375345
18	7.0	ltm	40	diff_vonmises	-0.16678257901960236	-9.555937874130366	0.9664881309544883	59.27173189918904	0.9395670351407366	59.962060795372196	0.07496041479257798	-0.18035886488751718	0.25531927968009516	85.84565362701042
19	7.0	perception	40	diff_vonmises	-0.0922423669657823	-5.28509831943629	0.8074005003552082	159.81895266978995	0.7864290236678421	160.57231303866175	0.413245454303528	-0.3401041962721969	0.7533496505757249	100.13806957467223
20	7.0	wm	40	diff_vonmises	0.18322692150552952	10.498129295441661	0.7571724299093286	80.40483621265443	0.7390605151273666	81.15501549517033	0.05891915602265385	-0.19072266228523116	0.249641818307885	96.48681875233325
0	1.0	ltm	41	diff_vonmises	-0.31622650177675404	-18.118443921994235	0.00029468407195900443	2725.5111419396867	3.8369070420321846e-26	2727.1700374332927	-0.13618463928725077	-0.3918393622503231	0.25565472296307235	177.14269418428793
1	1.0	perception	41	diff_vonmises	-0.08210711957643073	-4.70439141970546	10.573534621585177	0.9394937249866857	0.13704164931318336	2.8055917850787786	0.6937935213882639	-0.4698640132207508	1.1636575346090146	40.94724847637471
2	1.0	wm	41	diff_vonmises	-0.03287558273329383	-1.8836321396508995	3.8180612130945577	0.4195281336605433	6.231532986837398e-12	1.8468404834956305	0.020502967168001818	-0.293782012129082	0.3142849792970838	70.11549088114617
3	2.0	ltm	41	diff_vonmises	-0.10047518703992599	-5.756804163175306	5.900158768295797	0.2693609453540892	1.8808699480095402e-23	1.1183407966702263	0.07697097246961185	-0.17798755289015095	0.2549585253597628	56.108848057268034
4	2.0	perception	41	diff_vonmises	-0.01340756812236754	-0.7681970669458017	7.573883813026432	1.3707960794817047	0.38715102257705114	2.089121200664815	1.0065519040795152	-0.3586898123334729	1.3652417164129882	47.39877506738043
5	2.0	wm	41	diff_vonmises	0.2776102017945114	15.905892912600615	3.2355057920857218	0.4647939630221673	8.830229122559325e-15	1.206138297232433	0.12577180417037967	-0.19147112272128242	0.3172429268916621	76.31634494983348
6	3.0	ltm	41	diff_vonmises	-0.1888086324023017	-10.81793777228889	1.4352601637633537	55.66633858148533	1.411367224009857	56.046712543295996	0.07749902742641979	-0.1188681609487654	0.1963671883751852	71.13372355457264
7	3.0	perception	41	diff_vonmises	-0.056819827629675156	-3.2555363158412107	4.435717887475106	1.8713251450689488	0.506172030245392	1.9622785307164674	1.0352974951891905	-0.2812971890193584	1.3165946842085487	60.555213695285204
8	3.0	wm	41	diff_vonmises	0.06331129148043917	3.6274697973517296	1.3117367809245135	124.65951082019684	1.2989382764488744	124.72505555671371	0.2636837633160951	-0.10428651489996277	0.3679702782160579	81.54278699610973
9	4.0	ltm	41	diff_vonmises	-0.34814524525356866	-19.94725321057644	14.611667310733154	0.23440086174066732	0.07370606259784375	1.2902841344461884	0.13353118395539976	-0.21332478936896498	0.34685597332436474	35.012418545661944
10	4.0	perception	41	diff_vonmises	-0.08367247398118652	-4.79407962054018	3.320225777229089	1.8262601449515172	0.08839378173554853	2.6279779371050456	0.810659295735358	-0.39089236161300683	1.2015516573483649	73.21665483313703
11	4.0	wm	41	diff_vonmises	-0.35366307006582665	-20.263401284411387	0.9286526568933392	146.06289791731794	0.9155188974292793	147.12369178004573	0.019459789303859054	-0.244061693028371	0.26352148233223005	84.03678547865982
12	5.0	ltm	41	diff_vonmises	-0.07990067660520644	-4.577971549718003	1.1120657722823932	102.56541765569978	1.0931967470584196	103.23767891484356	0.12068220506845506	-0.1934307663847772	0.31411297145323225	81.03502588303917
13	5.0	perception	41	diff_vonmises	-0.08781822430844059	-5.031613617206818	2.298866404115302	2.2091570957900237	0.23134777559400632	2.725741907181622	0.6995045926405534	-0.34192355880162323	1.0414281514421766	83.92110163909032
14	5.0	wm	41	diff_vonmises	-0.017153113910617926	-0.98280103258555	1.166917289831853	1.211810934306403	1.6753881562771533e-19	1.6810184408596747	0.1844766436167899	-0.22373117977951618	0.40820782339630607	121.93714944747421
15	6.0	ltm	41	diff_vonmises	-0.4252465407412945	-24.36483203701419	0.5444844050143767	97.39799477611618	0.5286445470856355	98.0456242206597	0.12659563438919363	-0.22515349409319363	0.35174912848238726	117.6972365324611
16	6.0	perception	41	diff_vonmises	0.19529575053719297	11.189622262620937	0.2602968249560484	150.84462197282434	0.24613934216669817	151.33723775695702	0.27798862644239364	-0.3526682657627376	0.6306568922051312	150.22890872879157
17	6.0	wm	41	diff_vonmises	0.18427718804885965	10.558305135738271	0.0003831981685188697	2879.5285521864716	1.0676300221010546e-29	2880.1828025953973	0.07150076446032472	-0.2797214937291983	0.351222258189523	178.81826686442912
18	7.0	ltm	41	diff_vonmises	-0.10971076442911137	-6.28596376894208	0.9326345213780397	96.45696934973347	0.9137554408068226	97.36173268845678	0.05203784190010552	-0.2200994624863135	0.27213730438641903	85.6435293752599
19	7.0	perception	41	diff_vonmises	-0.18140245651494488	-10.393595151611786	1.4642928469751497	2.138963840212902	0.17006105904978214	3.0514430923465365	0.34151754691133573	-0.3579311946483259	0.6994487415596616	102.47037770600791
20	7.0	wm	41	diff_vonmises	0.22799440243708308	13.063117012252071	0.6653310590666281	41.06658240762829	0.6264961122011716	41.75475126149544	0.11681519063478696	-0.21171222953428392	0.3285274201690709	106.9190735886491
0	1.0	ltm	42	diff_vonmises	-0.32391856409313136	-18.55916662847428	0.31970514965986846	2.6131313372731304	3.1558512012061857e-19	5.044507018354994	-0.24465019592241177	-0.5083401644626544	0.2636899685402426	159.81515973335917
1	1.0	perception	42	diff_vonmises	-0.07129724918773987	-4.085031469350032	9.12777295203232	1.0506135918607316	0.14021000983861542	3.5891359347211553	0.5940042026754916	-0.5972698595841791	1.1912740622596707	43.80643185916884
2	1.0	wm	42	diff_vonmises	-0.11463133498602848	-6.567891694649767	5.631478334098583	0.3754749733013493	0.020777103712071435	2.6610133788138963	-0.08562064103955724	-0.42226315710334317	0.3366425160637859	56.49622306339333
3	2.0	ltm	42	diff_vonmises	-0.08866306172932427	-5.08001923579817	3.1115764435613715	0.47239866388793317	5.538596052613396e-13	1.9900730738297123	-0.0008416300677020483	-0.31610356173835974	0.3152619316706577	77.86717738327476
4	2.0	perception	42	diff_vonmises	-0.0221980821007447	-1.2718564176575677	6.720961673229279	1.45520966111631	0.25379819038529416	2.906650822028718	0.8879618332177447	-0.4788491793080373	1.366811012525782	50.43474343706484
5	2.0	wm	42	diff_vonmises	0.17374793915998266	9.955023612962808	2.7742894162262846	0.6091208586936799	0.005709315777016666	2.0858904207470474	0.04756061754331525	-0.3286021678008993	0.37616278534421455	82.07718335813496
6	3.0	ltm	42	diff_vonmises	-0.1334651281115586	-7.646988552965148	1.8758395256469516	1.0460169130606227	0.2792407206342475	2.049887320905633	0.09599816801628985	-0.24899106272327529	0.3449892307395651	85.16311039937375
7	3.0	perception	42	diff_vonmises	-0.0684495864880545	-3.92187241518123	2.670750611536275	3.56705328825174	0.6440551098491814	4.312857750071382	1.003699075008254	-0.46918942102610345	1.4728884960343573	72.01075784999037
8	3.0	wm	42	diff_vonmises	-0.04128035153289111	-2.3651899196510593	1.0280525494905384	170.83831735424948	1.0128476439180203	171.4456738361291	0.28145003609342467	-0.2355430974164694	0.5169931335098941	87.73946108792944
9	4.0	ltm	42	diff_vonmises	-0.2150135920997148	-12.319371365261079	5.328089747871599	0.45826642194545925	0.15692371175581638	2.456575656179422	-0.043599236351379744	-0.3976676498648851	0.3540684135135054	54.813501854763246
10	4.0	perception	42	diff_vonmises	-0.12534099345617716	-7.181509925015821	2.308456234012518	2.7494660708592553	0.2069213603069396	4.192663240313365	0.7338668848197122	-0.5471159110117493	1.2809827958314615	83.16088181791568
11	4.0	wm	42	diff_vonmises	-0.4405098883271409	-25.23935743492438	0.8458224980546918	198.0295452033644	0.8318008102587167	200.02263249723808	-0.08731045639932233	-0.4142120087480414	0.3269015523487191	84.22064064862299
12	5.0	ltm	42	diff_vonmises	-0.16918300670388994	-9.693472249466407	0.7679239358835904	124.02816042289005	0.7514413042316304	124.85395031148528	0.14722420328614305	-0.24448193457844525	0.3917061378645883	98.43733407921606
13	5.0	perception	42	diff_vonmises	-0.09777860032057135	-5.602301125065257	2.5204284945525193	2.3041156703157344	0.16481098040801578	3.0331620956092453	0.798990326139426	-0.41052035761720407	1.20951068375663	81.81168262261406
14	5.0	wm	42	diff_vonmises	-0.15286007399377124	-8.758237095900567	0.4594461356583393	116.16773396076947	0.4437495081598874	116.99822626164438	0.1417858895727271	-0.29515042533904	0.4369363149117671	126.67912251125645
15	6.0	ltm	42	diff_vonmises	-0.36748373183700916	-21.05526687397795	0.5062061758309356	126.45122181486794	0.49574340480088763	127.26186713249328	0.04794412716481844	-0.22305837680027096	0.2710025039650894	118.09174294970161
16	6.0	perception	42	diff_vonmises	0.10808902200407709	6.193044772530305	0.030072484878314647	236.45748908284776	0.02241744409207466	237.1146819585477	0.18485970205684055	-0.3865179116412847	0.5713776136981252	176.5524688193806
17	6.0	wm	42	diff_vonmises	0.1499300824355842	8.59036094560749	0.0006097147378102043	1486.6677106349337	1.0830843254705065e-32	1487.526396699275	0.0076190826215452034	-0.28090337030494084	0.28852245292648604	179.16624469898096
18	7.0	ltm	42	diff_vonmises	-0.446479608076647	-25.581397181446977	1.619584297412676	0.7802153082745994	1.0148339114561449e-10	1.691405327043552	0.08485703884971768	-0.2553167084428872	0.34017374729260486	106.30104433143589
19	7.0	perception	42	diff_vonmises	-0.13226420993147067	-7.578181009705577	0.6802738840076941	299.63864165378646	0.6685706299946588	300.8806335038745	0.32151822469282365	-0.429951494820795	0.7514697195136186	106.1744011518056
20	7.0	wm	42	diff_vonmises	0.20930690980671798	11.992402554850322	0.880039739917397	93.30831555742725	0.8568652343938148	94.3557373209463	0.0829655308274937	-0.262746927145157	0.3457124579726507	89.22382580598753
0	1.0	ltm	43	diff_vonmises	-0.05737399119256788	-3.2872875491548963	2.67690398006578	0.5624457611747952	2.9220969136306075e-47	2.863008934679096	-0.11067952266706116	-0.45403011092430773	0.34335058825724657	84.05770573645086
1	1.0	perception	43	diff_vonmises	-0.13055075109461764	-7.480007049984503	11.246827681422895	0.7956801282837013	0.15237657568615873	3.0786649833551514	0.4844515544343222	-0.5230803559595946	1.0075319103939169	39.504216410475976
2	1.0	wm	43	diff_vonmises	-0.16603454024338304	-9.513078409340869	3.061774744724943	0.7417369136189291	0.15507776375564217	2.6861451330783286	-0.004817614421567695	-0.4020015261379934	0.3971839117164257	70.86122964679984
3	2.0	ltm	43	diff_vonmises	-0.04908737101990862	-2.812499186833551	2.6652863009073013	0.6446545176155067	1.3334117117366972e-20	2.320877389358561	0.02503635216242689	-0.3674695719021259	0.3925059240645528	84.24063296168993
4	2.0	perception	43	diff_vonmises	0.0039357744654274504	0.22550326598435064	5.093064460042454	1.4989795806175399	0.3447455169450744	3.045332369038393	0.6482976537653271	-0.48477865928580266	1.1330763130511299	56.23982976715803
5	2.0	wm	43	diff_vonmises	0.45692979775489123	26.180148945121545	3.3567971680118824	0.5912209787185325	1.6638679022863505e-12	1.804334414327317	0.12542310808580837	-0.2866677175468752	0.41209082563268357	74.8756534662478
6	3.0	ltm	43	diff_vonmises	-0.17327852172702593	-9.928127975224523	2.3445648469999028	1.087177460904513	0.1544912804667558	2.5650095648505085	0.14330547181072778	-0.3584203112782569	0.5017257830889847	81.68834008855143
7	3.0	perception	43	diff_vonmises	-0.10330096495573457	-5.918709311592412	2.6195438953192642	3.003710175077214	0.3232276060547633	4.623536142642035	0.8287291385187092	-0.593790900720804	1.4225200392395132	76.125301258207
8	3.0	wm	43	diff_vonmises	0.2193081929752386	12.56543387012178	0.437826883841212	107.27097146752858	0.4180178796516879	107.75868346348423	0.27917607915121323	-0.3037170422895077	0.5828931214407209	131.66566516047632
9	4.0	ltm	43	diff_vonmises	-0.24887453745853777	-14.259460624644728	5.582243336934899	0.5800334975372906	0.1470244375927998	2.692957410229584	0.03940864448246206	-0.43484797499221817	0.47425661947468023	54.32133774127436
10	4.0	perception	43	diff_vonmises	-0.138346143633145	-7.926650142089895	0.873215208397241	538.0856017308582	0.8617635825616059	540.2599240562724	0.48931697192548995	-0.6669871713010238	1.1563041432265138	92.7166910482016
11	4.0	wm	43	diff_vonmises	-0.5928482144684983	-33.967700580911625	1.0627505838578704	234.5265659899676	1.049006561019508	236.43946854746625	-0.06485150464727951	-0.42179036635392464	0.3569388617066451	75.50653330875464
12	5.0	ltm	43	diff_vonmises	-0.3260030521655451	-18.678598997468946	0.8308462389462844	131.5008558852418	0.8111990251999868	132.2889489554964	0.2522911144107809	-0.27548923514628854	0.5277803495570694	96.73405911373713
13	5.0	perception	43	diff_vonmises	-0.09304330326191905	-5.330988588863767	1.9398511567120862	3.121568233904146	0.34805792463942953	4.089291038224264	0.6863533876696832	-0.44510737719097	1.1314607648606532	86.38864575249602
14	5.0	wm	43	diff_vonmises	-0.24901666730250963	-14.267604064847168	0.46708806462158997	162.33536967678236	0.455152109970082	162.84896592499246	0.23736390576949162	-0.27523740519266404	0.5126013109621557	127.91095406528665
15	6.0	ltm	43	diff_vonmises	-0.37186145568897727	-21.306091974569473	0.6858358242949731	77.13113438753307	0.6607055914790195	78.25121666307288	0.058589651032232126	-0.27733808043444874	0.33592773146668087	100.92959229035434
16	6.0	perception	43	diff_vonmises	0.018277346036070848	1.0472147885670244	0.3792685600631653	183.90736716297093	0.3675118573367738	184.98175582167298	0.15547302954421838	-0.3853445861140443	0.5408176156582627	135.34663947405846
17	6.0	wm	43	diff_vonmises	0.3437090268749931	19.69307662048569	0.00016265891399181573	4173.725049055864	1.2654743122067637e-31	4174.752654798531	-0.05549642076289274	-0.2715918591434274	0.2160954383805347	176.29500017719744
18	7.0	ltm	43	diff_vonmises	-0.30633040460037636	-17.551439320136463	0.835701721199975	125.86612339400466	0.8120619853656149	127.39242191645236	0.1010775890476765	-0.3763861911741859	0.4774637802218624	91.26808471404557
19	7.0	perception	43	diff_vonmises	-0.2826611028196189	-16.19528822407758	0.6840933621336899	368.6290610442159	0.671756177150893	370.4344851973181	0.36184129264403	-0.5724580975204638	0.9342993901644938	104.89101883414683
20	7.0	wm	43	diff_vonmises	0.33890007770877195	19.417544129368263	1.3751612268441957	121.17929755521853	1.3492779120720892	122.17926356788763	0.15740664530645887	-0.2942652215761381	0.451671866882597	72.0637619780995
0	1.0	ltm	44	diff_vonmises	-0.8666978004859637	-49.65812608111719	0.00026752907245482086	2147.638787677985	3.3778988455866882e-25	2149.0259187661763	-0.12932088457148438	-0.312204423220237	0.18288353864875262	159.6781311625667
1	1.0	perception	44	diff_vonmises	-0.12533823029035626	-7.181351607276189	18.107971137391942	0.6366411800825508	0.12235763846419619	2.2663507538111793	0.6669087441248406	-0.38733072514566785	1.0542394692705084	31.490186982412496
2	1.0	wm	44	diff_vonmises	-0.16310485100891797	-9.345219580921107	4.172463822036605	0.32803145213926505	0.028511878529428877	1.4135677773778736	0.026617741143911966	-0.2219366986883423	0.24855443983225425	65.58788713677143
3	2.0	ltm	44	diff_vonmises	-0.111201444114358	-6.371373423512602	20.44470746981785	0.27165049536438296	1.578089834203975e-26	1.0834133970105724	0.31431348042235324	-0.17243059754621465	0.4867440779685679	29.93995035649519
4	2.0	perception	44	diff_vonmises	-0.009340158422294112	-0.5351516575810223	7.738367930626975	1.3403663940893444	0.5051919859648659	2.3277880628978473	0.8849009250625947	-0.41741408319770235	1.302315008260297	46.132242833497514
5	2.0	wm	44	diff_vonmises	0.2500470302772766	14.32663951466786	4.000787089446397	0.3215482681192576	8.628363241323706e-14	1.146639624069204	0.06474185774123481	-0.18241054562720502	0.24715240336843983	68.45383318243725
6	3.0	ltm	44	diff_vonmises	-0.17611250125345432	-10.090503041315353	2.0052629812699387	70.36874449703026	1.9668494336779745	70.89612761130536	0.15353813777158365	-0.20743535666904656	0.3609734944406302	60.3407061102761
7	3.0	perception	44	diff_vonmises	-0.04351664691533689	-2.493320206809796	3.7518243846944936	3.021015204869013	0.9614635213399064	3.6017552830432167	1.0378576774543113	-0.45229931090239195	1.4901569883567034	60.27971669458833
8	3.0	wm	44	diff_vonmises	0.15427691026949614	8.839415834760636	1.6317649500835718	115.0380264024403	1.611993652332323	115.32901237641394	0.25586944585396765	-0.15707599107529902	0.41294543692926666	70.45040384194786
9	4.0	ltm	44	diff_vonmises	-0.41660129670566753	-23.869496040912114	11.87214845961076	0.3292058745994686	0.3154832084203773	1.5460406223979686	0.11846353798279802	-0.2877122950596868	0.40617583304248484	37.41825802383059
10	4.0	perception	44	diff_vonmises	-0.12844782940455304	-7.359518512497283	1.8569301751335774	4.868946251151775	0.6853499997614201	6.248591612417449	0.6406093871529166	-0.5171046157759005	1.157714002928817	79.38758803694301
11	4.0	wm	44	diff_vonmises	-0.44176208312562737	-25.31110291200589	1.0406387237623824	120.07463557198551	1.026060310088189	121.23090298330885	-0.07068030315111429	-0.24552976255085568	0.1748494593997414	74.34610862893952
12	5.0	ltm	44	diff_vonmises	-0.04417486889603611	-2.5310335482866035	1.4897794042659027	138.6528697663431	1.4693644189244213	139.26107740596692	0.23703886508025818	-0.22720179166318033	0.4642406567434385	71.65713415933067
13	5.0	perception	44	diff_vonmises	-0.08643623988378887	-4.95243174232146	1.1708053797356568	13.847030725376452	0.8585221960323222	14.632152475535417	0.5686503431631191	-0.38021951039813096	0.9488698535612501	89.50327842960615
14	5.0	wm	44	diff_vonmises	-0.014742800570929446	-0.8447002509173177	1.9165228890450319	0.8367349341616573	3.953326745835465e-16	1.3042890162239473	0.21307183135360822	-0.1984794111626425	0.41155124251625075	98.99420934942316
15	6.0	ltm	44	diff_vonmises	-0.38329606189927434	-21.961246650813578	0.8747215058793485	59.968541929790355	0.8425423910565193	60.73042093331345	0.13060015890418697	-0.21805543883943646	0.3486555977436234	92.2151758543633
16	6.0	perception	44	diff_vonmises	0.06396526799959525	3.6649398918000298	1.4767219254458461	1.3033680062251765	1.4465046619429476e-10	2.1270412124863665	0.2206940645642903	-0.30935869947044137	0.5300527640347317	111.16927513293649
17	6.0	wm	44	diff_vonmises	0.18602855702825058	10.658651186627505	0.00039780481737798043	2083.6345903611723	7.92666424260194e-29	2084.4092983272994	0.008632503303147132	-0.25520347041879177	0.2638359737219389	178.7965715262223
18	7.0	ltm	44	diff_vonmises	0.015232387825951153	0.8727515343334566	1.4868384540201287	192.89033881255858	1.4702805216035042	194.08908812845323	0.04820925409455867	-0.32499530746255445	0.3732045615571131	66.36645045310055
19	7.0	perception	44	diff_vonmises	-0.3894557777852442	-22.314172374079337	0.8059682688858505	206.2319230440089	0.7907251283710423	207.4498804218915	0.2326517117919309	-0.36289910629250954	0.5955508180844404	96.18333146832713
20	7.0	wm	44	diff_vonmises	0.7243013201683837	41.499408741402156	13.301646517791506	0.29021149528289597	0.21476586828434308	1.0871793493141126	0.20590653811380175	-0.19278639419052854	0.3986929323043303	36.224745076379634
0	1.0	ltm	45	diff_vonmises	-0.027004672733671867	-1.5472537747714092	2.4721333023269056	0.5426815056630642	3.5526692304532406e-34	2.900112693074494	-0.1438574777743094	-0.45930351295249566	0.31544603517818626	87.48640343452936
1	1.0	perception	45	diff_vonmises	-0.11668449253701299	-6.685528956996596	12.374263358648252	0.69531908183446	0.11884867276314184	3.1416173511486543	0.40424471766936343	-0.5284615273524993	0.9327062450218627	37.80695445383148
2	1.0	wm	45	diff_vonmises	-0.08593389479299314	-4.923649488759748	2.525593708766804	0.8554587904009403	0.13118002240293436	2.8597141418617094	-0.009513458850384127	-0.41701593129464376	0.40750247244425963	78.09268257376436
3	2.0	ltm	45	diff_vonmises	0.01606013299376837	0.9201778389617313	3.115790143283811	0.4617575722184551	1.2856517828056156e-32	1.7971577531586813	0.02298302777539879	-0.2854189177478681	0.3084019455232669	77.81468519245908
4	2.0	perception	45	diff_vonmises	0.00925880117102287	0.5304902304503948	6.127939913006536	1.3773247478115376	0.4161910991414132	2.5936389821890824	0.7301058438028306	-0.4334963291643875	1.1636021729672181	51.50725617781262
5	2.0	wm	45	diff_vonmises	0.35194439059677946	20.164928204499198	3.5051231039990447	0.5530444484156568	0.03677193136195634	1.4892177800124242	0.149562130617935	-0.23059461366257836	0.3801567442805134	71.68485478155955
6	3.0	ltm	45	diff_vonmises	-0.24892220838030013	-14.26219196726721	2.479543236911603	0.9702170253973261	0.4860382939440489	1.9069935374787275	0.10348306460940909	-0.2395622499051636	0.34304531451457265	71.46434742565884
7	3.0	perception	45	diff_vonmises	-0.07405568414952446	-4.243078150721619	4.345684790142836	1.851225401763393	0.2433174245870776	2.8045000489134773	0.9278434144911092	-0.4212336146074209	1.3490770290985301	62.350928277692816
8	3.0	wm	45	diff_vonmises	0.1683333057062794	9.644787968455267	1.1603898957086451	3.2671196233785516	0.5746134900606128	3.5648495834731935	0.2851349740733672	-0.1811382161109271	0.46627319018429425	98.03527386803259
9	4.0	ltm	45	diff_vonmises	-0.2950776768350434	-16.906705511173204	6.192897624871145	0.3893261808046709	4.438310424280431e-33	1.9630929623048046	0.06559277654272799	-0.31243436945511704	0.37802714599784504	54.73934962310804
10	4.0	perception	45	diff_vonmises	-0.07149182678376666	-4.096179944390168	1.5032446127809609	6.573050382964346	0.6522000983640884	8.165434366720747	0.6016222012210144	-0.5599538605515383	1.1615760617725526	85.49558070551674
11	4.0	wm	45	diff_vonmises	-0.33108154605214857	-18.969575263454317	0.8204475471293103	180.85018200240083	0.8089749202520979	182.29240963948067	-0.04421526764399886	-0.3049867511862452	0.26077148354224633	86.58633591407126
12	5.0	ltm	45	diff_vonmises	-0.2283950805822919	-13.086074178915666	0.9520468396284697	125.8799066611067	0.9309646208164662	126.94278970697633	0.15497871597369084	-0.2917331259360356	0.44671184190972646	87.326780878772
13	5.0	perception	45	diff_vonmises	-0.058818882109535515	-3.370073700553929	0.9617651099455602	286.5486784218547	0.9443909032278678	287.7736093277398	0.5395548896928233	-0.4702147167971482	1.0097696064899715	90.70459639444101
14	5.0	wm	45	diff_vonmises	-0.12445431733997264	-7.1307071257622505	0.4664132476494148	133.0823270533371	0.45140851512739777	133.74193653955749	0.2138709149510447	-0.29687857404312545	0.5107494889941702	127.5817604636676
15	6.0	ltm	45	diff_vonmises	-0.43743978137657735	-25.06345326400331	0.7337294331458173	138.4006932319283	0.7142069667683552	139.77735834078084	0.11998764113771188	-0.3571478189878565	0.4771354601255684	98.46808225362857
16	6.0	perception	45	diff_vonmises	0.022881506802503598	1.3110137686833394	0.709417136455415	235.67510189720338	0.694449403611522	237.04938148816666	0.2827847512589159	-0.4338612223975389	0.7166459736564548	103.11801464353584
17	6.0	wm	45	diff_vonmises	0.26223623653107153	15.025029588624779	0.0005434369701088365	2144.9986217301157	7.259780770146662e-26	2146.294514107732	-0.020700105456739948	-0.3917448399275827	0.37104473447084274	177.7434300305165
18	7.0	ltm	45	diff_vonmises	-0.14705123479000623	-8.425415125654698	0.9802766975370275	192.706348450705	0.9646914335163332	194.50793517425004	-0.03416194262976546	-0.39685860351444546	0.36269666088468	79.7372475202788
19	7.0	perception	45	diff_vonmises	-0.2158820692526482	-12.369131440727699	0.5312572563624853	174.99911283437035	0.5101169262456169	176.84698826000874	0.23412772055046105	-0.575321849842469	0.8094495703929301	118.21257051390141
20	7.0	wm	45	diff_vonmises	0.47285680978201855	27.092699514530043	1.1300653480738323	87.90541627177852	1.0967564570799937	89.12199633296518	0.10941505504447235	-0.3155967748587596	0.42501182990323194	78.59542780296997
0	1.0	ltm	46	diff_vonmises	-0.60506281135443	-34.667545430929145	0.0004177153834842478	1708.5671785196678	5.796540246995177e-28	1709.9899577477047	-0.11284434544342048	-0.3400166265569169	0.2271722811134964	169.7953584859461
1	1.0	perception	46	diff_vonmises	-0.1356558835602832	-7.772509594122356	15.80413419633758	0.669014090531185	0.14110776423359725	2.280255760661818	0.6364244877739369	-0.39168553448302357	1.0281100222569606	33.62030045194376
2	1.0	wm	46	diff_vonmises	-0.16055087446103725	-9.19888750375215	3.583099606104534	0.4412852590180079	0.06894325452212872	1.534780339298653	0.05795887952869394	-0.23631195531386376	0.29427083484255767	69.341784256029
3	2.0	ltm	46	diff_vonmises	-0.1012068520434524	-5.798725479894793	8.247090342739742	0.34308064304181185	6.282955935780946e-29	1.2362086536049388	0.18996477195421316	-0.19674869136191972	0.3867134633161329	47.32228726289955
4	2.0	perception	46	diff_vonmises	-0.0008524667019947528	-0.04884274419973581	6.7005771525553355	1.3533604081079627	0.46739881586595433	2.332195892736223	0.8081747629028092	-0.39992521855610536	1.2080999814589146	49.398082843436924
5	2.0	wm	46	diff_vonmises	0.4330050358705804	24.80936106329508	3.4762708567539398	0.4097329620683894	1.748589957347017e-18	1.1268670490308534	0.112227559505308	-0.179067646764797	0.29129520627010497	73.55239384041599
6	3.0	ltm	46	diff_vonmises	-0.1773194922868985	-10.159658533441839	1.69412641911145	50.02269061669835	1.6409274951806392	50.66923023411583	0.15305110265265398	-0.22205425150902336	0.37510535416167734	65.75105247085048
7	3.0	perception	46	diff_vonmises	-0.06409354464386803	-3.6722896021269613	4.0360134726838295	2.232725614502745	0.5098580353352605	3.032365425576658	0.9711630103760645	-0.43320536678204385	1.4043683771581084	61.96680520526172
8	3.0	wm	46	diff_vonmises	0.21763526014348034	12.469581879453163	1.181085337443344	95.42954732236379	1.1631313739995177	95.54749266436727	0.27382693380763357	-0.12196944920648978	0.39579638301412334	85.46918580190024
9	4.0	ltm	46	diff_vonmises	-0.36533313005432855	-20.932046468417038	8.012226827367176	0.44083724448001077	0.326757927468927	1.6912724266938426	0.1261117943657017	-0.3004455433607047	0.4265573377264064	44.808123492880924
10	4.0	perception	46	diff_vonmises	-0.12632412937255266	-7.237839463711864	1.0949251948419816	172.4444005208229	1.0604460022466018	173.9537691707794	0.5830686179805156	-0.5406769684550312	1.1237455864355468	84.67776743470242
11	4.0	wm	46	diff_vonmises	-0.5380585926352965	-30.82848648875133	1.159153580868772	173.4897787346088	1.1468194321991814	174.64155339309414	-0.02739837019288416	-0.26402435635562327	0.2366259861627391	72.77020573925687
12	5.0	ltm	46	diff_vonmises	-0.1488389268740714	-8.527842337140578	1.3211850276648827	135.67116680988468	1.3025719544899996	136.209779605949	0.24370046983843707	-0.20666858547531497	0.45036905531375204	76.87757134909376
13	5.0	perception	46	diff_vonmises	-0.08798836310816607	-5.0413618523625106	1.5082648370350487	4.627603784214908	0.592000451027639	5.348447230364494	0.5989269540441067	-0.3730981027245104	0.9720250567686171	89.04903935366167
14	5.0	wm	46	diff_vonmises	-0.08246507485520681	-4.724900746433758	1.4318830963980451	1.1028646889848466	1.0683158379491785e-17	1.3984579499739078	0.24189591726446633	-0.19607113811676963	0.4379670553812359	112.60156537808871
15	6.0	ltm	46	diff_vonmises	-0.3899765489505438	-22.344010363943113	0.8279631778675098	37.636350177123504	0.7767991366057097	38.43319809808218	0.12927292168977367	-0.22768558242873027	0.35695850411850394	95.33829390791334
16	6.0	perception	46	diff_vonmises	0.03203400636910671	1.8354133658450127	0.627679408022437	89.99284485990454	0.6019143883044773	90.83074253172786	0.21664087325046566	-0.3022876424943659	0.5189285157448316	111.35581307545402
17	6.0	wm	46	diff_vonmises	0.2837608064474061	16.25829660066501	0.00020712026032829306	3591.211673689912	5.5429821993633905e-30	3591.969192738964	-0.00217650753631915	-0.23893703564772295	0.2367605281114038	177.40933900915297
18	7.0	ltm	46	diff_vonmises	-0.02106650135866967	-1.2070216169583867	1.3337008127101582	213.19936154246793	1.3181992603951953	214.50749216676445	0.07375285852808133	-0.34372701815840045	0.4174798766864818	70.76044173347864
19	7.0	perception	46	diff_vonmises	-0.38750226727062764	-22.202244466357378	0.8275420180489932	243.145877461748	0.8120051931649944	244.44233441643192	0.32465171648121327	-0.415780439672254	0.7404321561534672	95.88311549389238
20	7.0	wm	46	diff_vonmises	0.7064839642241014	40.47854944371245	14.523492000570446	0.3532044399276833	0.33161886781270894	1.0283223936846744	0.31008121611476525	-0.19446164606563693	0.5045428621804022	34.55586541450489
0	1.0	ltm	47	diff_vonmises	-0.150773494915158	-8.638684921075733	5.010527457637784	0.2976424470816213	2.273582534786085e-19	3.1980320202051984	-0.250622186991822	-0.5089711167311354	0.2583489297393134	60.99675231173279
1	1.0	perception	47	diff_vonmises	-0.09539178843553713	-5.465546877561131	10.053244272861471	0.6962443368494444	1.867738785827234e-20	3.7623995030267943	0.27011366895051636	-0.5988044771820766	0.868918146132593	42.81296652375141
2	1.0	wm	47	diff_vonmises	-0.11544222629692108	-6.614352344407744	3.03857595708657	0.8788131560163115	0.20448867751600772	3.6406114068724964	-0.12376513402301192	-0.5476650940728848	0.42389996004987285	68.28165642118418
3	2.0	ltm	47	diff_vonmises	0.021376517529787142	1.2247842351442233	2.2292236912189227	0.48351659329963265	5.6979997076180305e-15	1.9032398966134745	-0.0366635309343088	-0.299826709461211	0.2631631785269022	92.07025057429436
4	2.0	perception	47	diff_vonmises	0.047448485432925784	2.7185979595946144	5.184805040932484	1.9542249919411403	0.5779558610684028	3.3790667311888005	0.8442832800092673	-0.5478491010571039	1.3921323810663713	54.23435578733327
5	2.0	wm	47	diff_vonmises	0.34837642756551074	19.9604989813488	3.132189042251643	0.6215669139723751	0.07327633457918822	1.8794229329266994	0.09576437044849351	-0.28511701477236123	0.38088138522085474	73.99782108654966
6	3.0	ltm	47	diff_vonmises	-0.15677968252552799	-8.982814122113696	1.11257882160154	150.40100179533488	1.0956314767944366	151.70299065128944	0.008631797391544183	-0.3050105505223435	0.3136423479138877	75.95696002302586
7	3.0	perception	47	diff_vonmises	-0.03845174687822353	-2.203122811027547	4.863512016891132	1.8761089458708218	0.32758424790976887	3.070739351431556	0.9426151174317854	-0.47537945291029343	1.4179945703420789	58.224475633159074
8	3.0	wm	47	diff_vonmises	0.3612085333947186	20.69572448762763	0.6983166049928975	103.87635329777406	0.6778253070710958	104.53356182789274	0.22123235248773554	-0.25034318783316145	0.471575540320897	106.0939461445389
9	4.0	ltm	47	diff_vonmises	-0.670637532280492	-38.4247001827407	0.9601003812504829	279.8990313689773	0.9460129696005058	282.45312498278827	-0.09799995874494982	-0.5462001502813436	0.4482001915363938	79.26855548122583
10	4.0	perception	47	diff_vonmises	0.0202034492925693	1.1575723760707897	1.2084832135655832	13.831808345772881	0.8038957013589307	15.505872619173807	0.5459941209525576	-0.565539435447953	1.1115335564005107	87.38983043112361
11	4.0	wm	47	diff_vonmises	-0.2397364158256556	-13.735884822403383	0.6597592077675882	138.52141188564173	0.6400206457973193	141.30696224259046	-0.2411990723006454	-0.5284786922149536	0.28727961991430817	90.66799586229837
12	5.0	ltm	47	diff_vonmises	-0.21948912603985105	-12.57580057109844	0.9241282080698724	153.49673301253506	0.9054813949747466	154.5144805404513	0.21517755943038708	-0.30454948448775987	0.519727043918147	89.96714562619518
13	5.0	perception	47	diff_vonmises	-0.12949811953373488	-7.419695704163653	1.1025364532514266	217.85190748754607	1.0778364895055674	218.82920265887205	0.660248807833625	-0.44991373355314224	1.1101625413867673	85.9769371192223
14	5.0	wm	47	diff_vonmises	0.06793661401858021	3.8924812576739494	0.6819522124830233	3.129848822289762	0.0995193574905555	3.7586797079153365	0.22068482837269254	-0.31526062328719945	0.535945451659892	136.7800691898575
15	6.0	ltm	47	diff_vonmises	-0.5091163515846464	-29.1702182268988	0.7652754142837159	126.62377114143821	0.7521553527885224	127.26995339237256	0.1268847726202864	-0.1964483669585313	0.3233331395788177	98.86467133128527
16	6.0	perception	47	diff_vonmises	-0.06149920957811304	-3.5236451522164054	0.43880418772246377	146.41602390091694	0.4225198452737183	147.29720071094235	0.235444022536754	-0.37317407400737146	0.6086180965441255	130.19177267232024
17	6.0	wm	47	diff_vonmises	0.29760688961366066	17.05161872887853	0.001894083350157312	678.280542800733	3.52733062516423e-20	679.1605012469872	0.06451645967068487	-0.3444222918033404	0.40893875147402525	177.07612768188108
18	7.0	ltm	47	diff_vonmises	-1.2049800845252976	-69.04027324061676	0.000163648513506385	5526.634112573951	5.549128700088406e-32	5528.355142337073	-0.12996075867476975	-0.417848251262285	0.2878874925875152	142.53005041050994
19	7.0	perception	47	diff_vonmises	-0.13068413971344267	-7.487649654878257	1.5513026758385504	2.638945927239789	0.17744416795939533	4.600208935951116	0.29910472427142176	-0.558797972262402	0.8579026965338238	97.66883027801119
20	7.0	wm	47	diff_vonmises	0.3255739156601144	18.654011286872773	0.915573626454921	110.2964441764195	0.8900393821818074	112.21584982017309	-0.07949181508785585	-0.4045996770257254	0.32510786193786956	81.2738541594735
0	1.0	ltm	48	diff_vonmises	-0.6348815767311219	-36.37603483730442	0.000655741513871409	1084.1667082968406	1.7968494398701857e-30	1084.7507887111003	0.020205341483205075	-0.20608681677569507	0.22629215825890014	168.78803375202517
1	1.0	perception	48	diff_vonmises	-0.12055895157578536	-6.907519107814567	13.733770843762956	0.8495053107886307	0.3027286189779082	1.5981811824459242	0.9075654955913222	-0.293225951247834	1.200791446839156	35.850480418149715
2	1.0	wm	48	diff_vonmises	-0.07375561907498607	-4.2258856883712905	3.4739193026426656	0.33408893026431646	1.594776958055181e-17	0.6131985951208762	0.14005926167800123	-0.0973652598601171	0.23742452153811833	73.5996306754723
3	2.0	ltm	48	diff_vonmises	-0.1648848695665259	-9.447207131727005	118.01786724310146	0.3994717225680253	2.3292955880655266e-67	0.378770197997355	1.6629608953075523	-0.06028314930717497	1.7232440446147272	12.468358588906312
4	2.0	perception	48	diff_vonmises	-0.024064917779451075	-1.3788182230918835	8.763751425860372	1.2167400248356737	0.587369187392399	1.3356098239876057	1.0635595328869802	-0.24433057335556257	1.3078901062425428	44.06526841627567
5	2.0	wm	48	diff_vonmises	0.4901435792857306	28.083158448508204	3.0632857989494693	0.315849982939917	1.157874447898922e-25	0.39770279735929426	0.14604346126316856	-0.06283915323291588	0.20888261449608442	78.43357122298067
6	3.0	ltm	48	diff_vonmises	-0.2126044970095992	-12.181340384151767	3.1472688089754857	30.326815764934604	3.099687613414668	30.370714555423096	0.14600646864398925	-0.07114023879937292	0.21714670744336217	51.23689449159647
7	3.0	perception	48	diff_vonmises	-0.058410173476274224	-3.346656420817497	4.501241705812592	2.0703722450885746	1.0216341375445122	1.8021575275168669	1.073710223043377	-0.23226377092107153	1.3059739939644486	57.76149398172541
8	3.0	wm	48	diff_vonmises	0.1601283674266101	9.174679633864885	2.3066545070889783	7.2831005446802255	2.2044200698522642	6.971257438075548	0.27975040056156564	-0.013816041079187158	0.2935664416407528	71.55364533387439
9	4.0	ltm	48	diff_vonmises	1.098413724954602	62.93447059914232	51.98532594772222	1.2155216895681844e-27	3.7974816860784615	0.3030275105548867	-0.00011389860713734515	-0.22644719144937195	0.2263332928422346	105.35086901457066
10	4.0	perception	48	diff_vonmises	-0.11843083263584372	-6.785586874254056	3.2921741276896643	1.8436109551789004	0.25805225761514156	2.4381388028309288	0.7786133263008479	-0.33829834489124544	1.1169116711920934	70.91944262701364
11	4.0	wm	48	diff_vonmises	-0.580279782156882	-33.247582454360156	1.5745682079491343	97.51070879259876	1.560016117957355	97.87357924902857	0.0837329980971333	-0.12061782305895186	0.20435082115608516	67.90709028598559
12	5.0	ltm	48	diff_vonmises	-0.012759100229789763	-0.7310425935513523	2.0155244709207634	105.32697526176682	1.9972934852950766	105.53821618806428	0.19002337974418282	-0.12410197527155908	0.3141253550157419	62.865316288428374
13	5.0	perception	48	diff_vonmises	-0.09131635449672094	-5.2320417131825865	2.622467841019749	1.5317361286645463	0.022373638175856442	1.6483248514008377	0.6601104723247222	-0.2516062029054444	0.9117166752301666	84.33200470005451
14	5.0	wm	48	diff_vonmises	0.01239917142701355	0.7104201922270786	2.1946964130842375	0.641577905097194	1.858087595342068e-17	0.587075614519443	0.2565605510887746	-0.08909289419771865	0.3456534452864933	92.77574982365047
15	6.0	ltm	48	diff_vonmises	-0.4165622844216978	-23.867260801691483	1.815869486177523	0.7312294929734261	1.439952019603549e-28	1.1104072957319782	0.17903846595832162	-0.16730957092201318	0.3463480368803348	101.15505037644756
16	6.0	perception	48	diff_vonmises	0.22307035627299043	12.780989948921981	0.6234597839364293	4.545783964850113	0.23779800645638174	4.798542068005326	0.27218168577867163	-0.24092702306669683	0.5131087088453685	132.60973333587776
17	6.0	wm	48	diff_vonmises	0.23470301640840427	13.447492279191273	0.00020250785417614376	3563.2470989845015	6.410825868503148e-32	3563.535993932422	0.06886715440623448	-0.16081364542003485	0.22968079982626932	178.17848035390156
18	7.0	ltm	48	diff_vonmises	0.10691344275127897	6.125689042861829	1.5165761598348502	150.47642139378604	1.4996141007662365	151.1960933716357	0.13406794141370426	-0.22610894301228868	0.36017688442599294	68.70911014682011
19	7.0	perception	48	diff_vonmises	-0.3665651097462546	-21.00263370521023	0.9328205248829793	117.22387593832029	0.9087067239613617	117.71894953269958	0.377191427977813	-0.25401708210607765	0.6312085100838907	94.06154647852857
20	7.0	wm	48	diff_vonmises	0.6901940023229147	39.54520337834555	15.082509534020955	0.28076725394933294	5.515933746637515e-14	0.4120558710520722	0.36550047951847997	-0.06558072870793606	0.43108120822641605	34.88866749447783
0	1.0	ltm	49	diff_vonmises	-0.287932008240377	-16.497288858899644	0.00031797928329337815	2306.443254452336	1.2362486460189732e-29	2308.59033186441	-0.22498868121419946	-0.4584287302729422	0.23344004905874272	177.62575846038948
1	1.0	perception	49	diff_vonmises	-0.08301698387226157	-4.75652280378621	10.613246599590266	0.8408235472674569	0.09400612281656669	3.202257453903147	0.5205739228927517	-0.5276911619434798	1.0482650848362316	40.96690142449643
2	1.0	wm	49	diff_vonmises	-0.03635799357826904	-2.083159583598566	3.3329882169564864	0.5532064864206478	0.06660922862928417	2.4668260709788195	-0.03465232350992331	-0.3799699376379761	0.3453176141280528	71.07269567860286
3	2.0	ltm	49	diff_vonmises	-0.06330090860959546	-3.626874902673156	4.166914605878842	0.31090987906871237	4.604516686136164e-21	1.379792936203464	0.024803931829549458	-0.21954213753368254	0.244346069363232	67.04186124338645
4	2.0	perception	49	diff_vonmises	0.0005330488033688674	0.030541446707535	7.0379073756578325	1.4553458189131754	0.4397423940332437	2.4452280702533318	0.9349418677107493	-0.4208853112661331	1.3558271789768823	48.548897960657314
5	2.0	wm	49	diff_vonmises	0.286801755251016	16.43253013282721	3.3108285758960703	0.5220399528770386	0.049204997101486826	1.4549729549570178	0.11838306607373439	-0.22340996972224675	0.34179303579598114	73.1868165093347
6	3.0	ltm	49	diff_vonmises	-0.20137601729098914	-11.537995885927167	1.3191856937450053	62.30123783003434	1.2943170423388417	62.8619961514786	0.05897502940578292	-0.15426163019098027	0.2132366595967632	72.59235970303078
7	3.0	perception	49	diff_vonmises	-0.05514826561232831	-3.1597628670528626	4.7145703638727765	1.7974986419283863	0.44644364139928017	2.1634192723775643	0.998201246787642	-0.32364404279302456	1.3218452895806665	58.938692758941755
8	3.0	wm	49	diff_vonmises	0.12150473442201087	6.961708473239159	1.1814624721054112	145.77647736566337	1.1694202385330554	145.98492320826256	0.2475836549523649	-0.13234363862524567	0.37992729357761057	84.14441005925912
9	4.0	ltm	49	diff_vonmises	-0.37949109793416286	-21.743238274413326	13.521292502888713	0.23240156621706137	2.5545316703683385e-23	1.624560990707542	0.07905897006012974	-0.25855691202476366	0.3376158820848934	36.85819644152738
10	4.0	perception	49	diff_vonmises	-0.05883229913188864	-3.3708424393083964	2.9461776111972453	2.0253047577337737	0.1865354835703649	3.057993939483964	0.7313394406444605	-0.42773063809366885	1.1590700787381294	75.2770001376962
11	4.0	wm	49	diff_vonmises	-0.2709217538306252	-15.522673072777069	0.8087334171534105	168.8423251643079	0.7967765456636272	170.26212645484316	-0.04473335966485337	-0.2995222665708859	0.2547889069060325	87.19635943374661
12	5.0	ltm	49	diff_vonmises	-0.12488730478374854	-7.1555154788727675	1.0199198352420036	127.10496562330977	1.0020013666886125	128.0235275711042	0.11619695653184436	-0.2462384645930964	0.36243542112494076	83.67360971707512
13	5.0	perception	49	diff_vonmises	-0.08970649094354698	-5.139803325993784	1.557892310021234	4.995383772260149	0.6297176734004626	5.837865942081749	0.6308793141139875	-0.4063467889352723	1.0372261030492598	86.92664776542745
14	5.0	wm	49	diff_vonmises	0.002179333858098247	0.12486663221899219	1.0679308656473143	1.447705473060156	2.252491239922795e-15	2.0724425823033674	0.183399988382706	-0.2692036568863056	0.4526036452690116	125.80295679312468
15	6.0	ltm	49	diff_vonmises	-0.45733418937375675	-26.203318878153002	0.6462871518701387	150.45965600278535	0.6339675110986963	151.2842547056486	0.12775886642959478	-0.24837882839776526	0.37613769482736004	107.06765681619292
16	6.0	perception	49	diff_vonmises	0.1486417998100926	8.516547788346788	0.3445529755618346	148.61918347151828	0.3283580806757094	149.40477857372053	0.2658556004879671	-0.3978257251853847	0.6636813256733518	140.75808321415022
17	6.0	wm	49	diff_vonmises	0.22157574678925535	12.695355133483734	0.0010784175327739078	1143.5552662587743	1.1367246759770781e-20	1144.446982778938	0.054403686262077144	-0.3381400432892292	0.39254372955130634	178.31164152450486
18	7.0	ltm	49	diff_vonmises	-0.1567015445353623	-8.97833714505757	0.8871952779608273	88.48844361037676	0.8648962410167838	89.70174299318876	-0.0072412311347420655	-0.2681027709754762	0.2608615398407341	85.00152211644863
19	7.0	perception	49	diff_vonmises	-0.16662526265842817	-9.54692431058673	1.6674069141688834	1.6592532914770532	0.013787399896219032	2.9349994195029274	0.2928157000567666	-0.43339893611395147	0.726214636170718	104.5981784258881
20	7.0	wm	49	diff_vonmises	0.2731405420336012	15.64980027244101	0.7194167626644143	59.70632725863551	0.6869969406836257	60.744172747636625	0.07622059685234106	-0.26454128268900323	0.3407618795413443	99.49454070885236
0	1.0	ltm	50	diff_vonmises	-0.48019509534761534	-27.513152306300512	0.00033592129395922007	2296.1954169070946	2.5276170186241463e-28	2297.574728476026	-0.09675565628083405	-0.34227223590897893	0.24551657962814488	173.50140263688309
1	1.0	perception	50	diff_vonmises	-0.10231765890703146	-5.862370025032038	11.461980752451213	0.9473038544653708	0.22509149141389503	2.49352417390687	0.774080781784358	-0.43636702801965227	1.2104478098040103	39.1010473741766
2	1.0	wm	50	diff_vonmises	-0.09790478745001871	-5.609531115011461	4.254039700190641	0.34671264582962386	3.2602684139482653e-15	1.4481107226963623	0.04514927095767865	-0.23041833932856792	0.27556761028624654	66.33539938474834
3	2.0	ltm	50	diff_vonmises	-0.123751586922168	-7.09044363868658	9.415310577762272	0.2875325111781112	3.3669318508642994e-26	1.1268739901475835	0.16770560636821782	-0.17934756347026515	0.347053169838483	44.24735747429929
4	2.0	perception	50	diff_vonmises	-0.03170256496268708	-1.8164231721012878	8.199504579059461	1.237762014515207	0.2925101109995065	2.079343851613924	0.9569692140992234	-0.3543964291058863	1.3113656432051097	45.97827962397835
5	2.0	wm	50	diff_vonmises	0.3122304646423561	17.88948785941568	2.8613884098142903	0.430717708861059	4.2405956686968565e-17	1.176714677912082	0.08728544291317034	-0.18638194994571242	0.27366739285888275	81.23506354554877
6	3.0	ltm	50	diff_vonmises	-0.1826345784860956	-10.464190540404061	2.042713219601389	1.4481947095629466	0.9724042207762474	1.8658614852797404	0.12883398784496292	-0.14145242139640324	0.27028640924136615	70.97197125912513
7	3.0	perception	50	diff_vonmises	-0.07111202101162944	-4.074418676611998	3.505008135831573	2.499229592433209	0.6526169727927829	2.731826281701633	1.0339736034940978	-0.34216081007051496	1.3761344135646127	65.436185065985
8	3.0	wm	50	diff_vonmises	0.012400764456797499	0.7105114661103376	1.3915038171977108	129.91952288578253	1.378146805115097	129.9628899966965	0.2927600831820172	-0.10806470063113949	0.40082478381315667	79.49727818732273
9	4.0	ltm	50	diff_vonmises	-0.2518148559910929	-14.427928466984234	5.410189111988269	0.5664276390449107	0.5789755021321219	1.620335118945905	0.08826480255780494	-0.2830579455363454	0.37132274809415033	50.84068509939465
10	4.0	perception	50	diff_vonmises	-0.14071118315149952	-8.06215692487326	2.698268718872797	2.334335297682419	0.25799007327778284	3.372396591993565	0.7551705280546473	-0.4456479201682695	1.200818448222917	76.93997173547157
11	4.0	wm	50	diff_vonmises	-0.5350327944099738	-30.65512102078216	1.1623382371910025	111.40799129470453	1.1439002606896636	112.38442830712563	0.021922794581072935	-0.23588387824941925	0.2578066728304922	74.92899714692433
12	5.0	ltm	50	diff_vonmises	-0.08254747146734084	-4.729621724555215	1.1984420885860911	109.41700289844093	1.1807985019316336	109.94775187167853	0.15780010300243674	-0.17455007047776583	0.33235017348020257	79.52335872265834
13	5.0	perception	50	diff_vonmises	-0.09051359404291894	-5.186046927219725	2.724688746253621	1.7723449012970816	0.04177481956947227	2.2389834146409493	0.7269412237263884	-0.3369224981854601	1.0638637219118485	82.04274912120388
14	5.0	wm	50	diff_vonmises	-0.14309698429529158	-8.19885326117003	1.4827950985601368	0.9329241711498554	0.0008557461666190914	1.3357459960041211	0.18850982029403093	-0.19173022609524107	0.380240046389272	110.88435300505388
15	6.0	ltm	50	diff_vonmises	-0.35739484037992564	-20.47721597352147	1.4422277010934896	0.7778672455587802	9.209500741717903e-15	1.4775741837976426	0.09384746210382955	-0.21677456149321114	0.3106220235970407	111.81359401860527
16	6.0	perception	50	diff_vonmises	0.20687108073505808	11.85283982942894	0.2248359921266666	48.98121968011848	0.18806680924434743	49.514881611608935	0.21122271678455995	-0.3241442764662805	0.5353669932508405	155.17639117538295
17	6.0	wm	50	diff_vonmises	0.18576055237527725	10.643295651122266	0.0002114308196066684	3495.7187055697236	1.3137215423555858e-30	3496.379979439367	0.012390775651510921	-0.22286835129955307	0.235259126951064	178.81022638392676
18	7.0	ltm	50	diff_vonmises	-0.1287018005822121	-7.374069989095114	1.0392522223429812	129.48177470340295	1.0233920201844637	130.27421084991357	0.113066159216487	-0.2170366219109514	0.3301027811274384	83.17852037087033
19	7.0	perception	50	diff_vonmises	-0.27152883726203814	-15.55745639120935	0.7486272783925557	212.82990988295046	0.7342789891854893	213.6842621207785	0.33412620481168886	-0.33663560657820213	0.670761811389891	102.67425945666159
20	7.0	wm	50	diff_vonmises	0.3673146018084269	21.045576437151258	1.1318861898525867	6.170617048342572	0.8647569996973218	6.668846214286706	0.1541010581796014	-0.16556992518398084	0.31967098336358224	87.42256890521364
0	1.0	ltm	51	diff_vonmises	-0.18254082461110022	-10.45881883905383	712.0621868595381	304.1545342915978	0.015181699340004419	3.1489232068609243	inf	-0.5085814838455425	inf	0.0
1	1.0	perception	51	diff_vonmises	-0.0706337862056102	-4.047017840610837	13.75620775146546	0.5833733555335299	0.01847307083552034	3.9700720604214808	0.21148795217146843	-0.6367847815135228	0.8482727336849912	36.361099046503824
2	1.0	wm	51	diff_vonmises	-0.012587759973082879	-0.7212255199813596	4.2945259626509396	0.45559820396876755	0.08197715964376022	3.342454391356071	-0.2123820632502153	-0.5282204662048986	0.3158384029546833	61.367337344588606
3	2.0	ltm	51	diff_vonmises	-0.12048463810504242	-6.903261259580027	41.196858088268584	0.16443068444119552	5.897872698013707e-35	1.375028035570146	0.2008829581171423	-0.21884250875092726	0.41972546686806955	21.060115777847187
4	2.0	perception	51	diff_vonmises	0.0076192242971581635	0.43654939539069376	7.81903019735741	1.6118725859038676	0.5713743275481601	3.121423495406594	0.9550663766468122	-0.5759540510785504	1.5310204277253625	45.321748100767024
5	2.0	wm	51	diff_vonmises	0.07041360540228743	4.034402409850643	3.6648962794587283	0.5873222527516231	0.19018678195933322	1.9571389482995287	0.057031931147519976	-0.29872372777565964	0.3557556589231796	65.23190097650237
6	3.0	ltm	51	diff_vonmises	-0.179680153440261	-10.294914454389994	1.5467363065522473	65.84541410967097	1.518734535273247	66.53803429026541	0.01804261975287602	-0.18869374373404924	0.20673636348692526	64.7179478799371
7	3.0	perception	51	diff_vonmises	-0.02379121191424368	-1.3631360321875232	4.445797856110818	2.714297256117825	1.1231698383997313	3.2713876545735006	1.0162273690475279	-0.4549732797026719	1.4712006487501998	55.27884861277161
8	3.0	wm	51	diff_vonmises	0.14278805508699358	8.181152921366238	1.5209416497005175	105.10863933009021	1.4968466515033787	105.70897856607488	0.18250428979170152	-0.2097556447480784	0.3922599345397799	70.13834924635057
9	4.0	ltm	51	diff_vonmises	-0.6026033556941903	-34.52662900169785	0.7739959410863312	61.04663261921412	0.7374089318638928	63.08222676280437	-0.16737427695508345	-0.3940312721240886	0.22665699516900517	84.55678311537548
10	4.0	perception	51	diff_vonmises	-0.025877673626272323	-1.4826814824024044	2.8948666187266463	2.3773969388995355	0.4285242490027384	3.6256768039956984	0.6790629075373502	-0.46710566714581303	1.1461685746831631	71.27697722640607
11	4.0	wm	51	diff_vonmises	0.28373792896832734	16.256985817667896	5.090488918888089	0.28033257260588723	1.1111136354922336e-18	2.506061548237861	-0.15344446603400808	-0.39884278508438764	0.24539831905037957	60.50220682389346
12	5.0	ltm	51	diff_vonmises	0.02852701252111928	1.6344774195769889	1.1034470916387484	108.00448770093128	1.070319548464826	109.68364199976205	0.07482832388011218	-0.41030626703574846	0.48513459091586064	78.14689266171348
13	5.0	perception	51	diff_vonmises	-0.10223199546427937	-5.857461871303783	1.049834782908176	346.4003238180756	1.0339108657493006	348.01228344229355	0.47824414687130457	-0.5274314530606077	1.0056755999319122	85.24689301309871
14	5.0	wm	51	diff_vonmises	0.17160302111974737	9.832128861855855	1.2610244487327948	1.349104140968888	1.377451622678698e-18	2.6352926926339486	0.10720944034898144	-0.377133742285749	0.4843431826347304	118.28510835077816
15	6.0	ltm	51	diff_vonmises	-0.4501238822519679	-25.790198711081384	0.8535861592440478	179.6211592279307	0.8396003786869468	180.76906657962343	0.12216136156160928	-0.3001485280665328	0.4223098896281421	91.28561001986215
16	6.0	perception	51	diff_vonmises	0.07423573829205672	4.253394493172564	1.2124918785288021	2.126531037237793	8.368210314253495e-11	3.564146097456711	0.24388808472735146	-0.4954804994592455	0.7393685841865969	120.18860260075539
17	6.0	wm	51	diff_vonmises	0.1564071789187544	8.961471237592171	0.9217434346720359	2.0802406688486395	6.305459069100672e-19	3.567360640170686	0.11218789864709322	-0.4601508551249502	0.5723387537720435	131.6574739016388
18	7.0	ltm	51	diff_vonmises	-0.03832577045198389	-2.1959048934858743	1.2046280329819112	143.38622689346997	1.1883117714893365	145.01393521037087	-0.1792761861308092	-0.34927940473076546	0.17000321859995626	1.5336314907663677
19	7.0	perception	51	diff_vonmises	-0.0760764592377508	-4.358860034622165	1.303817314704297	1.2862953719788586	3.0787161900525637e-19	3.019726691356271	0.031532290065510726	-0.44285357421107147	0.4743858642765822	116.92044094050046
20	7.0	wm	51	diff_vonmises	0.7057825657039968	40.438362268753735	9.425407701908743	0.23658727375872007	3.039234100925253e-18	1.8429930357101603	-0.0076772232219835534	-0.2933214498582932	0.2856442266363097	44.234228093051144
0	1.0	ltm	52	diff_vonmises	0.006987578987922367	0.40035878502224687	5.292912386387951	0.3184365817062085	7.104076221277883e-19	3.5535888815008203	-0.280992174380154	-0.5655640425474842	0.28457186816733016	59.311332438657246
1	1.0	perception	52	diff_vonmises	-0.09094553474834283	-5.210795306640417	9.802003091832438	0.7855916731284722	0.10023549973904691	4.017327535605322	0.26299153620840543	-0.663358644375991	0.9263501805843964	42.31022331558265
2	1.0	wm	52	diff_vonmises	-0.09667282284340607	-5.5389447425430625	2.771760716580072	0.8647093273263898	0.15040038062848318	3.7747068550110687	-0.1531737462410172	-0.5635535388132399	0.4103797925722227	72.6124474327807
3	2.0	ltm	52	diff_vonmises	-0.02682073981215266	-1.5367151946548478	1.9729974030100763	0.5890546729458019	7.03502007656685e-23	2.378604644565229	-0.07718946602897742	-0.3727397182696125	0.2955502522406351	97.65210259063329
4	2.0	perception	52	diff_vonmises	0.009937689480883355	0.5693876653661702	6.24137380995702	1.5063706202560243	0.3844173269461573	3.231643518233987	0.7401416148856516	-0.5435425075356186	1.28368412242127	50.98863365251438
5	2.0	wm	52	diff_vonmises	0.3245338848600593	18.594421911466004	3.40217491716641	0.6110919915718759	0.04864011693896853	2.076182301542609	0.08294459447160535	-0.32032486697985363	0.403269461451459	71.88879267380827
6	3.0	ltm	52	diff_vonmises	-0.2178538355711715	-12.482105328965133	1.8627395221877432	1.19228665542049	0.3568818629289392	2.491540362872356	0.04012521965817939	-0.29501853319365146	0.33514375285183085	81.16884926458772
7	3.0	perception	52	diff_vonmises	-0.07424416538046405	-4.253877329771888	3.8288369389706585	2.164268262759818	0.3518617986433504	3.3907633560517447	0.8805592775698567	-0.4903295042484164	1.3708887818182731	64.51028759527745
8	3.0	wm	52	diff_vonmises	0.15638568015368184	8.96023944908877	0.864812896848775	152.3755710843015	0.8494434229871032	153.01701205271704	0.24596430001496827	-0.2381254633284815	0.4840897633434498	95.27536412132432
9	4.0	ltm	52	diff_vonmises	-0.3595416564113795	-20.600219471514798	0.8091113301507407	40.929255429469116	0.7387833202535526	43.36001828266205	-0.16006674469201343	-0.48386594228018254	0.3237991975881691	85.60912292555334
10	4.0	perception	52	diff_vonmises	-0.06209100019253845	-3.5575522567784352	1.6113619054079882	4.986842470420477	0.5369290942693578	6.8126402866116855	0.5279004271199181	-0.5823425766594732	1.1102430037793913	85.41998725172556
11	4.0	wm	52	diff_vonmises	-0.3330032787292244	-19.07968243520314	0.7053917597459649	193.74610887042317	0.6927709528937438	196.12880454936942	-0.2086840601574238	-0.4535367906698333	0.24485273051240952	87.14592544969315
12	5.0	ltm	52	diff_vonmises	-0.249846811142842	-14.315167803286995	0.8183284283695987	46.96109093150242	0.757733355487713	48.34116149264643	0.1354718018565162	-0.3592809635864196	0.4947527654429358	94.54353603209209
13	5.0	perception	52	diff_vonmises	-0.09786108294803414	-5.6070270315020245	1.0502294663387695	168.0716031576572	1.0157928365331195	169.5218173345407	0.591613535130918	-0.5323964266720242	1.1240099618029422	86.7530714946034
14	5.0	wm	52	diff_vonmises	-0.1224388360545755	-7.015228554421393	0.4239920767386774	182.8636133179297	0.4125577157742357	183.8129848230464	0.16623667977464152	-0.3485863225896395	0.514823002364281	130.49780767709632
15	6.0	ltm	52	diff_vonmises	-0.4223933872098533	-24.20135838135976	0.7191377882710138	218.77708358747796	0.708541582804882	220.13100443426165	0.054625769552579584	-0.3246517220334688	0.3792774915860484	97.30748468030937
16	6.0	perception	52	diff_vonmises	0.10144601282728823	5.812428383433628	0.3154434763048274	147.96494168685294	0.29814059348442246	149.40570576733307	0.15674377038912013	-0.5037617333364182	0.6605055037255383	142.73930345232853
17	6.0	wm	52	diff_vonmises	0.25400973822499595	14.553685955515126	0.34574463331352506	3.2441339911792895	1.4542324265166048e-27	4.707366031243979	-0.04095115735493737	-0.39448082818031766	0.3535296708253803	159.05253945466126
18	7.0	ltm	52	diff_vonmises	-0.5127213743787963	-29.376770818052048	2.4371701412583717	0.5819958626370011	6.682112549434664e-13	2.333026062926911	-0.033425704348838736	-0.36873085718725057	0.33530515283841184	87.92038892463165
19	7.0	perception	52	diff_vonmises	-0.17447975112884076	-9.996953350175536	0.5498628528608188	258.0388619969048	0.5351529054227392	260.14767795514814	0.17953203042493726	-0.5953709979755821	0.7749030284005194	114.5986504834365
20	7.0	wm	52	diff_vonmises	0.33238045324858445	19.04399716378926	0.9303172359155368	123.18674009155998	0.9056276611574275	124.95706668379837	0.0055010786557900815	-0.3983437275039474	0.4038448061597375	83.45442668349648
0	1.0	ltm	53	diff_vonmises	-1.0865162233241352	-62.252793968966564	0.4436235007308334	47.74531298268322	0.41901832877780826	49.16752380041428	-0.11261283537864486	-0.28319000377367853	0.17057716839503367	112.08524421308238
1	1.0	perception	53	diff_vonmises	-0.09353200136503467	-5.358988927628341	13.847643234474727	0.7543505175013846	0.03216883103888636	2.5068552376751643	0.697206873684348	-0.40426177463410257	1.1014686483184506	36.27050457243229
2	1.0	wm	53	diff_vonmises	-0.016907027205560726	-0.9687013029914917	5.2586466492983375	0.296820020742331	0.06929426151431695	1.538655074109339	0.0022414473755711928	-0.2441259023004071	0.2463673496759783	57.26537424722022
3	2.0	ltm	53	diff_vonmises	-0.16034329117464574	-9.186993857544461	127.36491293432672	0.3594821456011335	1.354639204752839e-67	0.783107602116212	1.4911726811839539	-0.12463544584963634	1.6158081270335902	11.976252163966336
4	2.0	perception	53	diff_vonmises	-0.0038145933252301447	-0.2185600980944619	8.133094517739723	1.5426520662266283	0.6479157162486117	2.1288948158780587	1.1416624780648654	-0.3936050892453158	1.5352675673101812	44.96051507257141
5	2.0	wm	53	diff_vonmises	0.1348541288682482	7.7265724340639395	3.680833720057903	0.34394301570835645	1.1873212635871728e-11	1.1249029417940861	0.07359941952509103	-0.17887339310202527	0.2524728126271163	71.44632508985407
6	3.0	ltm	53	diff_vonmises	-0.14565231584868962	-8.345262974436347	2.1497792025899707	63.315250140857856	2.1268107553637603	63.60202586981823	0.06575912889649516	-0.11253227239905783	0.178291401295553	57.40477696030419
7	3.0	perception	53	diff_vonmises	-0.027780621891374473	-1.5917123866244998	4.101294464325661	3.0895751796539646	1.497275937634685	3.0217776154756852	1.1003911376759914	-0.3273444511692757	1.427735588845267	56.33856783184714
8	3.0	wm	53	diff_vonmises	0.142747981407391	8.17885686865545	1.7653976203879695	114.96372347514654	1.7492167119297308	115.15646061377	0.21563844737850246	-0.12130585421804518	0.33694430159654765	68.03041430961335
9	4.0	ltm	53	diff_vonmises	-0.46709133923442664	-26.762362385246046	16.52648163196902	0.2325160491338565	0.2561089341331505	1.2685093053621819	0.11751657108284658	-0.23517833086642778	0.35269490194927433	32.26646832672489
10	4.0	perception	53	diff_vonmises	-0.06583761209947678	-3.7722173065194626	3.602007394045125	1.769458063485981	0.2211160985421235	2.459281980063236	0.8019041102093867	-0.35381290465322013	1.1557170148626068	68.45286822016013
11	4.0	wm	53	diff_vonmises	-0.1884930635907635	-10.79985701124179	0.8658469808623134	122.97842643533662	0.852727684766087	124.13728886994888	-0.055770603127989204	-0.24008534031241524	0.18431473718442604	82.80673089556707
12	5.0	ltm	53	diff_vonmises	0.03705228813324672	2.1229397313377008	1.5804298802366121	102.87063360836356	1.5544666599730248	103.49619487391897	0.1836796173262556	-0.21967710358697978	0.4033567209132354	68.61387782015206
13	5.0	perception	53	diff_vonmises	-0.11184751416989555	-6.408390510964686	1.6041665710232822	4.65517038534208	0.7011014472172811	5.117761377101623	0.6428616053396652	-0.32489892522918207	0.9677605305688473	85.85092299645459
14	5.0	wm	53	diff_vonmises	0.19288152803926853	11.051297502684335	1.506955610080358	0.9518753788551396	5.553285177640887e-19	1.4332947258498598	0.18534880588830296	-0.2078151009821278	0.3931639068704308	110.09651329658092
15	6.0	ltm	53	diff_vonmises	-0.4515319835678727	-25.870876973609544	0.7512130385037978	78.23933699077735	0.7343156601600466	78.57572055497715	0.1544171982071525	-0.14290060921384207	0.29731780742099456	103.15192893592129
16	6.0	perception	53	diff_vonmises	0.19884591504258442	11.393031705357016	0.21450292483923394	82.87044693867082	0.19227353855857438	83.220845436045	0.2526663098021835	-0.3063153376918457	0.5589816474940292	155.83503366101792
17	6.0	wm	53	diff_vonmises	0.156680667010549	8.977140950999086	0.0007139700025295546	1646.647150969474	1.011892409602566e-26	1647.1058572528593	0.1141395732267938	-0.2600835220849831	0.3742230953117769	179.09318384340116
18	7.0	ltm	53	diff_vonmises	0.08190745005130558	4.692951198618408	1.4490702087710583	117.03615949337504	1.4317212954840473	117.8631993532315	0.011240789462242162	-0.21584998526682853	0.2270907747290707	66.42987755573694
19	7.0	perception	53	diff_vonmises	-0.18956146733484894	-10.861072036593862	2.4399335810495426	0.9228004894131391	1.7318947358024595e-12	1.7391443369584978	0.2593356310944214	-0.2727198385517113	0.5320554696461327	88.03219739827912
20	7.0	wm	53	diff_vonmises	0.6852903980272731	39.264247547803066	13.026636245973814	0.19454212737047638	7.357120664628553e-24	0.8880499880257393	0.13595471506610268	-0.1413375453056513	0.277292260371754	37.5568986268911
0	1.0	ltm	54	diff_vonmises	-0.6022213985771832	-34.504744470938356	0.001684207122418262	419.35460942645204	6.275563833815374e-22	420.7675554227281	-0.11242628664069798	-0.337233747661287	0.22480746102058902	169.82864564850618
1	1.0	perception	54	diff_vonmises	-0.1343897634860343	-7.699966257511102	15.051735653705581	0.6748509118811984	0.085399624271915	2.3156471800907354	0.63467453895404	-0.384723259440866	1.019397798394906	34.604439662799535
2	1.0	wm	54	diff_vonmises	-0.11581978621891105	-6.635984934451058	3.4312155869448198	0.48536310299862984	0.10627683302671949	1.6021344097800334	0.060095296792135044	-0.24371020613268587	0.3038055029248209	69.59590014545864
3	2.0	ltm	54	diff_vonmises	-0.11375977762601029	-6.517955136317161	7.105225859718855	0.30278707451662823	2.1760722931736074e-22	1.0848341338275926	0.14316666389222402	-0.1726565019500129	0.3158231658422369	51.04700151660043
4	2.0	perception	54	diff_vonmises	0.011263487517843639	0.645350297370724	6.48779390945937	1.479291684361198	0.5702718909195336	2.257600562831598	0.8848145462169535	-0.38753083931834414	1.2723453855352977	49.80743548230441
5	2.0	wm	54	diff_vonmises	0.4494641382078864	25.75239816179662	3.5364172369638704	0.41627689887800695	6.753296204990703e-15	1.0410859683810232	0.13337151847966777	-0.16544040563488333	0.2988119241145511	72.90972323356647
6	3.0	ltm	54	diff_vonmises	-0.16284989870163502	-9.330611889736671	1.7915878300137995	88.67212062466866	1.766237833086563	89.21024647000161	0.11200964672536884	-0.18638310777887668	0.2983927545042455	63.160161128159984
7	3.0	perception	54	diff_vonmises	-0.053290100750863933	-3.053297862851443	4.742505927136622	1.8986464649289876	0.5017677114397245	2.437953180134973	0.9981764009797316	-0.36782060376394	1.3659970047436716	58.14196834440136
8	3.0	wm	54	diff_vonmises	0.28316457145675206	16.22413485210251	1.2082232774572508	88.89589662867618	1.1909896178845405	88.92370749266571	0.2725057218805915	-0.10145254661002934	0.37395826849062086	85.63473636944991
9	4.0	ltm	54	diff_vonmises	-0.3987591516675994	-22.84721643277053	8.204474931378316	0.4103231714225197	0.3042707616511944	1.5634273594069044	0.13163469860106258	-0.2759979604762904	0.40763265907735297	44.554054239202486
10	4.0	perception	54	diff_vonmises	-0.07971939159329997	-4.567584683646784	2.0336535254217045	3.3213147524143443	0.4879077962654552	4.539414153952602	0.6208916534649491	-0.4671984741471807	1.0880901276121298	80.89845098479714
11	4.0	wm	54	diff_vonmises	-0.4949110787015647	-28.356316043866585	1.1296918290383744	151.35760580106535	1.1158563213992008	152.4918352565851	-0.02133937924409679	-0.25920103586957666	0.23786165662547987	74.04264215154095
12	5.0	ltm	54	diff_vonmises	-0.14883211857915665	-8.527452250576284	1.3627040070807381	136.6920829776504	1.3448195963961478	137.22020952777294	0.22589346190135728	-0.19943497766338503	0.4253284395647423	75.43094224079681
13	5.0	perception	54	diff_vonmises	-0.10134529736587179	-5.806657812562753	1.435319381906791	5.7910892720926235	0.7120290667606537	6.375658886676592	0.6135848553745349	-0.3476519117911539	0.9612367671656887	88.26347194785149
14	5.0	wm	54	diff_vonmises	0.008536160885689393	0.48908599199465697	1.321250717827327	1.1802311177102958	5.740971174390814e-14	1.3886500454248354	0.2526180046656413	-0.1872929799545292	0.43991098462017053	116.3395430989036
15	6.0	ltm	54	diff_vonmises	-0.42797181047082833	-24.520978490551236	0.7904632612844353	83.89358998671719	0.7699205987005543	84.47773630016607	0.1550743759437765	-0.19363327571608657	0.34870765165986306	98.59430017247786
16	6.0	perception	54	diff_vonmises	0.024637135291845958	1.4116038715155852	0.6090939742167774	106.06656850210506	0.5879567045783056	106.72541334484232	0.2507950290918295	-0.28467415676107244	0.5354691858529019	114.32911585403558
17	6.0	wm	54	diff_vonmises	0.30461288688226384	17.453032803649677	0.00031333835075028193	2816.527627449672	9.514104150861674e-30	2817.13027095057	0.04455131214319863	-0.23635669357440747	0.2809080057176061	177.03845000414316
18	7.0	ltm	54	diff_vonmises	0.030325869079929884	1.7375443083462634	1.3383476962358098	163.1802565297616	1.3197341304131782	164.4424482810344	0.043091629744608895	-0.3244060457750919	0.3674976755197008	69.979797559545
19	7.0	perception	54	diff_vonmises	-0.32886620610133505	-18.842645634085983	0.8419374984458929	133.8822277922659	0.8143307570417876	135.05234515763897	0.34709713787791685	-0.3966316617309804	0.7437287996088973	96.0198892989245
20	7.0	wm	54	diff_vonmises	0.6979441224552837	39.98925255264967	16.936540016066335	0.33414784380853024	0.23021375134840136	1.0316986577950318	0.3404512910377751	-0.18709997725860208	0.5275512682963772	32.32330161346874
0	1.0	ltm	55	diff_vonmises	0.06306104928497255	3.613131975695405	0.1612855166690468	5.396926889611388	1.7556992819733433e-10	9.01109139352028	-0.43141421723796425	-0.7078813774071854	0.2764671601692211	170.6341242470197
1	1.0	perception	55	diff_vonmises	-0.000410196815527893	-0.023502546299454658	6.63779896227146	1.1809495570519468	0.11872580912644137	4.864578275651205	0.32036522252661925	-0.7883941456959592	1.1087593682225785	50.879802209407444
2	1.0	wm	55	diff_vonmises	-0.003121319758599958	-0.17883844867857054	3.264964761608397	0.6810624337140795	0.0656831104405644	4.246916411790792	-0.2530752886674544	-0.657886691605748	0.4048114029382936	70.56465909288562
3	2.0	ltm	55	diff_vonmises	0.06983223037320123	4.0010920743697085	1.836224652723999	0.5014589280536914	5.188304248708498e-18	2.1943973048765817	-0.10361386072524303	-0.3430065661953768	0.23939270547013375	100.97302805107145
4	2.0	perception	55	diff_vonmises	-0.003263011109036684	-0.18695676505210407	6.694068303040419	1.5575818218915403	0.31451419715887435	3.138477423507759	0.9077324011003378	-0.5244424472106746	1.4321748483110124	50.08058371446165
5	2.0	wm	55	diff_vonmises	0.16673645021214448	9.553294888149058	2.493549299335177	1.0185228839613325	0.21322521238340786	2.620931095194183	0.0888720909890206	-0.3653849035939116	0.4542569945829322	76.87533733497645
6	3.0	ltm	55	diff_vonmises	-0.16081921396384155	-9.214262224739475	1.5830223736359235	0.824627147793205	0.27870405146723	1.668874795568857	0.024794918284569367	-0.19281692641402026	0.21761184469858963	89.34279600081342
7	3.0	perception	55	diff_vonmises	-0.0593889010342327	-3.4027333791816634	3.768379773700987	2.0989359046731977	0.38872847706390823	2.701712936639766	0.9507596103712613	-0.3787778494109595	1.329537459782221	65.33593244990016
8	3.0	wm	55	diff_vonmises	0.0183803082673966	1.0531140898712397	1.002498179379521	118.56530930724159	0.9839546867515282	119.10318622686775	0.23399479724062644	-0.20382458768275669	0.4378193849233831	88.7529041184844
9	4.0	ltm	55	diff_vonmises	-0.2547477299974909	-14.595969769394467	2.482503218223099	0.509168807193561	5.25311259260949e-21	2.785708833691824	-0.14452969943206595	-0.4412738684571575	0.29674416902509154	87.26365078674375
10	4.0	perception	55	diff_vonmises	-0.04760546573322914	-2.7275922682686926	3.026307915113199	2.0002215031875625	0.05632657303624688	3.2320330383936824	0.772779240401285	-0.4865834306219857	1.2593626710232706	77.1529730923366
11	4.0	wm	55	diff_vonmises	-0.1443454762952913	-8.27038658352586	0.599491119808332	203.31733257484288	0.5864456220255682	205.72631286937184	-0.13188260882752445	-0.48867466753208433	0.3567920587045599	99.93291621582397
12	5.0	ltm	55	diff_vonmises	-0.18104252998802078	-10.372972880684234	0.6201311856901628	140.14002589146935	0.6045348699119354	141.4981875329893	0.052314345487531	-0.334741248405404	0.387055593892935	105.47827727743142
13	5.0	perception	55	diff_vonmises	-0.09105989433538524	-5.217347628324807	1.8527111927752513	4.053428243728176	0.4878840698347529	5.277057076355955	0.7062161593884662	-0.5046236601402689	1.210839819528735	84.14336426688357
14	5.0	wm	55	diff_vonmises	-0.06308384083182975	-3.614437835138897	0.33531789647283144	179.17818176725856	0.3240825688084027	180.40453302715414	0.10018049078349378	-0.3982686583538495	0.4984491491373433	139.64647830530154
15	6.0	ltm	55	diff_vonmises	-0.48485586873889747	-27.780194950887854	0.5336917794089605	174.43310850223287	0.5230350635908647	175.6023163946237	0.05534733292548566	-0.3075698833367717	0.36291721626225737	114.4443233771212
16	6.0	perception	55	diff_vonmises	0.17375591026158996	9.955480323442977	0.08408770394442808	274.7621750252798	0.074888751655143	275.7903859426611	0.24146751396497734	-0.5372992250661781	0.7787667390311555	169.8876232459647
17	6.0	wm	55	diff_vonmises	0.10495034333347597	6.013211731457129	0.6675477564130147	2.3907374893638322	6.218851430004666e-13	3.7345065292512105	0.07116254940126654	-0.41924283370853066	0.4904053831097972	143.50342599035707
18	7.0	ltm	55	diff_vonmises	-0.5912498610732478	-33.87612167719336	0.6945393921941299	1.4453669052064158	4.432413826422196e-18	2.6860143041176334	-0.017706363538533276	-0.32533045719764103	0.30762409365910776	138.04610936478605
19	7.0	perception	55	diff_vonmises	-0.02538685954410614	-1.454559906968695	0.6552263761297692	252.17347870884615	0.6403123609333206	253.78150051814643	0.27534684229345885	-0.495353492970267	0.7707003352637258	106.78949558819964
20	7.0	wm	55	diff_vonmises	0.13998181194398357	8.020367032984236	0.6305357379575974	67.43325944321707	0.5951074971612038	69.00505624418997	0.036763283166596494	-0.37551524945094084	0.41227853261753733	104.62637254402566
0	1.0	ltm	56	diff_vonmises	-0.2906367765257238	-16.65226066621085	1.7669510218385074	0.49724223575761595	1.6305895710765102e-32	2.8652439789772997	-0.21808729297103133	-0.4490719126667325	0.2309846196957012	102.60540472826186
1	1.0	perception	56	diff_vonmises	-0.06245704752711751	-3.5785252241518286	11.766163997324723	0.7820208978566294	7.149004696857823e-20	3.3790029680894174	0.520195231860054	-0.5377850250298206	1.0579802568898746	39.54254902765999
2	1.0	wm	56	diff_vonmises	-0.11497163607116227	-6.587389510591656	5.231793391695457	0.4034400452993872	0.05284023345241885	2.751190058466565	-0.10297557296179455	-0.43685164409945537	0.3338760711376608	57.413413826321914
3	2.0	ltm	56	diff_vonmises	-0.060795030541247116	-3.4832986653824007	3.4858137777501352	0.4027055449591961	5.161865675071988e-19	1.6026214060371613	0.03191558539774625	-0.2547958281752372	0.28671141357298346	73.47686122378494
4	2.0	perception	56	diff_vonmises	0.005522772315187746	0.3164315448719523	6.535332290636179	1.6149985890631537	0.41566567903502794	2.772887487191929	0.9720562889652732	-0.4673754137414783	1.4394317027067514	50.28851273736717
5	2.0	wm	56	diff_vonmises	0.03361057823225041	1.9257442797022237	2.4757007389624963	0.9551091569619282	0.26789368065740166	2.2879686072251504	0.09209823502184367	-0.31150454118221343	0.4036027762040571	75.75588170281029
6	3.0	ltm	56	diff_vonmises	-0.17721667418884562	-10.153767490365846	1.2535769180542036	154.45243325976935	1.23868329151162	155.35020355732087	0.07513233492537807	-0.2377545982715823	0.31288693319696037	73.89203250152502
7	3.0	perception	56	diff_vonmises	-0.027211035775386336	-1.5590775061091307	3.8293901422170755	2.713729167215899	0.6689545509480127	3.311024636097528	1.1144565937026742	-0.4450664192897408	1.5595230129924151	62.32608519101717
8	3.0	wm	56	diff_vonmises	0.029496612511965555	1.6900314068684037	1.1151067642288524	136.48828984387953	1.095069154773074	137.26187200576115	0.23351720785279184	-0.25439774351986877	0.4879149513726606	82.72082249985309
9	4.0	ltm	56	diff_vonmises	-0.41249144171913493	-23.634018695773	3.2105735834390696	0.44559291942117585	1.241236365605473e-10	2.3216631700385664	-0.06623849258983427	-0.3690107557725746	0.3027722631827403	76.60715140508064
10	4.0	perception	56	diff_vonmises	-0.05970162510351438	-3.4206511485036604	2.492890593624778	2.7727778956087574	0.240241336910306	4.025843032015626	0.8282334205443126	-0.5242896776367473	1.3525230981810599	79.94413845164189
11	4.0	wm	56	diff_vonmises	-0.14379084655829194	-8.238608640403347	0.6464623369534085	220.9222410139252	0.6351230340232458	222.96201570318658	-0.07945207266152465	-0.4251901689646722	0.34573809630314756	97.54258288697952
12	5.0	ltm	56	diff_vonmises	-0.009392887216318934	-0.5381727949374592	0.9871530215120962	54.60735160081142	0.9427542972597802	55.44380531363836	0.18314896624060495	-0.2514558052423874	0.43460477148299237	87.62497121852778
13	5.0	perception	56	diff_vonmises	-0.08857699832430158	-5.075088165919846	1.0345487039615402	217.58243214934492	1.0114914795080892	218.29665533995154	0.7014641392939893	-0.41389338458166236	1.1153575238756517	89.84270522845642
14	5.0	wm	56	diff_vonmises	0.11272652776735925	6.4587542802339675	0.3896483361968098	76.11537856619529	0.3649228136704301	77.01531245802143	0.14387959748833978	-0.33123057152011537	0.47511016900845515	134.97097120210958
15	6.0	ltm	56	diff_vonmises	-0.4792144378750074	-27.45696477197211	0.6710495422675503	121.07493222355943	0.6580052266061407	121.70706490737538	0.12562066640549574	-0.20142340178365892	0.32704406818915466	105.95348871135374
16	6.0	perception	56	diff_vonmises	-0.003567646428374145	-0.20441108314076065	0.37458404949299823	170.2749852166781	0.3609474668694527	170.85723425361837	0.2941348984842449	-0.35467388992667637	0.6488087884109213	138.1650240446717
17	6.0	wm	56	diff_vonmises	0.08989390131125334	5.150541149100353	0.23243183415176144	6.300404522698	4.0195352941911784e-19	7.054761472340569	0.12540543870177667	-0.33865024994852233	0.464055688650299	166.51572521012585
18	7.0	ltm	56	diff_vonmises	-0.19821573363809578	-11.35692497055219	1.0077104040014027	84.33064734577671	0.9843926815897501	85.4474171905029	-0.006210325292503427	-0.25155406260446966	0.24534373731196624	79.51722046927856
19	7.0	perception	56	diff_vonmises	-0.04064823314688264	-2.328972203980152	0.6445430585119734	158.18276149289736	0.623811480823406	159.4972336496055	0.2675379109194509	-0.42998548740143505	0.697523398320886	108.64715080198108
20	7.0	wm	56	diff_vonmises	0.2284305181656537	13.088104602878442	0.7269020910320851	127.43777259697771	0.7132334121226777	128.6898432909996	-0.027176077060715897	-0.2680934060560318	0.24091732899531593	93.12102560219634
0	1.0	ltm	57	diff_vonmises	-0.3700306403732627	-21.201193983911118	1.083180280771999	0.8855501079546453	1.4736033742336875e-13	2.762342010721076	-0.12316165102183196	-0.4033733634818527	0.28021171246002075	124.2662730281521
1	1.0	perception	57	diff_vonmises	-0.07305336079930765	-4.185649253046782	12.099693378580527	0.8544762077150132	0.004462991454521164	2.9105600740096182	0.7076493134484426	-0.46361505181085644	1.1712643652592991	38.94652142348755
2	1.0	wm	57	diff_vonmises	-0.16137408003664583	-9.246053708906159	6.721243645939845	0.3393344478473372	0.04320727029417696	2.1927031200508496	-0.020318923800509148	-0.3503808487481234	0.33006192494761427	51.30644277197817
3	2.0	ltm	57	diff_vonmises	-0.07293286691785542	-4.17874546218242	2.646430798931605	0.7155672417709238	0.19918874073788428	1.8412505917253164	0.08188445315560322	-0.2608365615918468	0.34272101474745004	75.62306169303889
4	2.0	perception	57	diff_vonmises	-0.008058215531683382	-0.4617017403722265	5.942726454697443	1.6154859718098622	0.34164047106875906	2.630249924632729	0.9624274151885889	-0.4266732644783774	1.3891006796669663	53.11868914640391
5	2.0	wm	57	diff_vonmises	-0.005555591768400801	-0.3183119610269874	2.0465405986316707	1.0610088485744797	0.2529227764519939	2.3161493580754238	0.08778960965701404	-0.2975979001004212	0.38538750975743524	82.53450842292708
6	3.0	ltm	57	diff_vonmises	-0.1299558251416564	-7.445920303757026	1.1757946908595758	162.7970956008371	1.1599786689311344	163.72715898442314	0.13207009393057945	-0.25863208820813455	0.390702182138714	77.88552518041504
7	3.0	perception	57	diff_vonmises	-0.03103514945739591	-1.7781830804665126	2.990503614938776	3.554646814369482	0.6930305957034169	4.181728867143843	1.1395013234167555	-0.47769380702899356	1.617195130445749	68.64534719728638
8	3.0	wm	57	diff_vonmises	-0.053603771757231244	-3.0712698876719107	1.0270816024711047	154.36828893829968	1.0088126961621555	155.16810784372151	0.2579975742543681	-0.269416665593873	0.5274142398482411	86.58485936104788
9	4.0	ltm	57	diff_vonmises	-0.3079727651749586	-17.645539649498705	6.162831108075426	0.37092780490106486	2.3516467300418954e-14	2.091901323593644	0.02626950498430286	-0.33293484214510566	0.3592043471294085	54.87799085195206
10	4.0	perception	57	diff_vonmises	-0.10612730610804277	-6.080646731083814	2.125315544590002	3.3391953316159664	0.2458405661121474	4.629454586219876	0.8588368577010331	-0.5681248783132588	1.4269617360142919	85.607025388668
11	4.0	wm	57	diff_vonmises	-0.32627412960657565	-18.694130590761205	0.7830390421224259	211.90478224141077	0.7698603424220499	213.71792653023695	-0.006832182475605464	-0.4000211352504657	0.3931889527748602	90.71221317803465
12	5.0	ltm	57	diff_vonmises	-0.03832229841868548	-2.1957059606315465	0.9874452521194487	53.95359458090489	0.9496371897289959	54.4562740823958	0.2198886941173015	-0.19177376008440117	0.41166245420170267	89.93252574375506
13	5.0	perception	57	diff_vonmises	-0.0897880711519578	-5.144477527627522	1.8403321285621548	3.3230038997299167	0.38727764499817746	3.6128988621078966	0.8138654117970099	-0.3537030858649309	1.1675684976619407	89.13450063789514
14	5.0	wm	57	diff_vonmises	0.03781672766176936	2.1667388900150186	0.408214747929288	119.33909626141634	0.3936696550042641	120.02086372486947	0.1637120626953319	-0.28317595485897584	0.44688801755430774	133.21770045288886
15	6.0	ltm	57	diff_vonmises	-0.4259304245250977	-24.40401569150355	0.5698480929129323	93.07447696125439	0.5572748830861087	93.52582443610348	0.10440231309853232	-0.16278477684620984	0.26718708994474216	115.65365176538768
16	6.0	perception	57	diff_vonmises	-0.03292384155987512	-1.8863971667382613	0.2490517237092826	168.79885728800699	0.23824496542449838	169.11214973766715	0.25846106038116545	-0.2900590496371649	0.5485201100183303	152.15466645262157
17	6.0	wm	57	diff_vonmises	0.0588754618831923	3.3733154827902685	0.0002762203057463885	4013.8786174461065	5.6449429732305335e-36	4014.373884834147	0.0976416221673162	-0.255265759590543	0.3529073817578592	179.8186108029651
18	7.0	ltm	57	diff_vonmises	-0.22292420383314202	-12.772616030953126	0.9928134423295997	76.93448225328576	0.9681107787797887	77.77227903311878	0.0788740560262653	-0.2149894920828448	0.2938635481091101	84.16392100707915
19	7.0	perception	57	diff_vonmises	-0.07478831463981679	-4.2850547857579695	0.7179823250560098	213.8708859243215	0.7017482479375904	214.88529358431674	0.3730293112525871	-0.39609810023747727	0.7691274114900644	104.74616730377922
20	7.0	wm	57	diff_vonmises	0.18496516784089342	10.597723474212096	0.8777766110873569	96.6771721094437	0.8598781739515856	97.6445560813419	0.025178102931810997	-0.22417047910299281	0.2493485820348038	87.08121612506162
0	1.0	ltm	58	diff_vonmises	-0.3937154230936105	-22.55823207247143	1.2389359040287393	0.7802958575452432	8.403030728888308e-16	2.8273120518118837	-0.14855712772372948	-0.4246828668428758	0.27612573911914634	118.44240418482354
1	1.0	perception	58	diff_vonmises	-0.06224713272238105	-3.566497991783116	10.283254851430735	0.8996964249865739	4.028458968670095e-16	3.168198354957754	0.631761229486194	-0.5042344275575693	1.1359956570437633	42.327400155457894
2	1.0	wm	58	diff_vonmises	-0.14333032676065693	-8.212222799616642	6.362534959560839	0.38174961720721323	0.07049480683088173	2.4822440114735946	-0.04744108178479978	-0.3986307836758177	0.35118970189101795	52.027999314881214
3	2.0	ltm	58	diff_vonmises	-0.044503632329935566	-2.5498703055072705	1.8959154963191505	1.0700865862669822	0.364023563675216	2.173830347640297	0.052628549705188155	-0.256606164171992	0.30923471387718016	80.91501928780988
4	2.0	perception	58	diff_vonmises	0.009772022038066158	0.5598956200900199	5.650688676844992	1.7878188278845004	0.4305318834617496	2.7399777016674856	1.013263088743213	-0.4426049605851725	1.4558680493283855	53.83922213881641
5	2.0	wm	58	diff_vonmises	0.02797663517359554	1.6029431204242737	1.7960654177620425	1.4330939235397748	0.3626749328022387	2.7008879389618046	0.09463117320095726	-0.3067360905606449	0.40136726376160214	83.39934752213094
6	3.0	ltm	58	diff_vonmises	-0.12413936866593182	-7.11266189597647	1.194576780255418	160.43410995192096	1.1794572060299608	161.37672378025522	0.09513410328776928	-0.2511206726442836	0.3462547759320529	76.26898097885012
7	3.0	perception	58	diff_vonmises	-0.019645976380579896	-1.1256315310209288	3.469585999806573	2.9577023286523287	0.6212192804240555	3.5350012211284043	1.1495766633747366	-0.4523857262562288	1.6019623896309654	65.45898653446582
8	3.0	wm	58	diff_vonmises	0.023978370770114447	1.3738594447274153	0.9505848523541824	181.54857686052097	0.936117798497982	182.3471371351177	0.23577916189728398	-0.2631816135928844	0.4989607754901684	89.75399094694316
9	4.0	ltm	58	diff_vonmises	-0.44102862330716175	-25.269078759965378	2.5497414345480167	0.6777965284170767	0.09544366474991137	2.5190370697436766	-0.03596557357219948	-0.37402747921753776	0.3380619056453383	79.05558212625517
10	4.0	perception	58	diff_vonmises	-0.06465191329711989	-3.7042817693706964	2.2702776294563725	2.995616688678983	0.1925775454261917	4.165149931239418	0.871276522816413	-0.5413824771680867	1.4126589999844996	84.69603276270462
11	4.0	wm	58	diff_vonmises	-0.23703349618569722	-13.581018934670748	0.7063635401874588	220.68085526034392	0.6931930657410905	222.7287992163214	-0.026147954998577916	-0.44646099827635766	0.42031304327777974	95.22313067815003
12	5.0	ltm	58	diff_vonmises	-0.04458615157867265	-2.5545983101884953	0.9779627175424058	67.91087319848516	0.9477739878222229	68.44081150866502	0.21311228197139442	-0.19535916209739757	0.408471444068792	89.91621514163234
13	5.0	perception	58	diff_vonmises	-0.1005985709336012	-5.763873539542786	1.429710162459721	6.658518103299009	0.7160728374856238	6.916655628039973	0.8122807730637873	-0.35190415810903003	1.1641849311728174	89.99587764334277
14	5.0	wm	58	diff_vonmises	0.1324423827356881	7.588389559411246	0.3512717971403152	125.7292765201548	0.33718221377022484	126.39501866056783	0.17641880179015246	-0.30047186307985463	0.4768906648700071	139.58163013384507
15	6.0	ltm	58	diff_vonmises	-0.4854988405732219	-27.81703452334043	0.6064656998946866	101.53973588099514	0.5954525790168377	101.86855095918327	0.12463800845316086	-0.14148719209680571	0.2661252005499666	113.80510054653931
16	6.0	perception	58	diff_vonmises	-0.050628247229313146	-2.9007848903845472	0.2659326494435553	152.29522499937764	0.2536249871369532	152.5337866066868	0.28322224920735195	-0.28437239566348893	0.5675946448708409	150.51791708233026
17	6.0	wm	58	diff_vonmises	0.08424640767976461	4.826963599189039	0.0010505666072231218	1202.520069378569	3.7902127011112217e-25	1202.946020343494	0.13332447515008994	-0.2688032642737994	0.40212773942388935	179.64432579639856
18	7.0	ltm	58	diff_vonmises	-0.2353101030628037	-13.482275782287077	0.9391913148658577	25.873938490271296	0.8742508668445739	26.75907547480092	0.03856123752298579	-0.2108684790345703	0.24942971655755608	85.92427575987074
19	7.0	perception	58	diff_vonmises	-0.044415204340854636	-2.5448037549421043	0.7605220044837296	214.76681385644673	0.7434314774775992	215.81504566013618	0.39371254022893964	-0.40331464264676953	0.7970271828757092	101.79293265341309
20	7.0	wm	58	diff_vonmises	0.1463840209588275	8.387186589095402	0.8011694820865168	116.00744068523939	0.7861505429932221	117.10715922099678	0.0017061476125519448	-0.24476959470679738	0.24647574231934932	89.99712999385488
0	1.0	ltm	59	diff_vonmises	-0.1490985679118526	-8.542718672793837	2.9116342965540287	0.42849068574580434	1.4162941231142478e-29	2.633657172178852	-0.14329616956335262	-0.4183434238818308	0.2750472543184782	80.55132295196859
1	1.0	perception	59	diff_vonmises	-0.10160068484499428	-5.821290437256957	13.677713083826621	0.6690734516584566	0.023003600752336713	3.0392426120554803	0.4828653253927466	-0.48821992626414856	0.9710852516568952	36.49177142287826
2	1.0	wm	59	diff_vonmises	-0.14227258635368542	-8.151618738476724	3.8886459703495233	0.5323659683088664	0.081258430470738	2.560721580606951	-0.03828590302422663	-0.39863022688984995	0.3603443238656233	65.50596170172292
3	2.0	ltm	59	diff_vonmises	-0.037013723827803574	-2.120730159395955	3.3870599487288824	0.45902156431390045	1.8370963179242534e-21	1.6926820567678127	0.05255093693014801	-0.26903073015868667	0.3215816670888347	74.56146461795143
4	2.0	perception	59	diff_vonmises	0.013826676409242816	0.7922102029427132	6.018250605949111	1.5508497123921212	0.44545341990585513	2.733220987132047	0.8366933021250728	-0.45505543693477785	1.2917487390598505	51.875114015864995
5	2.0	wm	59	diff_vonmises	0.19140623714892308	10.966769561113443	2.9975718629346924	0.6571409160513414	0.13507649887027343	1.7840161966808288	0.10667913090146947	-0.2633347107421888	0.37001384164365825	73.63879374564644
6	3.0	ltm	59	diff_vonmises	-0.1927928617211844	-11.04621729687315	1.2887746615999038	158.36733724521136	1.2714172460578155	159.3920616346951	0.0994086857877079	-0.2776141572728825	0.3770228430605904	73.18779186407954
7	3.0	perception	59	diff_vonmises	-0.04181090594688196	-2.395588448374771	3.98787682525696	2.37863462102282	0.4642852943647529	3.319016385185316	1.0287997970901765	-0.4754398507848529	1.5042396478750295	62.62462115332883
8	3.0	wm	59	diff_vonmises	0.12668815991638974	7.25869687748758	0.9315921512729152	73.73324559187253	0.8994054342200577	74.38136415614265	0.2425373840082905	-0.23433578283904755	0.47687316684733805	92.02145927090476
9	4.0	ltm	59	diff_vonmises	-0.3660757326501454	-20.974594463012803	5.055301036614417	0.4159053475489427	9.384176399313807e-24	2.2039181727855572	0.012001970793065808	-0.35074972623065037	0.3627516970237162	60.716305594325576
10	4.0	perception	59	diff_vonmises	-0.06643844567678062	-3.8066425346887196	1.5688293370823572	6.092820214040384	0.5966284572154734	7.66363604448462	0.6817017263348473	-0.5819577987513664	1.2636595250862137	85.98618154363939
11	4.0	wm	59	diff_vonmises	-0.26724889098119575	-15.312233532774366	0.744845028639562	224.50392376412216	0.7342093843286837	226.317606074182	-0.07221993264062121	-0.37595358992146544	0.3037336572808442	90.31802380833417
12	5.0	ltm	59	diff_vonmises	-0.10029817276500973	-5.746661992309035	0.9925226849968619	138.76166567726358	0.9738674942743859	139.5836166505835	0.21357381483103666	-0.2589680448847158	0.47254185971575247	87.38145572561237
13	5.0	perception	59	diff_vonmises	-0.0797430890347454	-4.568942447026865	0.9947550478986785	284.21979309520646	0.9775325694739617	285.0851666205728	0.6349858942323152	-0.42547542230181534	1.0604613165341306	90.74785045102914
14	5.0	wm	59	diff_vonmises	0.010082326439556056	0.5776747526597241	0.9985547629913575	1.696663466200855	8.960806642003089e-16	2.3943456448778426	0.19821614338869747	-0.3024426261043319	0.5006587694930293	128.6430902610888
15	6.0	ltm	59	diff_vonmises	-0.4555954474215249	-26.10369630262778	0.7388291171524323	152.0752017205579	0.7258302181207908	152.91429989414013	0.13431399641140018	-0.24406975887716342	0.3783837552885636	99.92766320907721
16	6.0	perception	59	diff_vonmises	-0.041263615997604294	-2.364231044111232	0.5873852688756233	193.5408770424072	0.5733921050638174	194.39677818617193	0.2885581387161906	-0.3548607517595297	0.6434188904757203	115.61180162561254
17	6.0	wm	59	diff_vonmises	0.14489790110940928	8.302038193873122	0.1392394363433863	9.194628019647626	5.812754031645272e-14	10.075447691952379	0.07031350352371968	-0.3365422411689094	0.4068557446926291	171.39121612264273
18	7.0	ltm	59	diff_vonmises	-0.12153731977311082	-6.963575476331138	1.1225752608094137	150.73095586171118	1.104240373067495	152.192807833283	-0.011635545552138638	-0.337403561752879	0.32576801620074036	74.92699272210524
19	7.0	perception	59	diff_vonmises	-0.13085281337895813	-7.497313944027294	0.6056340795205025	173.06539212642687	0.5849580847005514	174.6462624483863	0.261596175334887	-0.49915074516026436	0.7607469204951514	111.46874624449237
20	7.0	wm	59	diff_vonmises	0.3751295825079207	21.49334184820845	0.9566114023025346	105.45687062764893	0.9350724129532397	106.7872253983019	-0.006764279808955109	-0.2971438674760094	0.2903795876670543	81.71962164141968
0	1.0	ltm	60	diff_vonmises	0.01491881859168435	0.8547853406248198	7.006460899136575	0.20790190349655935	0.020916215122799585	3.649708862136467	-0.37775549038824224	-0.5828720230980924	0.20511653270985014	50.03080802684997
1	1.0	perception	60	diff_vonmises	-0.054541185455704716	-3.1249797362521896	13.039886472161339	0.7082144982549117	0.09806932781186696	4.2282559975806056	0.2695859038186136	-0.7065359995591207	0.9761219033777343	36.82032491050012
2	1.0	wm	60	diff_vonmises	-0.07083569245853814	-4.05858621676091	4.098341420452668	0.4303812807116441	0.026818216334942545	3.619763511189726	-0.25634497853747046	-0.5707611186014853	0.3144161400640148	65.26217135195506
3	2.0	ltm	60	diff_vonmises	-0.08120583290497119	-4.652751497299435	11.494673327194198	0.2755521354247827	3.171486640246001e-39	2.00673166230501	0.0490195071375204	-0.3193812634766326	0.368400770614153	40.008899325287075
4	2.0	perception	60	diff_vonmises	-0.018888962553852303	-1.08225783371639	8.389502437974793	1.3547621144883273	0.3508362921786385	3.2230326038940946	0.8340858274152743	-0.5697339986193887	1.4038198260346628	44.70155204151695
5	2.0	wm	60	diff_vonmises	0.013318580640554474	0.7630984598084158	3.834496640653907	0.6945150952436316	0.17065227547221426	2.470686672810554	0.05874172136043887	-0.3805862284301338	0.43932794979057266	64.23457052533206
6	3.0	ltm	60	diff_vonmises	-0.28199464871383334	-16.1571032165769	2.6534082097772598	0.7219178247874103	0.3438279228739272	1.7343766948692672	0.06249758488902052	-0.23728173681308296	0.2997793217021035	71.59225401116097
7	3.0	perception	60	diff_vonmises	-0.051776360037461146	-2.9665669086963407	3.6472997566945162	2.970331945284633	0.8031226065369781	3.8131356407366077	1.0107460419159218	-0.494369468271856	1.5051155101877778	61.81775754535886
8	3.0	wm	60	diff_vonmises	0.015978433162227967	0.9154967834275364	1.3925524990592422	43.15060240099645	1.3156885975604358	44.048248293702066	0.23773888662827858	-0.2928181071192162	0.5305569937474948	73.87853772678972
9	4.0	ltm	60	diff_vonmises	-0.0903115144297735	-5.174468618260855	0.693433552816356	142.16175008113848	0.6772659326491389	144.3958281218928	-0.18827345554815622	-0.42693316726072084	0.23865971171256462	88.5769042596396
10	4.0	perception	60	diff_vonmises	-0.09420536755241213	-5.397569968231885	2.647730543375138	2.7553556477582073	0.365304070091547	4.381198712920839	0.7071911864566417	-0.5591520687391712	1.266343255195813	74.6877995102237
11	4.0	wm	60	diff_vonmises	0.049233768434477757	2.82088714081999	0.6389700905551805	92.27445252787899	0.61627557177049	94.4601988481159	-0.1898430390897765	-0.4139325138997396	0.2240894748099631	92.29043328397995
12	5.0	ltm	60	diff_vonmises	0.0679807146530913	3.895008037905284	0.8237569118196777	71.32929743574219	0.7819218877835789	73.14485562483708	0.024819788202758986	-0.4121716543057641	0.43699144250852306	90.14285282923268
13	5.0	perception	60	diff_vonmises	-0.06498786483437394	-3.7235303745762853	0.9894711553834711	320.15490989263174	0.9709418588968765	322.01919536974174	0.4972505921845283	-0.5921760192056631	1.0894266113901914	87.61562598627162
14	5.0	wm	60	diff_vonmises	-0.07587585147765477	-4.347366056631089	1.4813722068021677	1.1440222043726167	2.2486239339915888e-18	2.7860519344508305	0.048374037025299965	-0.4179984755006824	0.4663725125259824	111.02593730959347
15	6.0	ltm	60	diff_vonmises	-0.39279929349413045	-22.50574171293421	0.7589867400395981	226.83729909786527	0.7462593683956933	228.6143041432044	0.029791963766157892	-0.4065258095523525	0.4363177733185104	93.44313905661309
16	6.0	perception	60	diff_vonmises	0.14863053080161803	8.515902121721897	0.9690314339980688	2.677012045136201	1.846674100079734e-18	4.4485192525107635	0.19102490281678408	-0.5785503856970555	0.7695752885138396	129.6715980040969
17	6.0	wm	60	diff_vonmises	0.11086147614137924	6.351894693491301	0.8006851654429818	2.0162281452707855	1.2285635955553678e-14	3.9309568446367176	-0.013160061693960556	-0.5021410237711458	0.4889809620771852	137.1773387950654
18	7.0	ltm	60	diff_vonmises	-0.40087560371020675	-22.96848020235377	1.0145849548687536	149.4773728455386	0.9977576879719258	151.04879092168153	-0.06073308484595685	-0.3401233624376765	0.27939027759171964	77.06992891877906
19	7.0	perception	60	diff_vonmises	-0.0761183246737772	-4.361258747413952	0.35416503131700705	155.82833708039487	0.33902634818356636	157.6994658019411	0.021144774574636926	-0.507881430999074	0.5290262055737109	135.71287475427846
20	7.0	wm	60	diff_vonmises	0.36687078670944917	21.020147705095653	0.7019053278985956	95.47699522643893	0.6809602679844128	97.0736675233397	-0.06754472767514841	-0.3294343906677728	0.2618896629926244	93.34944827365288
0	1.0	ltm	61	diff_vonmises	-0.8760206402375138	-50.1922854519578	0.11178096665226352	3.633460641338421	1.591933015847124e-08	5.8840234177344435	-0.2918115995528544	-0.42095861235227927	0.12914701279942487	154.88351957165497
1	1.0	perception	61	diff_vonmises	-0.07292478586584468	-4.178282452008179	12.616061530386572	0.7321672862424411	0.033648221825003925	3.326391337719514	0.4793797208086039	-0.536425052696844	1.0158047735054478	37.92434746783158
2	1.0	wm	61	diff_vonmises	-0.011277537802164653	-0.646155319363277	4.847924904154223	0.3661494536666581	0.0631802578418914	2.4605552205881884	-0.10445275952978772	-0.38987477480821287	0.28542201527842515	59.12364641216891
3	2.0	ltm	61	diff_vonmises	-0.13680831656080333	-7.838539141223757	49.58529832337334	0.17046433808893677	6.288423128606485e-32	1.1356418273838977	0.29681756374731794	-0.18074301041006027	0.4775605741573782	19.194022677109075
4	2.0	perception	61	diff_vonmises	-0.0009632436428205059	-0.05518979537642193	7.991615061353182	1.5591202618983797	0.5449191577870934	2.6478168484385423	1.0534657125516977	-0.4828605932257174	1.5363263057774152	45.321073441211155
5	2.0	wm	61	diff_vonmises	0.09273217532030362	5.3131622709206106	3.4573094899002386	0.5105536867432937	0.12025226436503351	1.657504721043535	0.06576762350978843	-0.25168456517385773	0.31745218868364616	68.97714060224752
6	3.0	ltm	61	diff_vonmises	-0.1652822637485678	-9.46997614116106	1.6498489732445234	66.64752503889063	1.6267448501101576	67.13048723602896	0.041627916623916406	-0.143975948067661	0.1856038646915774	63.994129939145836
7	3.0	perception	61	diff_vonmises	-0.030248934203052715	-1.7331362646038428	4.378982101739406	2.564040555724463	1.1093592091829045	2.7933597712300604	1.0586048793289	-0.37194819691932657	1.4305530762482266	56.44866478144374
8	3.0	wm	61	diff_vonmises	0.11500276625741643	6.589173138879476	1.5464367326492232	127.55197768610458	1.5293389056292412	127.95447810954101	0.2020398203053091	-0.1662534379535856	0.3682932582588947	70.94236918804157
9	4.0	ltm	61	diff_vonmises	-0.508153133432588	-29.11502989203546	57.533110103500675	0.17938046129904694	0.013272705546593603	1.695412984469764	0.2681274960732363	-0.27279200810775944	0.5409195041809958	17.797679793000043
10	4.0	perception	61	diff_vonmises	-0.05119469167867328	-2.9332397666614947	3.3517956369790047	1.9357788188955682	0.2605518384897276	2.8807354854773934	0.7648240623101964	-0.4053907067394907	1.1702147690496871	69.86838135297299
11	4.0	wm	61	diff_vonmises	0.016178730876161677	0.9269729970820566	0.6949057322414656	169.973348549471	0.6839594047482388	171.67037674661088	-0.1232584439013209	-0.33110063398668643	0.20784219008536553	90.00764076585602
12	5.0	ltm	61	diff_vonmises	0.026867531892022345	1.53939618334602	1.2294932399756229	95.51342791820502	1.1991665407545464	96.59684248884992	0.12327466452227753	-0.2944655801338101	0.4177402446560876	75.67497358692052
13	5.0	perception	61	diff_vonmises	-0.10369811354699947	-5.941464249711457	1.0865179888037917	190.74813861784062	1.0604216983477865	191.72783211517307	0.5888904722104371	-0.4258459575569624	1.0147364297673995	86.30482930756841
14	5.0	wm	61	diff_vonmises	0.1613875272806345	9.246824179232792	1.2855518621259485	1.186531324627283	1.3437284713621574e-18	2.0784306939697554	0.13768668756928548	-0.29497590531075835	0.43266259288004383	117.4361944379267
15	6.0	ltm	61	diff_vonmises	-0.4595671889652333	-26.331260330399047	0.7586247864855432	132.81561746230025	0.7453333912924274	133.51344769808037	0.13239312759630906	-0.21064116437726632	0.3430342919735754	99.19421631795414
16	6.0	perception	61	diff_vonmises	0.17976936161323573	10.30002570619952	0.25421566740358265	72.31625385744188	0.22319467946741905	73.09303944300157	0.24128828010914916	-0.4077840560291328	0.649072336138282	151.54329175376506
17	6.0	wm	61	diff_vonmises	0.1369910609401352	7.84900962288921	0.4632344451697528	3.1655082392324077	6.132621956265743e-15	4.074201593142814	0.1109344406641457	-0.34775873997868895	0.45869318064283465	153.74067774806005
18	7.0	ltm	61	diff_vonmises	-0.03632429194147572	-2.0812286220476257	1.1906171523435813	120.83382050570106	1.17451019491167	121.94255219937637	-0.05469660726607373	-0.24967225084523292	0.1949756435791592	70.33481311441344
19	7.0	perception	61	diff_vonmises	-0.12411753427499074	-7.111410877527307	1.859840972949707	1.0919855504397722	8.199204705350118e-15	2.3009572483053486	0.17285916437916143	-0.353140718599819	0.5259998829789805	100.36279981674483
20	7.0	wm	61	diff_vonmises	0.3578480954053148	20.503185573519364	0.6502375329172192	55.09946756564644	0.6244998187672518	56.17713087815783	-0.02191534861544575	-0.23354439562317264	0.2116290470077269	99.49854828842874
0	1.0	ltm	62	diff_vonmises	-0.0755721783564267	-4.329966868433156	1.657205519160825	0.8543184017063972	3.539825302953586e-21	3.150737303660279	-0.10831347356701454	-0.4871617767531362	0.37884830318612167	105.77876785181324
1	1.0	perception	62	diff_vonmises	-0.07567435098889014	-4.3358209290550525	10.983364694413442	0.7393880753815422	0.008000876941634531	3.188892868912183	0.4541772217304557	-0.5083031022578001	0.9624803239882558	40.85069290317438
2	1.0	wm	62	diff_vonmises	-0.07440464492367854	-4.2630721302962655	2.9502875761389515	0.7579235665564292	0.08706787203717299	2.9193722983500803	-0.014260665151762109	-0.44151092540995074	0.42725026025818863	74.55129796540061
3	2.0	ltm	62	diff_vonmises	0.11766214840218765	6.741544511887315	2.565624499786505	0.48861153970424287	9.085381890011687e-17	1.6447060140326009	0.03060620827838778	-0.2600353404203971	0.2906415486987849	85.86437273681312
4	2.0	perception	62	diff_vonmises	0.024258123794551077	1.3898881123336544	5.298620108261769	1.628415939179434	0.47161964700930875	2.539553010592775	0.842959458002968	-0.4052671497470651	1.2482266077500332	55.00656177754689
5	2.0	wm	62	diff_vonmises	0.20400314849281434	11.688519416018883	2.450548396727701	1.028237073503594	0.3436702328202787	1.9246920431344838	0.17942684934797404	-0.24699740365035788	0.4264242529983319	76.01022304578433
6	3.0	ltm	62	diff_vonmises	-0.21303632993288665	-12.206082588110933	1.2018333690862748	138.6146847176206	1.185523144349585	139.4915924124999	0.08788885346395858	-0.23375017679412835	0.32163903025808693	76.02639014219815
7	3.0	perception	62	diff_vonmises	-0.042314539421749654	-2.424444520906198	4.493188994299843	1.8666972488334355	0.19616238019456175	2.5535459928632274	1.0386505135048767	-0.3854372697008954	1.4240877832057721	62.11359742605106
8	3.0	wm	62	diff_vonmises	0.14303584987461687	8.195350516882392	1.108862460024945	2.6177354975767093	0.3621833409339255	3.03627205858155	0.27618736803665733	-0.2225024644967385	0.4986898325333958	106.35752675001723
9	4.0	ltm	62	diff_vonmises	-0.3414417178371679	-19.563169381766443	1.921620461953901	0.8205149144481979	5.007314317926995e-20	2.326115937599667	0.0429334414563346	-0.3613605920927112	0.4042940335490458	98.68087276743883
10	4.0	perception	62	diff_vonmises	-0.02789719625168433	-1.5983916054696918	1.8464286213859031	4.12275275564819	0.4102644674600014	5.377648473531042	0.7888516428013117	-0.5439500472852178	1.3328016900865296	86.29693653650497
11	4.0	wm	62	diff_vonmises	-0.2134805029064385	-12.23153182486923	0.7259252250487604	232.88675435161963	0.7149568616455185	234.42897710785562	0.0440024253391158	-0.36164355525636793	0.40564598059548373	96.25533262552099
12	5.0	ltm	62	diff_vonmises	-0.1404254567805985	-8.045786009725044	0.8573474830969994	172.92640060978263	0.8442671958599274	173.74871387306726	0.17496384682717547	-0.24911852421364955	0.424082371040825	93.44734401107985
13	5.0	perception	62	diff_vonmises	-0.05636665759441992	-3.229571585419291	0.957058793394888	292.1787457577891	0.9408211163292337	292.95113551725416	0.6457520366735565	-0.4146342493067863	1.0603862859803428	92.89832116812497
14	5.0	wm	62	diff_vonmises	0.02725775718177085	1.5617544455078787	0.34843920992503186	141.7167120866974	0.33455811698235083	142.35521342558542	0.21781086050469511	-0.3232744802316354	0.5410853407363305	140.4679724510496
15	6.0	ltm	62	diff_vonmises	-0.5156067452414027	-29.542090390809417	0.6548203239121374	172.7845117447227	0.6420296404764544	173.64810403962653	0.18375948030738698	-0.2839413647345044	0.46770084504189136	107.57764650004385
16	6.0	perception	62	diff_vonmises	-0.047666775413632054	-2.731105054199076	0.6990640605916584	290.766443019622	0.6876422681258412	291.53780262815894	0.41512120970060096	-0.3682546235486406	0.7833758332492415	107.35467799777403
17	6.0	wm	62	diff_vonmises	0.11152249099963504	6.389768055064797	0.3017380955186481	5.579158882061448	4.0140044401046813e-13	6.409432668568292	0.1537217595172411	-0.3781162736897842	0.5318380332070253	162.56596704572257
18	7.0	ltm	62	diff_vonmises	-0.09701409180964195	-5.558498013987171	0.9271862200482983	105.37835498130606	0.9038213369202837	106.9360015097771	-0.035281929349174845	-0.33781873488098846	0.3025368055318136	82.03827790394135
19	7.0	perception	62	diff_vonmises	-0.05335313317230618	-3.056909354572573	0.5820343900882039	160.90360695435064	0.557345061750716	162.4180861770143	0.35950433155113615	-0.5487099569034157	0.9082142884545519	115.39416373236467
20	7.0	wm	62	diff_vonmises	0.21719262581531196	12.444220800581506	0.7439192109984007	95.28878748364885	0.7206157286102218	96.58268654654572	0.05043318871281599	-0.3084658355955838	0.3588990243083998	95.9460278146883
0	1.0	ltm	63	diff_vonmises	-0.16470247941520427	-9.436756945831524	0.00021033588864501095	4079.0916569377687	3.84086853802015e-30	4080.3612834489454	-0.0655124658103432	-0.3386078452701895	0.2730953794598463	179.21439260763435
1	1.0	perception	63	diff_vonmises	-0.07225097699524699	-4.139676047524454	12.922047633090557	0.8532295222158609	0.12944028221279016	2.3648036324521557	0.7846925040268968	-0.39886397239091564	1.1835564764178126	37.211765676208245
2	1.0	wm	63	diff_vonmises	0.015428180334744954	0.8839696187476195	2.9390377105873724	0.47424520668875875	4.226353949556403e-12	1.4921928845018448	0.0694987211617891	-0.2366302432329844	0.3061289643947735	80.16775025345927
3	2.0	ltm	63	diff_vonmises	-0.13334642615234588	-7.640187431682324	15.801144138044963	0.20548942001259815	2.1592578941558033e-31	0.7681454212936739	0.20086014390933715	-0.12225414081228855	0.32311428472162573	34.080343163306395
4	2.0	perception	63	diff_vonmises	-0.022056693713107527	-1.2637554597737979	8.238546326927347	1.2668412066527268	0.40864203724354403	1.668310078352783	1.043767038940595	-0.2908380412212326	1.3346050801618277	45.700005340834224
5	2.0	wm	63	diff_vonmises	0.06699062601004954	3.8382801373151563	3.3402416124217664	0.5705636362025228	0.2915017759127682	1.0393600255848479	0.18030298336965153	-0.14789248009772799	0.3281954634673795	68.56200653938265
6	3.0	ltm	63	diff_vonmises	-0.22662785158198587	-12.984819415765006	1.921565831850047	51.1071413564605	1.8973019500808914	51.299197963276534	0.10163551954856587	-0.08793556919700762	0.1895710887455735	63.249799273192934
7	3.0	perception	63	diff_vonmises	-0.04772029916069085	-2.7341717390092706	4.571680402198108	1.947748299757164	0.7168784813227301	1.7356230036402167	1.1103594106767358	-0.24002962563208183	1.3503890363088176	58.98372735237456
8	3.0	wm	63	diff_vonmises	0.0006945310078263682	0.03979369548941845	1.6556183164281735	91.7462314268663	1.6367149506349756	91.76150909253668	0.28693365692488015	-0.09806480052681188	0.38499845745169203	73.11359423639138
9	4.0	ltm	63	diff_vonmises	-0.3612136784046942	-20.696019274984785	26.352346771222376	0.18044527369200794	1.1987472214830764e-15	0.822286861166355	0.23675258329866147	-0.1308710185941444	0.36762360189280585	26.35308481574583
10	4.0	perception	63	diff_vonmises	-0.08990240151377657	-5.151028174829941	3.677545744732799	1.8777502349643544	0.08385747319903698	2.4268722672506526	0.959308543142831	-0.36485917556509817	1.3241677187079293	69.90241888099493
11	4.0	wm	63	diff_vonmises	-0.23819051994809476	-13.647311513052474	0.886045384234573	134.79057760841542	0.8748832929060265	135.41610440379608	0.08791175992379863	-0.171123106323412	0.2590348662472106	90.32510102914517
12	5.0	ltm	63	diff_vonmises	0.07921496998013906	4.538683454117483	1.312030838113906	82.11843115280287	1.2883062149602231	82.73410048504608	0.11069798005273412	-0.18274425297596508	0.2934422330286992	74.26933704379374
13	5.0	perception	63	diff_vonmises	-0.03402104108178015	-1.949262068627191	1.658668865671756	3.1609801804980457	0.3965255004620526	3.655484936447274	0.623553963515696	-0.3387215525308825	0.9622755160465786	91.6781453741844
14	5.0	wm	63	diff_vonmises	0.03676058155334215	2.106226175452973	1.399016177771047	0.9777231970926118	1.280575403148261e-17	1.5131298405843328	0.16522999565599195	-0.2160812887018376	0.38131128435782957	113.69102053441028
15	6.0	ltm	63	diff_vonmises	-0.4506191214395968	-25.818573826382007	1.3299688031358503	1.221701579831652	1.0199837473447395e-10	1.9580602140666956	0.18058341817532625	-0.27720255408058814	0.4577859722559144	115.0960325655184
16	6.0	perception	63	diff_vonmises	0.12807721155973292	7.338283674176856	0.6351468743960323	57.29792415416436	0.586408781259579	57.73890908602682	0.41307685206413325	-0.32049494773080944	0.7335717997949427	115.76476555472598
17	6.0	wm	63	diff_vonmises	0.046850028868315144	2.684308924220526	0.17233781502972684	8.421788992694111	1.4783789082483936e-07	9.031589288791617	0.1432797282236149	-0.31756747820690534	0.46084720643052024	170.06492945410065
18	7.0	ltm	63	diff_vonmises	0.03976517034867079	2.2783764325976006	1.1871817193300434	147.18956202272562	1.1727433173518298	148.09504230762258	0.05497318050665001	-0.2300836874716694	0.2850568679783194	75.3743254052514
19	7.0	perception	63	diff_vonmises	-0.1400379848183878	-8.023585501610718	1.4872159386884964	1.5783803092006257	8.608700245410874e-19	2.3605121499610933	0.3044582195087327	-0.34094776026566176	0.6454059797743945	110.79384999263318
20	7.0	wm	63	diff_vonmises	0.24726663308975264	14.167334490452692	0.5597418592459569	53.769294867584605	0.5361406567992381	54.33239780092613	0.09603623219603463	-0.18598120150534392	0.28201743370137855	116.31738035814067
0	1.0	ltm	64	diff_vonmises	-0.150615580300615	-8.629637080138982	4.626685313544365	0.3333224453775795	3.71073010579653e-14	2.3997941943308163	-0.10468303491213093	-0.3819125454247319	0.277229510512601	63.5388448286717
1	1.0	perception	64	diff_vonmises	-0.09521541218669095	-5.455441262895897	16.71391578125727	0.6451201576828852	3.402088463087576e-20	2.888151085319826	0.5838752503972172	-0.4596635216248695	1.0435387720220868	33.1314861291568
2	1.0	wm	64	diff_vonmises	-0.19491647253481542	-11.167891233822552	5.456885509719873	0.4170779046479614	0.11689514992441156	2.425529376275836	-0.05357741534761268	-0.3901444878288977	0.33656707248128503	54.91216845201154
3	2.0	ltm	64	diff_vonmises	-0.10186967927073055	-5.836702682564191	3.9514867532318836	0.530273772370545	1.623287387282532e-15	1.8424803909839083	0.11174953446380398	-0.2930901555677817	0.40483969003158565	68.89145676532596
4	2.0	perception	64	diff_vonmises	0.0036593874669922097	0.20966745746172247	6.040386922974542	1.5891341857987735	0.38553249348895735	2.9616124405584454	0.8548726428889911	-0.49008400020375503	1.3449566430927462	52.08719220853163
5	2.0	wm	64	diff_vonmises	-0.03551795200697225	-2.0350287469477215	2.6773712668048693	0.82980665655892	0.19787823470177593	2.3253716579243	0.06234700445110458	-0.33254432367717907	0.39489132812828365	74.74222650898545
6	3.0	ltm	64	diff_vonmises	-0.16029568600066063	-9.184266281992128	1.289965314015756	252.3884312411953	1.275346370691704	253.71932507558506	0.1496530467958337	-0.3667777515160253	0.516430798311859	73.47526341021629
7	3.0	perception	64	diff_vonmises	-0.019825605907845652	-1.135923544809187	2.935206704127701	4.314332538890975	0.7959236041349348	5.586157743060083	1.0988124985775494	-0.6298834678340632	1.7286959664116126	66.84016974046207
8	3.0	wm	64	diff_vonmises	-0.009407660252848052	-0.5390192275811703	1.6837687454263994	2.397161447503579	0.5129158082155705	3.737033151942472	0.18274795057669202	-0.35560219708598784	0.5383501476626799	82.51578435532741
9	4.0	ltm	64	diff_vonmises	-0.38899264854053717	-22.28763702298854	4.8570075153448515	0.42316892093919517	6.032879920201039e-10	2.5792199488760867	-0.049211826050210794	-0.4104737686706202	0.3612619426204094	61.97467217321942
10	4.0	perception	64	diff_vonmises	-0.1113954868463481	-6.382491253100823	0.9839753344042632	311.110252541699	0.9609912594827406	313.0288834724216	0.7142264347274505	-0.6846724353050071	1.3988988700324576	89.18082137948713
11	4.0	wm	64	diff_vonmises	-0.2811693851583233	-16.109819097860214	0.6860736063926269	197.7537265718455	0.67286721387007	199.9897998256353	-0.12745827366477158	-0.44882281553530845	0.32136454187053687	92.66001067774039
12	5.0	ltm	64	diff_vonmises	-0.017474423025227635	-1.0012106887717716	1.1213990030517131	16.09743548854383	0.9561481663780114	16.735416815274377	0.2885174478137218	-0.24416963314041373	0.5326870809541355	86.88463952433102
13	5.0	perception	64	diff_vonmises	-0.08464861513173295	-4.850008388675535	0.9886165753568251	286.7003451069127	0.9713569424204895	287.37239080089705	0.7116410271741955	-0.4143257867680532	1.1259668139422487	91.99783020145807
14	5.0	wm	64	diff_vonmises	0.03935511811042536	2.2548821699662445	0.9628119518059912	1.8178681499811329	0.045359225973811944	2.664093808946379	0.16491985368922552	-0.3162998700298076	0.4812197237190331	127.05377914133655
15	6.0	ltm	64	diff_vonmises	-0.4239660496561237	-24.291465302129776	0.7644351403038779	106.2447128499951	0.7500898686487207	106.87527801490752	0.10552592140020778	-0.1838462229760509	0.2893721443762587	98.36507736118422
16	6.0	perception	64	diff_vonmises	-0.11479021844169081	-6.576995046093673	0.44943815341741067	186.77258498721883	0.43823010532566986	187.39645024284908	0.2407030759323021	-0.30879556058631863	0.5494986365186207	129.56404525507548
17	6.0	wm	64	diff_vonmises	0.049727531424624466	2.849177676235156	0.0003398483210755664	3306.1334949478805	1.6943797630554292e-26	3306.8207243888387	0.0694625436477736	-0.28818408269603424	0.35764662634380784	179.8515198436204
18	7.0	ltm	64	diff_vonmises	-0.1493370380169367	-8.556382003355198	1.2865262792180017	152.26175494566462	1.2679429998964524	153.47711889454783	0.04032788186598424	-0.3073118970747899	0.34763977894077414	71.4231852465642
19	7.0	perception	64	diff_vonmises	-0.06284393553938132	-3.6006922743987504	0.571204686803383	173.83228397531963	0.5524514835912339	175.3129409878494	0.2345368649334887	-0.4736530793079208	0.7081899442414095	114.69132474725595
20	7.0	wm	64	diff_vonmises	0.21305027652013717	12.206881668699	0.9925278824004019	116.9206310669658	0.9757736698830147	118.25905016145121	-0.08014965676014896	-0.28073219956513285	0.2005825428049839	76.28977586764236
0	1.0	ltm	65	diff_vonmises	-0.32455661963752336	-18.595724518262863	0.0002867274931080814	3223.2300205037	8.605021970904652e-28	3224.6994007002177	-0.08676304733762663	-0.3809341106185684	0.2941710632809418	176.99417475462081
1	1.0	perception	65	diff_vonmises	-0.07586619615587202	-4.346812847443097	9.101913120598033	1.1639501885943266	0.2069485204463171	2.7681632243415453	0.844281273158963	-0.46931596051629976	1.3135972336752628	43.81292584513628
2	1.0	wm	65	diff_vonmises	-0.02615641045069552	-1.4986519260367328	4.13192340757507	0.3883921817942117	4.5749600355033e-16	1.640332492350721	0.04282956009498312	-0.2609886961777845	0.3038182562727676	67.33662470156801
3	2.0	ltm	65	diff_vonmises	-0.11123366975204473	-6.373219816544169	4.694929356068233	0.2893437600010347	3.146193847463672e-14	1.111325693058287	0.06569951847968483	-0.1768527022772029	0.24255222075688773	63.0630710663082
4	2.0	perception	65	diff_vonmises	-0.027078120803225386	-1.5514620391702094	7.665214846987992	1.3451729531673688	0.2659297656757762	1.958296996734169	1.0600399537394063	-0.32622477427603525	1.3862647280154414	47.76370620182942
5	2.0	wm	65	diff_vonmises	0.3303878592569353	18.92982993778464	2.6395707546358604	0.5217124660302578	1.3737594241981724e-18	1.2171519277872156	0.12368886699755993	-0.19209799014567322	0.3157868571432332	84.59825980643254
6	3.0	ltm	65	diff_vonmises	-0.14953749857296975	-8.567867547174737	1.5838494641096696	1.431163564503394	0.8658050614128979	1.76811651116451	0.08161716792124318	-0.10381885989925752	0.1854360278205007	78.16874909345944
7	3.0	perception	65	diff_vonmises	-0.06502320876585402	-3.7255554326814937	3.7064408124777652	2.0631575937258644	0.4842872250567743	2.025530616577602	1.0274071549653	-0.2669828960928428	1.294390051058143	65.9787057565411
8	3.0	wm	65	diff_vonmises	0.007812341231696799	0.4476141806922618	1.2384178091717342	98.66000508724748	1.2238099354512524	98.61636342334546	0.281673426103751	-0.08866545133116599	0.370338877434917	85.62462537013715
9	4.0	ltm	65	diff_vonmises	-0.2316704904646162	-13.273741341348291	6.035502576746753	0.4854611628159425	0.48205797352385465	1.4798932706167423	0.10482634455005413	-0.2602957192522541	0.3651220638023082	49.55317567587463
10	4.0	perception	65	diff_vonmises	-0.10738579124947295	-6.152752618267687	3.355528730969192	1.7635892653282847	3.361485930895477e-16	2.438793857574828	0.8423448076745041	-0.38664809165022435	1.2289928993247285	74.91926605656204
11	4.0	wm	65	diff_vonmises	-0.49996997191286446	-28.646169273881444	1.123465786963903	128.3788888018181	1.1057484054883033	129.36436731843756	0.06871242213961892	-0.24960176022131186	0.3183141823609308	77.95714996335242
12	5.0	ltm	65	diff_vonmises	-0.1453781770452361	-8.329555977997693	1.0031009962974713	83.48214768078354	0.9850358553151461	83.97325779836486	0.11900334901351428	-0.1515262065427212	0.2705295555562355	86.63092041581515
13	5.0	perception	65	diff_vonmises	-0.10175401737535351	-5.830075744108602	2.974771002258522	1.7462868501808662	8.302719163662633e-15	1.92109032982749	0.8324812360639225	-0.3027835339879785	1.1352647700519012	79.67435115589305
14	5.0	wm	65	diff_vonmises	-0.10066452068165904	-5.767652181766452	0.5007495399522315	50.67888021824873	0.4730592348057547	51.00561950165746	0.18275332127043242	-0.1907451991646809	0.37349852043511333	126.02680041709709
15	6.0	ltm	65	diff_vonmises	-0.34442104704775306	-19.733872371313012	0.3089264569096246	66.33635794385978	0.29271131815762497	66.8151265472136	0.09253902672883818	-0.19799273302607112	0.2905317597549093	142.97617577421863
16	6.0	perception	65	diff_vonmises	0.22916563985227753	13.130223972950525	0.040265707990128685	206.97098958258323	0.031593804468823185	207.21359364128313	0.25085183016423684	-0.3178348265393467	0.5686866567035835	174.2649963116169
17	6.0	wm	65	diff_vonmises	0.1989890225082997	11.401231159159314	0.00024813542040375746	3464.2815331132397	2.460283802099524e-29	3464.7562958419066	0.06125562834915854	-0.2123603262718916	0.27361595462105015	178.65060767853777
18	7.0	ltm	65	diff_vonmises	-0.2543161524497307	-14.571242197375202	0.8622746299758876	2.6230685289886257	0.39655244201331924	3.2316696086096406	0.09219011076182282	-0.18540536305795893	0.2775954738197818	109.20060305758618
19	7.0	perception	65	diff_vonmises	-0.18228791519424764	-10.444328196869062	0.8181163604337496	160.79406923468244	0.7982602463353387	161.42761103841093	0.4174795831556395	-0.3145678983250395	0.732047481480679	100.01251619890058
20	7.0	wm	65	diff_vonmises	0.1661688944965861	9.520776341009036	1.526188159604402	0.8926997236601752	0.004104192621716032	1.3388573080895216	0.17677195910488708	-0.19374939178414757	0.37052135088903465	109.32475441585245
0	1.0	ltm	66	diff_vonmises	-0.012657704477248913	-0.7252330448702087	3.391495497039548	0.49787274997731834	6.359047414840393e-33	3.758783063093839	-0.24878521455003172	-0.597832995372003	0.34904778082197124	74.51261798773356
1	1.0	perception	66	diff_vonmises	-0.08005776299947831	-4.586971937128709	8.106389603415462	0.8542676115051359	0.08175784107296027	4.083155659550549	0.2501823010003643	-0.6629886814338333	0.9131709824341976	46.58674381013938
2	1.0	wm	66	diff_vonmises	-0.08961695264132183	-5.134673159171516	2.264531527009855	1.3153428718100195	0.2368974368089907	4.320240561533784	-0.12816860950776532	-0.6022815335032942	0.47411292399552885	76.09153255853289
3	2.0	ltm	66	diff_vonmises	0.06050543202800921	3.466705892820605	1.9229386266353088	0.6067833352705718	1.3846932904094524e-13	2.3811485370989733	-0.07331892965264758	-0.37243964861979884	0.29912071896715126	98.83254661536984
4	2.0	perception	66	diff_vonmises	0.03346950214355283	1.917661215229639	4.973049313550419	1.7525264397735854	0.44847728367598905	3.322559234548492	0.7273557404872598	-0.5293339595941768	1.2566897000814365	55.99899879006688
5	2.0	wm	66	diff_vonmises	0.40069019869512656	22.95785727748912	3.3905687485537164	0.6523414239455706	0.025597951021575777	1.9793080870787856	0.13467706696241089	-0.30817262577194393	0.4428496927343548	73.16511768355522
6	3.0	ltm	66	diff_vonmises	-0.16164416260629688	-9.261528300267212	1.3283546387432006	2.2638254578317762	0.46650819924308357	3.6726813799601903	0.028159071418828563	-0.31976658202492997	0.34792565344375853	87.55461552641961
7	3.0	perception	66	diff_vonmises	-0.07436432907571558	-4.260762202360497	3.793555480082449	1.9735474501704746	0.18712917321162106	3.282745690126819	0.8494056879669931	-0.4857345658014363	1.3351402537684294	66.83287071595797
8	3.0	wm	66	diff_vonmises	0.2822948323978623	16.174302474750448	0.5419707843942668	126.42672258262381	0.5251131389598378	126.97317085880908	0.2628811890667997	-0.28138787592634884	0.5442690649931485	120.90038113028987
9	4.0	ltm	66	diff_vonmises	-0.4212338253053528	-24.134920378147733	0.7601570500157466	152.97451597308	0.7391388746917937	155.47746401914077	-0.11713493327623326	-0.5128550140160719	0.39572008073983866	89.02823649728248
10	4.0	perception	66	diff_vonmises	-0.021953503274791078	-1.2578430831721603	0.9269595231860498	148.446075039084	0.8879705409996868	150.26625369327212	0.5186295145206898	-0.5963123501987191	1.114941864719409	91.44438242127555
11	4.0	wm	66	diff_vonmises	-0.3742789513327615	-21.444604271949572	0.7633837055904008	215.01583254843956	0.7493653919431296	217.53197019653732	-0.16423541472856584	-0.5002531510436263	0.3360177363150605	86.67654055856849
12	5.0	ltm	66	diff_vonmises	-0.3386667557300706	-19.404175764721035	0.7704089045747033	157.21745968071835	0.7526632860371884	158.39659340665415	0.18529474615866093	-0.3381386975554328	0.5234334437140937	97.84914443216618
13	5.0	perception	66	diff_vonmises	-0.10485580156843162	-6.00779488733237	1.0666021032355004	132.41800737361223	1.0238115188404842	133.6182187051168	0.6517915268709729	-0.49852565635950263	1.1503171832304755	87.17874295187366
14	5.0	wm	66	diff_vonmises	-0.10893732895672768	-6.241649180648787	0.3504502879431762	183.87251142753885	0.33929312803151007	184.59899922479474	0.2137429668090931	-0.34273050733817456	0.5564734741472677	139.77166999331055
15	6.0	ltm	66	diff_vonmises	-0.476037018669753	-27.27491206176722	0.6679363839200871	200.7122312639432	0.6576076123114288	201.8399174127593	0.08255850247766716	-0.2912036577775865	0.37376216025525366	102.63912947932572
16	6.0	perception	66	diff_vonmises	0.03498192047068411	2.0043164022324977	0.34349071926993585	200.902156008753	0.3307069120570191	202.1115453669153	0.20342160864729664	-0.4653916249048997	0.6688132335521964	139.86351625540004
17	6.0	wm	66	diff_vonmises	0.3449265447587559	19.762835256707	0.00030756526362988505	3813.057428870146	7.032112717366456e-24	3814.2922329986673	-0.009861240132522653	-0.38316041874918483	0.3732991786166622	176.2622114323591
18	7.0	ltm	66	diff_vonmises	-0.7393088698942806	-42.359278001528764	0.09115315092317562	12.935716536932555	7.175044979824464e-10	14.764162999382888	-0.09920413472594225	-0.4742663633429556	0.3750622286170133	161.01224012087593
19	7.0	perception	66	diff_vonmises	-0.14195093469750783	-8.133189456104356	0.6322026344921565	253.5975623678757	0.6138491792272807	255.7261747487774	0.3119290223634721	-0.6385782053128715	0.9505072276763435	108.38305712984882
20	7.0	wm	66	diff_vonmises	0.2455963968637129	14.071637003910757	0.9447963314420964	99.028060168399	0.9112910279747279	100.79658211796223	0.05642782736317287	-0.41503935455366303	0.4714671819168359	84.37484493445456
0	1.0	ltm	67	diff_vonmises	-0.2987450812458539	-17.116832305680312	0.8100546059313403	0.8700451050296901	2.4659392080979645e-25	3.319282412446832	-0.2624256985221654	-0.47567351116734613	0.21324781264518072	135.997324598853
1	1.0	perception	67	diff_vonmises	-0.06140755922160498	-3.518393973597624	11.508870908782457	0.862391989404864	0.06789651402552589	3.4912919195669985	0.5594750163751903	-0.5705354639934456	1.130010480368636	39.51699478796601
2	1.0	wm	67	diff_vonmises	-0.10753142368014582	-6.161096741905474	5.593701400804068	0.34583665828636095	0.017824772870281717	2.700801345672638	-0.11926380105722562	-0.42864045042841536	0.30937664937118975	56.72143804504651
3	2.0	ltm	67	diff_vonmises	-0.09707205451969525	-5.561819032642365	3.9989706208394113	0.400837430063543	3.9520294793773414e-21	1.7570451162523468	0.028465045224602747	-0.27953881971217454	0.3080038649367773	68.4749885014242
4	2.0	perception	67	diff_vonmises	-0.01668114470370331	-0.9557591889692058	7.370073175952827	1.4452837346668344	0.3095351950119626	2.805012035456858	0.9428024663841301	-0.47504997669139903	1.417852443075529	48.02035908369362
5	2.0	wm	67	diff_vonmises	0.013656088270372386	0.782436222550446	2.79612995555823	0.7707522343072151	0.16177416571902398	2.2435480555768628	0.06779592761153663	-0.3267918202290131	0.39458774784054973	74.5224262228896
6	3.0	ltm	67	diff_vonmises	-0.18855278597910463	-10.803278852036179	1.1234711920008	94.58304406822667	1.1006779325184857	95.46232892457776	0.0859047139448137	-0.23016903975363334	0.31607375369844704	78.85663486467595
7	3.0	perception	67	diff_vonmises	-0.045278412649724056	-2.594261947880947	3.293836797099696	3.1564788182260766	0.7420976918307571	3.744422615445822	1.0838392973719284	-0.45047272641138225	1.5343120237833108	65.54991991650095
8	3.0	wm	67	diff_vonmises	-0.03610660349567795	-2.0687559928546513	1.2120831835828105	177.08190390210956	1.1954865549152265	177.83412395471177	0.25801605140213724	-0.2589822072486463	0.5169982586507835	79.51089122280891
9	4.0	ltm	67	diff_vonmises	-0.2763479749077687	-15.833572639202321	5.080440175648825	0.33833135820993226	0.03146388715256716	2.214828533469188	-0.0678000998851162	-0.3506043746147378	0.2828042747296216	59.04522641852756
10	4.0	perception	67	diff_vonmises	-0.10135732751735158	-5.807347089469448	2.686530455157957	2.5425647143903114	0.20111144136020095	3.8662733264613154	0.8179369878627872	-0.5261957415837417	1.344132729446529	78.06222634608346
11	4.0	wm	67	diff_vonmises	-0.22260205516353312	-12.754158271808782	0.679425005820218	204.884427264515	0.6681071058744771	206.81767324182044	-0.09698762186901888	-0.3931512400362429	0.29616361816722403	93.8343220049542
12	5.0	ltm	67	diff_vonmises	-0.0034019295764861138	-0.1949162069333819	1.4630374851081502	2.0853914550249764	0.48739307559327805	3.0351754066684986	0.14800253701132038	-0.2608211269579189	0.4088236639692393	87.88439705007667
13	5.0	perception	67	diff_vonmises	-0.08175822995283924	-4.68440151675776	1.7311572114580487	4.004070302601202	0.4828766702836542	4.8809304854454565	0.7035341887377609	-0.43696607366889684	1.1405002624066576	87.209678090626
14	5.0	wm	67	diff_vonmises	-0.02534094769924932	-1.45192935202874	1.114784307185986	1.3583610209809072	2.3678331336388314e-13	2.4002992259213958	0.11145738121658066	-0.3289301163827296	0.4403874975993103	123.94910738500585
15	6.0	ltm	67	diff_vonmises	-0.4163752637036404	-23.85654530386529	0.6153539142684795	142.40224743076882	0.6038314947327961	143.27356710848304	0.07882354982599793	-0.238093618483445	0.31691716830944294	107.93167154841467
16	6.0	perception	67	diff_vonmises	0.0848596320172982	4.862098765624419	0.23266125643956811	129.53532304586238	0.21573411396061717	130.27897417420357	0.23803729108250238	-0.4003804948848497	0.6384177859673521	153.6708206728974
17	6.0	wm	67	diff_vonmises	0.07755046200351227	4.443314172090908	0.21846992983835564	5.775897200521996	4.8910544503393266e-17	6.730940009354339	0.058924571214871824	-0.34114043836732866	0.4000650095822005	167.35475846236733
18	7.0	ltm	67	diff_vonmises	-0.31331090939440553	-17.951392783705174	0.8916043312464523	86.78191546537509	0.8702554247743214	87.79307343154227	0.03256562579286992	-0.23661589453623755	0.26918152032910747	86.73160691421232
19	7.0	perception	67	diff_vonmises	-0.07556002757044396	-4.3292706796785785	0.6043830412106382	213.10516950680446	0.5902368196383506	214.39132763995767	0.2312445776684271	-0.41545042080268857	0.6466949984711157	111.59059399858401
20	7.0	wm	67	diff_vonmises	0.2504107505923645	14.347479153645565	0.7551983999951231	105.79944462512456	0.7386448530140521	106.92471682784706	0.00580581696570448	-0.25239194236925044	0.2581977593349549	93.14954694250207
0	1.0	ltm	68	diff_vonmises	-0.6641027378636803	-38.050284042671734	1.6359175450494448	0.6583462524728136	2.158112844856133e-27	2.0609065177215222	-0.027411101736116272	-0.31659994930570085	0.2891888475695846	105.07257710191627
1	1.0	perception	68	diff_vonmises	-0.04587984098603223	-2.6287212532309803	9.133586112351507	1.0740924746251517	1.309376078084449e-14	2.6859189011237974	0.848592978132597	-0.4274772549741621	1.276070233106759	44.93927511452452
2	1.0	wm	68	diff_vonmises	-0.047433543243914786	-2.717741835227597	5.797012193335714	0.32576145172262844	0.0053479314077302205	1.689961450266092	0.035083233778847145	-0.2683886223459294	0.30347185612477656	56.38850245398331
3	2.0	ltm	68	diff_vonmises	-0.1063985726759769	-6.096189160549438	2.346536161552341	0.6884542713646272	0.5309972956602022	1.2801285155195086	0.06756209668609853	-0.15321922265290366	0.2207813193390022	72.17939138505153
4	2.0	perception	68	diff_vonmises	0.0066490211476786685	0.3809608496552186	6.400900850991135	1.727972103733888	0.5309469285667596	1.890011352362016	1.2296260469681388	-0.31138433895322337	1.5410103859213622	51.13173832931312
5	2.0	wm	68	diff_vonmises	0.12880944319050808	7.380237456246254	1.6580252941157954	1.210954537110212	0.3784318300274594	1.8810139176267617	0.13558250447292536	-0.19367791346148758	0.32926041793441296	87.90336352902162
6	3.0	ltm	68	diff_vonmises	-0.11926508914740794	-6.833386251397992	1.534747315528138	58.597288760546775	1.5167801238429364	58.88602108658658	0.05727013047767926	-0.0921728449729784	0.14944297545065766	68.45716786680683
7	3.0	perception	68	diff_vonmises	-0.022798561642487707	-1.3062613610833917	4.9127736527849555	1.8089220871864917	0.5493846469249752	1.556622036752173	1.1553196871166893	-0.22631653408535415	1.3816362212020434	58.172807073210066
8	3.0	wm	68	diff_vonmises	0.07577132586700691	4.341377180289939	1.1805707693678678	89.95036612003877	1.1639832407568125	90.06854886937745	0.2326895731416343	-0.10751187304390708	0.3402014461855414	85.21589836930085
9	4.0	ltm	68	diff_vonmises	-0.38781207773288806	-22.219995298293895	10.289247869559517	0.25812405704465147	4.718918114251989e-14	1.2347194358389981	0.12957567953124702	-0.1965117011684632	0.3260873806997102	42.306916410206924
10	4.0	perception	68	diff_vonmises	-0.04296641658795096	-2.461794331290481	3.3590223017269603	1.9316852634033053	2.7631286993418084e-13	2.24674548720561	0.9908483034816059	-0.3559501789526269	1.3467984824342327	74.88365892006874
11	4.0	wm	68	diff_vonmises	-0.25033864531605227	-14.34334782563225	0.8549355789770574	172.92824569145466	0.8408799207162967	174.08931491232235	0.10219961482999196	-0.29541906339976265	0.3976186782297546	90.64758395612701
12	5.0	ltm	68	diff_vonmises	-4.473215904931716e-05	-0.002562963922033806	1.224389331669928	51.717421199653735	1.1941501261270249	52.05781841778521	0.1597935157795618	-0.131553826171956	0.2913473419515178	80.36179759775985
13	5.0	perception	68	diff_vonmises	-0.11432491813546274	-6.55033530234066	2.4587175200540394	2.0876672164033114	0.1737608178008894	1.8718997473259513	0.8665083148040575	-0.2431795338471483	1.1096878486512058	83.98095554326
14	5.0	wm	68	diff_vonmises	0.24730585373361688	14.1695816678159	0.3905378737496145	113.9021982349475	0.37735841474119663	114.17600154476968	0.21306477062245222	-0.2153306120202032	0.4283953826426554	136.39526583238393
15	6.0	ltm	68	diff_vonmises	-0.5080920038700643	-29.11152742609937	0.4767273078960955	76.35973944291528	0.4647618316295778	76.36988409216073	0.16751523364999343	-0.10664826950334572	0.27416350315333915	128.42280806829183
16	6.0	perception	68	diff_vonmises	0.09996320543492412	5.727469778020365	0.12607259932012388	158.2806018179771	0.11471274844874328	158.11343476655748	0.3320248453748391	-0.24433372136218168	0.5763585667370208	166.0608680774784
17	6.0	wm	68	diff_vonmises	0.12293578292357986	7.043701512657583	0.00044930021663970403	2954.195863301184	7.924624864939325e-29	2954.2531745524902	0.2021519676339949	-0.2203472483090536	0.4224992159430485	179.41080126052373
18	7.0	ltm	68	diff_vonmises	-0.20433876090865277	-11.707748590998614	2.431167477765855	0.31505033627136686	3.2011811382910373e-16	0.8632821328779473	0.045249797755827964	-0.13598324052230887	0.18123303827813683	88.18843449488378
19	7.0	perception	68	diff_vonmises	-0.08827432165995436	-5.057746070495652	2.685062402860821	1.2785887589722127	7.525536645169743e-16	1.7625876310364113	0.5051253013350607	-0.27686846296816103	0.7819937643032218	83.92309213984896
20	7.0	wm	68	diff_vonmises	0.06450797075743983	3.6960344693546348	0.4677067633250951	74.54702905973713	0.4522758974037796	75.1454470362736	0.07122395552383409	-0.1918878675402862	0.2631118230641203	124.84769822938358
0	1.0	ltm	69	diff_vonmises	-0.10738729789315982	-6.152838942592175	2.4267757017487734	0.5939396084491559	5.810451178955397e-27	3.914921016539899	-0.2791112947038471	-0.6203958218896667	0.3412845271858196	88.28484993087952
1	1.0	perception	69	diff_vonmises	0.006060842624694858	0.34726070268800774	5.873209656875297	0.90937366574417	1.4113253536105105e-08	4.373544460626652	0.1625665652013878	-0.6960644100786108	0.8586309752799985	56.24276560277096
2	1.0	wm	69	diff_vonmises	-0.05031796592047016	-2.8830070809260486	2.420154172670206	1.2835695849883562	0.21148680403628764	4.635911770265285	-0.15933096217023057	-0.6637042589433716	0.504373296773141	74.72525234193037
3	2.0	ltm	69	diff_vonmises	0.25174086907776644	14.42368932911143	1.4200496809535053	0.6322227646237654	0.030948142307541688	1.9432305617335173	-0.05399538227048367	-0.28430031579331205	0.23030493352282838	109.11976606346005
4	2.0	perception	69	diff_vonmises	0.0579147936860996	3.318273249584415	4.674018728028161	2.107609896548343	0.6237703380811747	3.2574824419711104	0.8830392906455423	-0.5022689888810691	1.3853082795266114	56.682790228878304
5	2.0	wm	69	diff_vonmises	0.2793426640929504	16.005155690466704	2.392775472909185	1.032005859927737	0.29168358026115965	2.144407584902239	0.1453911477578605	-0.28203578260797574	0.42742693036583623	77.20796324999267
6	3.0	ltm	69	diff_vonmises	-0.18335922825376358	-10.505709913716572	1.0449003522597622	103.35512581124559	1.0264594283951016	104.38417202251934	0.0025610278417076415	-0.23612281092337817	0.2386838387650858	78.33542158884129
7	3.0	perception	69	diff_vonmises	-0.03221076726768201	-1.8455410193163175	5.765402556604735	1.4972952164337954	0.12423359823904494	2.3343893280098116	0.9810893541584244	-0.3669203713712496	1.348009725529674	55.576941585301824
8	3.0	wm	69	diff_vonmises	0.3249714145969687	18.619490518802383	0.5978730467127726	101.89436160932244	0.5794427356805966	102.40352124371509	0.22178928350213667	-0.23724481291777444	0.4590340964199111	115.52341772947202
9	4.0	ltm	69	diff_vonmises	-0.5794987071210361	-33.202830151323155	0.6706050482730677	211.27450005667257	0.655775504450587	213.57517030613843	-0.039301816486606356	-0.4996677664973568	0.4603659500107504	97.65517630087595
10	4.0	perception	69	diff_vonmises	0.07100191237612037	4.068109916509384	1.4895355548471738	6.969723630572624	0.6681149680794088	8.255077624880968	0.7072618150597516	-0.5309683998994891	1.2382302149592408	86.53303396443795
11	4.0	wm	69	diff_vonmises	-0.029787025023868444	-1.706670818118232	1.0985505513419778	2.2761840120234917	0.17261365415319546	4.8924784002910195	-0.098495043798275	-0.5600082764999014	0.46151323270162636	106.41088229095904
12	5.0	ltm	69	diff_vonmises	-0.2272806073044465	-13.022219563715014	0.80562561797436	170.7387102938264	0.7904840563773429	171.8276122510143	0.16504567840382833	-0.30665969196491183	0.47170537036874016	95.3536430396958
13	5.0	perception	69	diff_vonmises	-0.10765943268409371	-6.1684311175713615	1.0619844115937604	273.33441155939875	1.042621048582082	274.2672602760745	0.6699565306176112	-0.4464144944705488	1.11637102508816	87.72757986792047
14	5.0	wm	69	diff_vonmises	0.12390440490071658	7.099199463891134	0.2926654599812556	97.06518803292859	0.2705158929909623	97.78975606653118	0.23420086121826955	-0.3748477214745769	0.6090485826928465	146.94872873607056
15	6.0	ltm	69	diff_vonmises	-0.6167528192356974	-35.33733354500043	0.7091986434760368	176.54835636697652	0.6979744437556976	177.18844893756557	0.1958510848605215	-0.23212172143638377	0.42797280629690526	104.5276112736156
16	6.0	perception	69	diff_vonmises	-0.09505325617275118	-5.446150407674483	0.593431883868513	176.88514902037645	0.5753804541313245	177.68214998185636	0.3954172747482829	-0.39940614671786356	0.7948234214661465	116.47458871247785
17	6.0	wm	69	diff_vonmises	0.15996778860141386	9.165479144901973	0.5593149994659605	3.574299336358992	1.6119762447632878e-23	4.441301082987517	0.21485417436314624	-0.4057062393649468	0.6205604137280931	148.66479583887514
18	7.0	ltm	69	diff_vonmises	-1.03555622466319	-59.333001121702075	0.0001258502804912963	6809.131724908426	7.16685068075473e-30	6810.966350552473	-0.1556029264679637	-0.4283679720242617	0.272765045556298	151.63507498214454
19	7.0	perception	69	diff_vonmises	-0.025329500797757178	-1.451273492884738	2.0006871776930915	2.023307969007906	2.9058787205249623e-11	3.957341398967118	0.41411659526577305	-0.6107337785437655	1.0248503738095387	97.00658604690568
20	7.0	wm	69	diff_vonmises	-0.3537267476810731	-20.267049743014468	0.00029891032233039024	4301.606843341804	7.116592187532941e-31	4303.672300079983	-0.12407400190511453	-0.5333507140803704	0.40927671217525585	176.4366053617504
0	1.0	ltm	70	diff_vonmises	-0.712639925833319	-40.83126006276519	0.00036920315583499884	1698.3964424884648	1.0488482230957085e-25	1699.4289369909295	-0.06451918989802152	-0.26411559500132853	0.199596405103307	166.0052795537046
1	1.0	perception	70	diff_vonmises	-0.11986287368419075	-6.867636782413831	13.427540417346835	0.8283523127625818	0.2580560469914984	2.082117764623722	0.7773381036771283	-0.37518141290182744	1.1525195165789557	36.178144954470895
2	1.0	wm	70	diff_vonmises	-0.07447508720045257	-4.26710817545471	3.730817054081974	0.3307043185547486	1.44498485938678e-14	1.0368452718035548	0.0797042044489237	-0.16487839239194052	0.24458259684086422	70.9550794959103
3	2.0	ltm	70	diff_vonmises	-0.16165045995431102	-9.261889111730548	116.29270233060046	0.3901393138595187	3.665590557077737e-45	0.7197614880698913	1.5600406175350345	-0.11455359867350146	1.6745942162085359	12.536264526764484
4	2.0	perception	70	diff_vonmises	-0.024224810151096017	-1.387979381163476	8.92697282418094	1.2371102812970631	0.5102526082716343	1.8055706902371627	1.0035213170941697	-0.3314245083929153	1.334945825487085	43.525275127623985
5	2.0	wm	70	diff_vonmises	0.44064926448295827	25.247343100417474	3.750152524880054	0.31341842196110586	2.977756505424498e-16	0.7554416656211432	0.11236191939061482	-0.12010366133615182	0.23246558072676665	70.75321890035696
6	3.0	ltm	70	diff_vonmises	-0.1809072837376003	-10.36522384134017	2.3907358925693147	38.33905873007939	2.3497671665989484	38.52239732252504	0.11996823022581182	-0.10171724835090501	0.22168547857671683	56.70557881467565
7	3.0	perception	70	diff_vonmises	-0.06353932246366031	-3.64053501028852	4.375697939780805	2.136738173926904	0.930517660875236	2.135180109074252	1.023297479762516	-0.285126065216981	1.308423544979497	58.20403099166083
8	3.0	wm	70	diff_vonmises	0.159252677129665	9.124506275689374	1.969265997110217	69.66061833149169	1.9512458548592262	69.52110680140285	0.26850353398558724	-0.05264085067418556	0.3211443846597728	69.80232348771392
9	4.0	ltm	70	diff_vonmises	-0.3602292761193847	-20.639617178693516	9.034363603415697	0.3892113112552313	0.7043210006448348	1.1133807645132703	0.14207540184992296	-0.2288461374161667	0.3709215392660896	40.85336599514778
10	4.0	perception	70	diff_vonmises	-0.12005787170532574	-6.878809346038269	3.064661880158194	1.9625757845151326	0.33127636932686455	2.791667533683937	0.6989161255152143	-0.3735766871815989	1.0724928126968132	71.68579535202653
11	4.0	wm	70	diff_vonmises	-0.5604739951644161	-32.112794449756755	1.3446356927687748	81.8465513908407	1.3257596704079746	82.51048443755158	0.012097389354615018	-0.1682007835791186	0.18029817293373362	69.2594185906868
12	5.0	ltm	70	diff_vonmises	-0.061176763149550464	-3.505170332740703	1.6898120923188298	113.57519771774001	1.6696320873660888	114.06485288746383	0.15905843880287307	-0.18163084857495448	0.34068928737782755	66.39925234041038
13	5.0	perception	70	diff_vonmises	-0.09840924312199162	-5.6384342959669445	2.4891154740767636	1.7987373268019786	0.1813247548112326	2.306691734045046	0.620829074621563	-0.3073091143868694	0.9281381890084324	81.99349370441902
14	5.0	wm	70	diff_vonmises	-0.027479128339807965	-1.574438078569329	2.0809692016802233	0.6942093807695818	2.0414169812417464e-17	0.9029567600297157	0.2230802093149336	-0.13799576189088666	0.36107597120582025	95.19851954704455
15	6.0	ltm	70	diff_vonmises	-0.4100579837957924	-23.494591827142806	2.281550488339856	0.6292449482139748	5.3387171145515245e-21	1.2539846435382938	0.15171766271759024	-0.19591333650562406	0.3476309992232143	90.88209826854128
16	6.0	perception	70	diff_vonmises	0.29555986968644676	16.934333126469998	0.5560131945169756	3.0494495794309713	4.0887294333389254e-13	3.6200197245230954	0.20832609371318656	-0.3181380349968075	0.526464128709994	147.84848848351623
17	6.0	wm	70	diff_vonmises	0.29212978097200404	16.737803519776975	0.0002047679223708552	3410.2405383841365	2.8391001255573326e-32	3410.83938536219	0.01583421766702031	-0.2064417527030855	0.22227597037010582	177.26528824402578
18	7.0	ltm	70	diff_vonmises	0.03834152028096332	2.1968072922144484	1.3660995658765862	150.4169588731648	1.3496248500389842	151.28920377214598	0.09128822699980788	-0.24304940743372327	0.33433763443353115	71.11580194925435
19	7.0	perception	70	diff_vonmises	-0.37681179147869326	-21.58972532249276	0.8179344612805488	142.10796190819653	0.7981776802335908	142.89983305172703	0.29593346248258	-0.29613132212616655	0.5920647846087466	98.10357522800956
20	7.0	wm	70	diff_vonmises	0.6950774347985029	39.82500344873388	14.08943062457071	0.293751353728581	9.675419257870232e-14	0.6687478563009459	0.3293852575993637	-0.10643452701214175	0.43581978461150545	36.098569567103056
0	1.0	ltm	71	diff_vonmises	-0.4521310539489914	-25.90520117807894	0.0013445611244492185	559.2441911863541	1.839044929128779e-22	561.3662551657977	-0.21802227711607713	-0.4573712121764544	0.23934893506037724	174.17082268734532
1	1.0	perception	71	diff_vonmises	-0.11538940208350522	-6.611325739922917	11.488258413173671	0.7896265254868493	0.10914606849896218	3.0612513841738993	0.513552013529482	-0.5099217680045278	1.0234737815340098	39.33133774110152
2	1.0	wm	71	diff_vonmises	-0.1054366299251434	-6.0410739007934735	3.253132690082776	0.6086405670167672	0.12713784426462926	2.429630837618912	-0.019999028059930424	-0.36903551500584686	0.34903648694591644	69.67261903316722
3	2.0	ltm	71	diff_vonmises	-0.08368805076773513	-4.794972104667791	3.4949711060943667	0.4136499768030507	2.8053441159178546e-19	1.6845308452743073	0.027139243658791667	-0.26782945254992596	0.29496869620871763	73.37201406542428
4	2.0	perception	71	diff_vonmises	0.006726843135931523	0.3854197211354238	6.253164010694573	1.4966053669609383	0.42622332870449353	2.737557026217573	0.822443089605644	-0.4597147678161057	1.2821578574217498	51.053226528370345
5	2.0	wm	71	diff_vonmises	0.4188076699249953	23.99591191441029	3.5450271698153992	0.4946166964549388	3.096276913610146e-13	1.5305849951712394	0.1122387247463453	-0.24330362871699063	0.35554235346333596	72.82113167364227
6	3.0	ltm	71	diff_vonmises	-0.1785274911980077	-10.228871772704794	1.4624185171960085	3.551139859589912	0.9039199565538623	4.4447146572114375	0.07701314846841711	-0.2316194829950603	0.3086326314634774	76.42379367355986
7	3.0	perception	71	diff_vonmises	-0.07016087984398113	-4.019922301984605	3.997846218979468	2.0591684409476994	0.37470010557746714	2.9143351333882777	0.9311458811238941	-0.4217409519537175	1.3528868330776116	63.45950721808583
8	3.0	wm	71	diff_vonmises	0.20830932805235627	11.93524533060614	0.9138473872409866	141.09086243428573	0.9007337242400665	141.36381805339735	0.2641346909189579	-0.16326978672975123	0.42740447764870915	95.40346966029546
9	4.0	ltm	71	diff_vonmises	-0.3482710116271544	-19.95445909298757	5.364924363452112	0.5107378407131423	0.24303264013016773	2.2399561049782006	0.011837160318022677	-0.3687902353472612	0.38062739566528386	53.69480450351318
10	4.0	perception	71	diff_vonmises	-0.08604649386082681	-4.930100940123725	1.8325540745329085	3.722702646096412	0.45839670421256873	5.2072655278436955	0.576836030153111	-0.5176443128299524	1.0944803429830634	84.18314198612285
11	4.0	wm	71	diff_vonmises	-0.5128125219200728	-29.381993187480184	0.9976837469049807	194.0037528733861	0.9845066028189344	195.69536108037772	-0.08912390301564699	-0.3585502780392922	0.2694263750236452	76.61719942370398
12	5.0	ltm	71	diff_vonmises	-0.22844872405725228	-13.089147723629312	0.9964817835730815	146.31396473868264	0.9797566119262926	147.13463637284224	0.18610765105793092	-0.24870121784113053	0.43480886889906145	86.662557989468
13	5.0	perception	71	diff_vonmises	-0.10895959988897583	-6.2429252110724285	1.924584548652635	3.2331805097962603	0.44695571671482853	4.0839586862644	0.6622044330873286	-0.40785831031204167	1.0700627433993701	84.49365028580246
14	5.0	wm	71	diff_vonmises	-0.09312006604381491	-5.335386772290083	0.48605035383414785	94.22094572965278	0.46744012377631444	94.70421853017324	0.21017676533349317	-0.24745276877745326	0.4576295341109464	126.48676530195219
15	6.0	ltm	71	diff_vonmises	-0.41172310443923266	-23.58999621239204	0.6993822765744547	143.06617430313887	0.687259229165401	143.89758752491102	0.09589949336472614	-0.22845173597643154	0.3243512293411577	101.6465545747168
16	6.0	perception	71	diff_vonmises	0.1132685809954415	6.489811642474523	0.2927097026080852	142.53980235796502	0.2784483730151737	143.40766650807282	0.18319131216565054	-0.3745091659331692	0.5577004780988197	146.06343987578364
17	6.0	wm	71	diff_vonmises	0.3277218940747504	18.777081384516617	0.00018821467742401814	4581.052825628559	2.748988557764729e-32	4581.938950528288	-0.0037989455421438834	-0.27825045677775506	0.2744515112356112	176.6101780363661
18	7.0	ltm	71	diff_vonmises	-0.23353109434629596	-13.380346091114198	0.8774182453354012	91.694025427175	0.85214118127195	93.0137158415991	0.028196677298947037	-0.30360411052126857	0.3318007878202156	87.07044833732677
19	7.0	perception	71	diff_vonmises	-0.2547966079297775	-14.598770268625813	0.7159132052172401	208.00887360704226	0.6974591011336274	209.4793365789445	0.3141023095968052	-0.46853014638637447	0.7826324559831797	102.90422825267383
20	7.0	wm	71	diff_vonmises	0.4048300311603564	23.195052205638024	1.1237487462854259	65.70723742789585	1.0847940817536894	66.73529134859645	0.11123980576545023	-0.27216479735282917	0.3834046031182794	79.42614320758574
0	1.0	ltm	72	diff_vonmises	-0.06660462896876523	-3.8161641359450287	6.414150708530063	0.2541611518210749	9.355659203858488e-30	3.2951641237898732	-0.2730782391011151	-0.5244409839631091	0.251362744861994	53.76863825471352
1	1.0	perception	72	diff_vonmises	-0.09101328352312071	-5.214677025502373	11.224643832424604	0.7596781713670637	0.06964326207178788	3.860096930315903	0.3456320844276556	-0.631694470413709	0.9773265548413645	39.88011341004059
2	1.0	wm	72	diff_vonmises	-0.14337608811053296	-8.214844731829361	4.029836858024872	0.5655188141319842	0.11984841266299485	3.3915038865888576	-0.16976456850745802	-0.5335425054103278	0.36377793690286975	62.27630356895449
3	2.0	ltm	72	diff_vonmises	-0.10198305334101636	-5.843198538297787	2.757024239366539	0.5503266860792289	7.103685956844836e-17	2.3761966476815646	-0.03480682492264453	-0.37679968833541744	0.3419928634127729	82.81066367895107
4	2.0	perception	72	diff_vonmises	0.002319707919261073	0.1329094734767334	6.486537819557359	1.5474873837281014	0.3548048819154964	3.4470817589778475	0.7812687756456147	-0.5814936179193603	1.3627623935649749	50.266544271847465
5	2.0	wm	72	diff_vonmises	0.19267685281596947	11.039570476218401	3.1839234726593624	0.6107294057458728	0.04442012591425943	2.385014057958607	0.017100300802555368	-0.36793901692207776	0.3850393177246331	74.06544628446719
6	3.0	ltm	72	diff_vonmises	-0.17736211126544968	-10.162100421039979	1.2663516311475347	4.529137540391129	0.6948302730321277	6.061311762698	0.053564989274443864	-0.3602353730752781	0.41380036234972195	82.8232409592903
7	3.0	perception	72	diff_vonmises	-0.05746738076648762	-3.2926383775910226	3.1144010279269803	3.2584297775480557	0.5999299583786478	4.675388107435236	0.9384126215714925	-0.5915916727280295	1.530004294299522	67.14501684526138
8	3.0	wm	72	diff_vonmises	0.07315299605508152	4.1913579326933315	0.957049411850356	202.86386178987516	0.9423024290016209	203.93197114268818	0.21483526915422146	-0.3144868326494539	0.5293221018036753	88.04528553244018
9	4.0	ltm	72	diff_vonmises	-0.4041421371210814	-23.15563878043536	0.821808689748834	117.9151380057925	0.7946927932853809	120.66897332823147	-0.22283903215848966	-0.5392823701954725	0.3164433380369829	81.89255332955021
10	4.0	perception	72	diff_vonmises	-0.09744607225691722	-5.583248670448217	1.2575799369675902	11.595888160677994	0.7360112191285734	13.63129287824544	0.5466296221226523	-0.6449252107964112	1.1915548329190635	87.31372867852699
11	4.0	wm	72	diff_vonmises	-0.3581810583721184	-20.522262946251363	0.670061082153086	189.07881119211473	0.6564970484997843	191.8638537043683	-0.2815800716709802	-0.5160485637738539	0.23446849210287368	87.0021116905817
12	5.0	ltm	72	diff_vonmises	-0.15075258291553803	-8.637486751756327	1.246374580831099	3.2944861604886455	0.48222703651153126	4.489149557279936	0.18440871356794863	-0.3334713872122026	0.5178801007801512	93.08742255432333
13	5.0	perception	72	diff_vonmises	-0.10657862180847416	-6.106505215946522	1.1903619901244222	20.26195441506745	0.909759700768038	21.534521746696097	0.656253132812969	-0.5152070540039408	1.1714601868169099	86.8922965479544
14	5.0	wm	72	diff_vonmises	-0.0854445129971835	-4.895609977289323	0.4568916930155716	143.6540976702541	0.4424845292028118	144.68852712051455	0.1393506492029175	-0.34447772408617894	0.48382837328909645	126.34043959984662
15	6.0	ltm	72	diff_vonmises	-0.39307287447510636	-22.521416748499178	0.7443677303801559	155.90554765804663	0.7325362850401014	156.95253504313817	0.04760021779157597	-0.2521674272718215	0.2997676450633975	95.81681631074878
16	6.0	perception	72	diff_vonmises	0.045420303950022806	2.602391720537689	0.1940103002512619	120.69116630136823	0.17718240935224147	121.81483178501763	0.13832892750368941	-0.43940913164758477	0.5777380591512742	157.80570742540374
17	6.0	wm	72	diff_vonmises	0.19387109139537748	11.10799530655018	0.4306651635433809	2.375523448312836	4.808966665124958e-17	3.557471135301817	-0.010661131646191091	-0.33142290141400266	0.32076176976781157	155.0973165461397
18	7.0	ltm	72	diff_vonmises	-0.4659686675531921	-26.698038036132452	1.2364853151821302	2.4885967647726592	0.47710722268171113	3.9402388312620134	0.004855522019604708	-0.3215253122963365	0.3263808343159412	88.51524365994536
19	7.0	perception	72	diff_vonmises	-0.1438989640764692	-8.244803317886333	0.5874443340624163	288.75517158684386	0.575125493843468	290.68117060086223	0.16955768745805244	-0.5326192423904033	0.7021769298484557	110.59502067313713
20	7.0	wm	72	diff_vonmises	0.27371936057008966	15.682964131685736	0.9456095781659342	138.840768414998	0.926480745440608	140.57331674445902	-0.06305556824175085	-0.37014092503119755	0.3070853567894467	80.14808577496217
0	1.0	ltm	73	diff_vonmises	-0.8291596964783753	-47.50735115055925	5.695607047010312	0.3262654749766761	1.20178481467304e-40	0.11354549486718093	0.28501388346831014	-0.01806790220276701	0.30308178567107713	57.13054816567974
1	1.0	perception	73	diff_vonmises	-0.1176695357228896	-6.741967774185446	18.232637745940767	0.7683842943277086	0.31123895292691894	0.5142262210909486	1.19041192681711	-0.09567924398350264	1.2860911708006126	31.51421412407771
2	1.0	wm	73	diff_vonmises	-1.053297967503756	-60.34952810767295	3.0756419904450447	74.1754233712021	3.1154955896891656	73.59657562306192	0.2431866434917076	0.008095886404448277	0.23509075708725932	56.38060930717796
3	2.0	ltm	73	diff_vonmises	-0.15608864652348203	-8.94322067570487	20.969916540326533	0.4548342051575561	20.970933020005532	0.16749578368595977	0.5217201288953008	3.18949785051923e-19	0.5217201288953008	29.55008281102633
4	2.0	perception	73	diff_vonmises	-0.021332340858340206	-1.2222530983173778	8.399281055826595	1.2121828594914894	1.6126873801386215	0.38466194902350626	1.2052085413313829	-0.05811997236003546	1.2633285136914183	45.01698758525461
5	2.0	wm	73	diff_vonmises	0.5779702461913595	33.11525579090204	0.07203686525423156	5.783536655587824	0.00048252890514560357	5.12523428366869	0.1718512745155475	0.04007928242981351	0.13177199208573398	166.64429341349665
6	3.0	ltm	73	diff_vonmises	-1.5156401718176866	-86.83978510563638	2.1248661502846558	93.38223525843595	2.1461409091210677	92.87048999051929	0.1744232998644506	-0.024332575543034807	0.1987558754074854	38.310781599246994
7	3.0	perception	73	diff_vonmises	-0.03112760130554032	-1.7834801811733716	3.0629654725104434	137.3051060717539	3.0205267268490257	136.49017726866873	1.2549956803824784	-0.17142001693753173	1.4264156973200102	57.2713205525306
8	3.0	wm	73	diff_vonmises	0.12097806732947085	6.931532671628189	1.6755743879798706	1.5016544634933575	1.6753252181587888	0.9441727567950042	0.25831688754497806	0.009044857159948213	0.24927203038502985	105.21517966989171
9	4.0	ltm	73	diff_vonmises	-1.3127668459007518	-75.21599975481399	3.7938146619752513	87.60996978117561	3.834192253883185	87.29459580982368	0.20706633180375889	-0.1447112077018886	0.3517775395056475	43.775960542202064
10	4.0	perception	73	diff_vonmises	-0.11999353443531507	-6.875123092001264	3.518942925552536	1.9445061530934682	0.17588644307862747	2.071593285559772	1.0031013962516369	-0.2960362568494748	1.2991376531011116	70.46658353401722
11	4.0	wm	73	diff_vonmises	-0.5509088540836804	-31.564752235383395	2.3048894937137288	22.4023174947675	2.266413541963149	22.252355105206618	0.2088568143133589	-0.02859031560842973	0.23744712992178862	66.29751260067808
12	5.0	ltm	73	diff_vonmises	0.16608367557107198	9.515893656242437	3.157674866874479	6.967302872371865	2.9833453494997317	6.742708628410731	0.29566688526380336	-0.03022542955702856	0.3258923148208319	58.21332180578685
13	5.0	perception	73	diff_vonmises	-0.05252913471734156	-3.0096977207777997	1.9077636782720038	1.7469455697238991	6.746444426610276e-13	1.0597938917993825	0.7071485327127718	-0.14938054095126682	0.8565290736640386	99.20245107231365
14	5.0	wm	73	diff_vonmises	0.141173162743737	8.088626405729643	2.6813617419513047	0.9891631324146615	2.6811452515046224	0.457197008095551	0.3266261349758453	0.0015307026663745598	0.32509543230947074	83.9719463838033
15	6.0	ltm	73	diff_vonmises	-0.41987586019977735	-24.05711470887222	1.2834265101623379	0.938472536455822	8.232559113774558e-27	0.8278458676272132	0.23842283377763013	-0.10333460487335984	0.34175743865098995	116.78865785639215
16	6.0	perception	73	diff_vonmises	0.031491103733425195	1.8043073361339335	0.9934737674821933	89.4892158589063	0.976123906543864	89.15000581407618	0.40846213657704666	-0.09117474173472484	0.4996368783117715	99.07132298113768
17	6.0	wm	73	diff_vonmises	0.048892142768208656	2.8013134319694255	0.00020897893411168773	4251.394426888498	1.3884754005105023e-30	4251.077225739466	0.19189217516202461	-0.09090913890315733	0.28280131406518194	179.8623405483767
18	7.0	ltm	73	diff_vonmises	0.21015641347046296	12.041075529463809	1.9945650614675645	136.74394729671522	1.9731177563528761	137.22682263181585	0.21196872822822854	-0.21162835704553373	0.4235970852737623	61.45589046886849
19	7.0	perception	73	diff_vonmises	-0.3528922232212026	-20.219235013563456	1.2611673037221849	114.92918793618396	1.2382878176144587	114.85984126678261	0.5087714203919091	-0.1611536201545114	0.6699250405464205	84.90661930321971
20	7.0	wm	73	diff_vonmises	0.6968691798930267	39.927662880613354	11.31759237925746	5.176345866352475	11.037812948394045	5.007391213011541	0.30879275997106426	-0.009829879793450458	0.3186226397645147	32.51629717420241
0	1.0	ltm	74	diff_vonmises	-0.4253569450549657	-24.371157738227588	0.07148010763032796	8.774416518897288	6.562891993970809e-07	11.853325724434441	-0.3884657070782127	-0.5880168654689635	0.19955115839075077	171.1511053752406
1	1.0	perception	74	diff_vonmises	-0.052704425397768144	-3.0197411369542198	7.805324477773798	0.9509312070339597	0.07707783211802192	4.210816725949713	0.31898674583221165	-0.680957741356526	0.9999444871887376	47.55682299838449
2	1.0	wm	74	diff_vonmises	-0.05618575949799636	-3.2192068879722706	3.4086242622101777	0.695795528962086	0.1348568107507776	3.6077040481070717	-0.16435900504046852	-0.5565569070608317	0.3921979020203632	66.72718666734079
3	2.0	ltm	74	diff_vonmises	-0.030703920724148792	-1.7592050719979881	2.277607740932838	0.41966147047500213	2.0840695119967238e-17	1.912319068508565	-0.07029202047515412	-0.30189440819941543	0.2316023877242613	91.10698476925822
4	2.0	perception	74	diff_vonmises	0.018379148623462713	1.05304764716809	6.179900253627017	1.7251921301398738	0.45170009483137674	3.250975212393621	0.9003850224161788	-0.5484318391240789	1.4488168615402577	51.0462158528515
5	2.0	wm	74	diff_vonmises	0.3400204577398749	19.481737176601197	3.280197099517102	0.5845508042513182	0.03897842148097016	1.9658315277806986	0.07746682853542747	-0.30385788550776405	0.3813247140431915	73.59955477277524
6	3.0	ltm	74	diff_vonmises	-0.1620256800330185	-9.283387638629053	0.9681831169709559	52.93252785723731	0.9364898461118674	53.87065769772518	0.009256069427294733	-0.21410964630679974	0.22336571573409447	82.21527906668251
7	3.0	perception	74	diff_vonmises	-0.05593893757007245	-3.205065033210948	4.465492682680844	1.8577641663287223	0.3822761938422061	2.6497788401740134	0.9200753796465604	-0.3967907468241845	1.3168661264707449	60.3659162714184
8	3.0	wm	74	diff_vonmises	0.1997595429486062	11.44537872841744	0.9253713749902919	134.2139889001369	0.9112898175198828	134.66557475526258	0.21288137629390036	-0.18025449343098643	0.3931358697248868	92.68529991784928
9	4.0	ltm	74	diff_vonmises	-0.599751948853829	-34.36325542407041	0.9277220796648882	198.33938132260513	0.9113855231658776	200.72171221230664	-0.15752393850088708	-0.48776926911204654	0.33024533061115946	78.36198241387419
10	4.0	perception	74	diff_vonmises	-0.022772467359023538	-1.3047662687714767	2.5578044255727574	2.158028965223273	0.2131414703535548	3.5212314974416867	0.603234169275342	-0.473536774035759	1.076770943311101	79.07818186422202
11	4.0	wm	74	diff_vonmises	-0.3088774976404749	-17.697377001361254	0.7094871222227033	170.9402407569936	0.6941626679105246	173.51255540611618	-0.2297842051209571	-0.488422964815296	0.2586387596943389	86.68717880865819
12	5.0	ltm	74	diff_vonmises	-0.23594545755742838	-13.51867891332374	0.8365291750452302	150.7805209693443	0.8197980984103972	151.9296437487824	0.12831006301968984	-0.3034636252103109	0.43177368823000073	92.50304474123116
13	5.0	perception	74	diff_vonmises	-0.12929375068994153	-7.407986231950326	1.814001200066366	4.455086557364166	0.6099674616287523	5.499586595643149	0.6952830765558056	-0.4619430591157763	1.1572261356715818	82.51138016643915
14	5.0	wm	74	diff_vonmises	-0.0013444732501795209	-0.07703264290352299	0.3920147300880288	95.43284166990081	0.37247064338279506	96.20589712005335	0.1682905252898017	-0.31392515712325597	0.4822156824130577	135.13743738607758
15	6.0	ltm	74	diff_vonmises	-0.4783868125322009	-27.40954533281123	0.6595780268620725	131.4595422436424	0.6478684118729232	132.2323220552764	0.08040133303340724	-0.21174093367102742	0.29214226670443466	104.48012768342228
16	6.0	perception	74	diff_vonmises	0.1877520096185901	10.75739774624485	0.0007008945108701345	2794.5404155527494	1.4764898554482843e-31	2795.4232677738787	0.17127481046759385	-0.45218615834073717	0.623460968808331	178.75902682578499
17	6.0	wm	74	diff_vonmises	0.3147495509745778	18.033820874481076	0.0006382161189831516	1805.6682887702857	2.751957550177805e-23	1806.6858913277706	0.02148395669354386	-0.3453383829964878	0.36682233969003164	176.83232541609382
18	7.0	ltm	74	diff_vonmises	-0.8713609601738164	-49.92530545042669	0.00044451888059828876	2057.1454220077953	8.739090340660926e-23	2058.470888562628	-0.065400863660102	-0.3564758975448399	0.2910750338847379	159.46290440848256
19	7.0	perception	74	diff_vonmises	-0.12546695262842425	-7.18872685397654	0.7457736734004528	57.257944124528244	0.6780813679625878	58.91229285609873	0.2751954815769615	-0.4898290606081641	0.7650245421851256	101.57188827762346
20	7.0	wm	74	diff_vonmises	0.1954917798629504	11.200853915647633	0.729485533709532	59.55301584665586	0.6887120210939894	61.16345980840968	0.008174157649786906	-0.3625192856970001	0.370693443346787	95.75136910396037
0	1.0	ltm	75	diff_vonmises	-0.3354058569804816	-19.217340028950098	0.00044867223025030244	1868.6166258787787	2.814470430146879e-23	1870.0387135599121	-0.09288334991731517	-0.3597512845962001	0.2668679346788849	176.7829010952576
1	1.0	perception	75	diff_vonmises	-0.10318949868640705	-5.912322764801877	12.55181926322935	0.8304251156389351	0.16134015920855518	2.4456307731869553	0.7071445852253524	-0.4187064200762653	1.1258510053016177	37.59588758256041
2	1.0	wm	75	diff_vonmises	-0.09794714080462885	-5.611957783478843	3.6072236112929246	0.42714538569091587	1.4030897945237119e-14	1.575320449857113	0.059529987883251756	-0.250491692833478	0.31002168071672975	72.19532041821236
3	2.0	ltm	75	diff_vonmises	-0.08885140469027251	-5.090810492561503	7.342788112756591	0.3066187435637005	4.37058920584911e-25	1.1038741200685271	0.14973344930211474	-0.17568688643114946	0.32542033573326423	50.19285445723557
4	2.0	perception	75	diff_vonmises	-0.016023349595044832	-0.9180703054587256	7.266136137598029	1.2970039718865314	0.3748217309144094	2.041604929034215	0.9125314449458768	-0.3471196253158819	1.2596510702617587	48.32013422280525
5	2.0	wm	75	diff_vonmises	0.2813205275596427	16.118478919561287	3.305436674397925	0.4387622498581199	3.591392172708345e-12	1.0784332830218306	0.13192697749174073	-0.17122948787244932	0.30315646536419005	75.48722576265916
6	3.0	ltm	75	diff_vonmises	-0.20180241901215681	-11.56242690492719	1.56794112819504	53.72523452400296	1.5331011103945034	54.1635605708475	0.1315382645010068	-0.154148304069591	0.2856865685705978	69.08589060175586
7	3.0	perception	75	diff_vonmises	-0.061290004097339125	-3.5116585611170548	4.056018338275356	2.117186183824747	0.4967060322633718	2.4056233339832365	1.0478990858165775	-0.33620315491298347	1.3841022407295611	62.749022509776154
8	3.0	wm	75	diff_vonmises	0.05068302976604581	2.903923698530349	1.284163982624128	147.04564515250794	1.272315423348971	147.10459465466337	0.2947404761654582	-0.1139284930399338	0.408668969205392	82.58712242917295
9	4.0	ltm	75	diff_vonmises	-0.34140749271307	-19.56120842660232	16.62726702176218	0.24753822095971184	0.05508240430812866	1.2353329620932048	0.1917901378610109	-0.20256353989530504	0.3943536777563159	32.97088729407423
10	4.0	perception	75	diff_vonmises	-0.11131130314948559	-6.377667882566793	2.5802000846368798	2.5140688043946544	0.27736532657022916	3.5616929033462146	0.7754139336180432	-0.45903703451805566	1.234450968136099	78.11564137733106
11	4.0	wm	75	diff_vonmises	-0.40956937691871476	-23.46659671524519	1.0018255470751327	134.89203550908164	0.9880479488146436	135.8165666920692	0.03787677191597538	-0.22142101982581508	0.25929779174179046	81.72087786603977
12	5.0	ltm	75	diff_vonmises	-0.07917109031334425	-4.5361693344037	1.1901092805571618	118.99192202732989	1.172989781059951	119.55783195010365	0.16554878125504047	-0.18510188659959326	0.3506506678546337	79.75954179790949
13	5.0	perception	75	diff_vonmises	-0.06738504236098064	-3.860878529594459	1.9240604076493415	2.644858384446895	0.3104172569362	3.2047976355596166	0.6535774486218745	-0.3522870861567909	1.0058645347786654	88.4423252066772
14	5.0	wm	75	diff_vonmises	-0.08003129872282702	-4.585455645768724	1.335836822593614	1.1064061896735913	9.254533732029822e-19	1.5136023139966703	0.20602974420973147	-0.20999619485818433	0.4160259390679158	115.80981719843352
15	6.0	ltm	75	diff_vonmises	-0.40683903487629797	-23.310159639587578	1.131775624173637	1.6771347917276953	0.21920436852098973	2.459132625925364	0.13311216204575982	-0.24669086363703313	0.37980302568279295	108.86617380862712
16	6.0	perception	75	diff_vonmises	0.10564497154127266	6.053010996094615	0.5262075687809561	71.0875486081719	0.49298428092796454	71.71314885667717	0.288517923064294	-0.3214095631700884	0.6099274862343824	123.34219014132505
17	6.0	wm	75	diff_vonmises	0.15660691027418827	8.972915001294957	0.000292538571437651	3413.6608172931724	1.1131828149170766e-28	3414.363738644744	0.047074693544573165	-0.2707982614423372	0.31787295498691037	179.11769939698115
18	7.0	ltm	75	diff_vonmises	-0.048356484256150294	-2.770622459968224	1.1458996479007952	166.66288947513195	1.1310345607093808	167.69681099063587	0.0828338259460395	-0.2663356248355768	0.3491694507816163	77.39936870483339
19	7.0	perception	75	diff_vonmises	-0.23732006077039788	-13.597437875932014	0.6957546573873612	156.4890745188022	0.6751974123175442	157.4860992854299	0.3337105816422863	-0.37950772963324475	0.713218311275531	106.2789845407903
20	7.0	wm	75	diff_vonmises	0.39994256014887397	22.915020744187547	1.017196177820176	39.941311540199266	0.970937750891951	40.556024022730035	0.14301790743262188	-0.18752520658000194	0.3305431140126238	86.48549481725584
0	1.0	ltm	76	diff_vonmises	-0.41202365023360926	-23.607216217960225	1.369388292574436	0.7138935356526532	1.8284431581332013e-15	2.882759189678256	-0.16611789413138622	-0.43988208945927715	0.2737641953278909	113.96408394109777
1	1.0	perception	76	diff_vonmises	-0.05080594090426758	-2.9109659880056054	8.966072175186705	0.9446797795217297	8.24780474782847e-20	3.369094402232092	0.5756527572666212	-0.5362080097355392	1.1118607670021605	45.35836970410995
2	1.0	wm	76	diff_vonmises	-0.1318111633557055	-7.552223352991379	6.131053830953289	0.41400400785606356	0.08703628887216311	2.696976509886071	-0.06757713485385863	-0.43433976354107295	0.3667626286872143	52.55104188098926
3	2.0	ltm	76	diff_vonmises	-0.020334343101077085	-1.1650720388626794	1.3521812741700185	2.138888141550302	0.5683192099421979	3.21519107780839	0.035759662363261446	-0.25033600307510223	0.2860956654383637	84.42008739427547
4	2.0	perception	76	diff_vonmises	0.021506439484861833	1.2322282148360915	5.446166196942777	1.9255129453228175	0.49707522396279513	2.8337325297630622	1.0495213869716251	-0.4545665836032555	1.5040879705748806	54.34637935629266
5	2.0	wm	76	diff_vonmises	0.04754988502852008	2.7244077284665007	1.6361650440587365	1.816543089850981	0.4467902911600746	3.084483708691757	0.09895499806409402	-0.3109078109438936	0.4098628090079876	83.86723446376178
6	3.0	ltm	76	diff_vonmises	-0.12285897067389302	-7.039300494935622	1.2072211621078364	150.00824028550358	1.1918243925510064	150.94823424510844	0.07170521260814411	-0.24420572582392808	0.3159109384320722	75.18801255638348
7	3.0	perception	76	diff_vonmises	-0.012713976098765227	-0.728457171289451	3.8483690549275917	2.643077942180397	0.5770770084087612	3.1860905975631844	1.157263563963869	-0.4340830637647741	1.5913466277286432	63.13800412670713
8	3.0	wm	76	diff_vonmises	0.08022693715590529	4.596664902294661	0.9005593541333711	137.61343925903708	0.8824880346351656	138.40307326241089	0.22160464434114857	-0.258204618552897	0.4798092628940456	92.23194271826023
9	4.0	ltm	76	diff_vonmises	-0.5841815334540608	-33.47113633639819	0.7483749207306872	133.23528056456612	0.728302307826775	135.16532702735225	-0.04924258459886488	-0.4102594044338126	0.3610168198349477	91.60480436458458
10	4.0	perception	76	diff_vonmises	-0.03542613312229834	-2.029767912376308	2.3227638882096593	2.9096864366511555	0.18712454713381257	3.99531683339148	0.8818956210422798	-0.5238547465900034	1.4057503676322831	84.06740865096398
11	4.0	wm	76	diff_vonmises	-0.16939536730721075	-9.70563961577154	0.6509733031727377	236.75591270095555	0.6383526056563932	238.97994496049577	-0.03909268715045755	-0.4840429792683878	0.44495029211793025	99.10733730549285
12	5.0	ltm	76	diff_vonmises	-0.04875631088951159	-2.7935308385967503	0.9731752840420672	75.07580749532028	0.9458796247757129	75.62153012991212	0.20801659288610708	-0.19698467546703124	0.4050012683531383	89.88366656009225
13	5.0	perception	76	diff_vonmises	-0.10831821540127727	-6.20617658688214	1.090542956835853	117.41576331144032	1.049850449515976	117.6523731543871	0.8145127032721646	-0.3491853970526382	1.1636981003248028	89.92260767479328
14	5.0	wm	76	diff_vonmises	0.18980364041793155	10.874947532166166	0.3260253913773477	149.266225273891	0.3138453411891879	149.92047110211433	0.18801908834984005	-0.31144830676173996	0.49946739511158	142.2082683487651
15	6.0	ltm	76	diff_vonmises	-0.528319993534737	-30.27050586191937	0.6345350367577546	88.25500504840015	0.6223133387264946	88.49823424506486	0.1390482739187	-0.12697913787814663	0.26602741179684664	112.66033232031327
16	6.0	perception	76	diff_vonmises	-0.06412166226955655	-3.673900623408842	0.28194868995250827	146.9822209872482	0.2689432049701729	147.166982385203	0.30177075334872683	-0.2796593850231446	0.5814301383718714	148.92464156466843
17	6.0	wm	76	diff_vonmises	0.09784801301639107	5.606278179580352	0.0701971745688337	19.647720468304847	1.5537170201893953e-09	20.02127588149096	0.16380944338924808	-0.2750176349189135	0.4388270783081616	175.62798727812242
18	7.0	ltm	76	diff_vonmises	-1.0564458818761435	-60.529890315479335	0.00011488695844699912	6471.627752086949	3.382610881519763e-30	6472.546338269469	-0.027865520594559712	-0.26452274609187043	0.23665722549731072	150.56693666774538
19	7.0	perception	76	diff_vonmises	-0.025279735305710788	-1.448422140225088	0.7946772337844988	196.10817727037124	0.7751587901197121	197.18058948154427	0.4103965790616968	-0.409286310026598	0.8196828890882948	99.65798521316455
20	7.0	wm	76	diff_vonmises	0.11549120072105072	6.6171583722144565	0.7501231480535847	127.75912945789075	0.7364405356078563	128.95428042330644	-0.014743685013542063	-0.26000207749411963	0.24525839248057757	92.2559413718626
0	1.0	ltm	77	diff_vonmises	-0.12816419566044665	-7.343267496032493	6.544576368509	0.19772779956558942	2.3731138017110396e-32	3.325396560299419	-0.3316473865057453	-0.5292528916590061	0.1976055051532608	53.22336395671465
1	1.0	perception	77	diff_vonmises	-0.070559450215616	-4.042758702118243	10.65911256961232	0.7395832822613353	0.04521255389109691	4.031447855999079	0.280516592008358	-0.6517730053448122	0.9322895973531702	41.070381801483705
2	1.0	wm	77	diff_vonmises	-0.08173346707145664	-4.682982708165953	3.8293543125270455	0.568886241173588	0.10066825637377931	3.5222665722587143	-0.19133775910141776	-0.5512745216152821	0.35993676251386436	64.24882928020759
3	2.0	ltm	77	diff_vonmises	-0.07388665710648541	-4.233393614531905	2.877902012055645	0.4137965201850954	3.7193242609966724e-31	1.9360902742085229	-0.04349121661097094	-0.30730085829610015	0.2638096416851292	81.03049523915837
4	2.0	perception	77	diff_vonmises	0.009403709180070352	0.5387928477864591	6.913608474986158	1.5868207825848337	0.4353966018869085	3.222471849204705	0.8753690229208904	-0.5588852529560123	1.4342542758769028	48.53279771559875
5	2.0	wm	77	diff_vonmises	0.1752573368528374	10.041505730370169	3.076724219905033	0.6705147462815305	0.1285280821147382	2.189448226534445	0.05088978688018625	-0.3275144920060683	0.37840427888625455	72.22309670485521
6	3.0	ltm	77	diff_vonmises	-0.19955038089760016	-11.433394625660494	1.122421880041716	90.49054331672096	1.0983455444269785	91.55148304384858	0.025185328278141128	-0.25405351612398697	0.2792388444021281	76.47664868347266
7	3.0	perception	77	diff_vonmises	-0.043061689045330705	-2.4672530410021807	4.208167799074267	2.330243449025816	0.5996568305971413	3.2363210216737173	0.982323816977514	-0.4695583599993086	1.4518821769768226	59.93229283814023
8	3.0	wm	77	diff_vonmises	0.11694344656734963	6.700365930022788	1.1247541174941442	180.74216699542595	1.1105798868013987	181.47733430732114	0.21208435780266655	-0.23851074397916605	0.4505951017818326	82.07371519405373
9	4.0	ltm	77	diff_vonmises	-0.503362439499626	-28.84054334873781	0.768544419170916	166.04414087878894	0.752177769978888	168.42469238448197	-0.18222622028735458	-0.4651802777861036	0.282954057498749	85.05257522967045
10	4.0	perception	77	diff_vonmises	-0.04268595980829815	-2.4457253414805447	2.355208352367575	2.7967011289003927	0.3545891940799678	4.343514153963963	0.6358958174666568	-0.5299336110860648	1.1658294285527218	78.55545255697717
11	4.0	wm	77	diff_vonmises	-0.06297106854053913	-3.6079764588019247	0.5688561457384317	123.86319836043009	0.551391342587953	126.3795213371217	-0.2374723126065419	-0.46883612744244907	0.23136381483590718	96.49755470344431
12	5.0	ltm	77	diff_vonmises	-0.09382300053453492	-5.375661951882518	0.9132813908889711	53.75462793232086	0.8594844843823134	55.11038545584581	0.12400200864531641	-0.34598203890618784	0.46998404755150425	88.67302199031653
13	5.0	perception	77	diff_vonmises	-0.10621152449111905	-6.085472088991501	1.064470036507085	281.03414042246555	1.0442643928733744	282.36910998335253	0.6012941265773435	-0.5093707179344911	1.1106648445118346	86.16959440623162
14	5.0	wm	77	diff_vonmises	0.0314951561981202	1.8045395252575829	1.0193612703007229	1.6422926964377353	5.359710044114014e-17	2.717934590210089	0.13462253801539442	-0.35872590514462116	0.4933484431600156	127.76566699362398
15	6.0	ltm	77	diff_vonmises	-0.4479958945082667	-25.668273994511736	0.7481123826928471	176.96355721179998	0.736628398579502	178.00790230437053	0.08341332002713386	-0.2664282625958876	0.34984158262302145	96.92226950629052
16	6.0	perception	77	diff_vonmises	0.09529974883304662	5.460273396790364	0.2754908134830243	120.51188321389967	0.255348163051289	121.69091188156261	0.19153828918550886	-0.4724384305776468	0.6639767197631556	148.21789466511296
17	6.0	wm	77	diff_vonmises	0.1715370790532998	9.828350659756037	0.6504171838049878	2.1899362855893263	1.2125946795905754e-13	3.465004601951711	0.05102033689325691	-0.38741011410147896	0.4384304509947359	144.07527725967134
18	7.0	ltm	77	diff_vonmises	-0.5393948252072182	-30.90504697557035	3.5309725345699987	0.32248930557823696	9.395879137502827e-11	1.829850684969538	-0.05973567357446208	-0.29103136392049395	0.23129569034603187	72.95740439601708
19	7.0	perception	77	diff_vonmises	-0.102093740426224	-5.8495404411267895	0.582447999078581	116.8964368229496	0.5546939117269912	118.71807422233917	0.14384342935035832	-0.4987893885069301	0.6426328178572884	111.56142774275996
20	7.0	wm	77	diff_vonmises	0.31061576376772104	17.79697231412301	0.7562601200227832	123.40857154897381	0.7378820118717246	125.13756195732091	-0.07155409757355358	-0.3575239720492096	0.285969874475656	89.69441627134054
0	1.0	ltm	78	diff_vonmises	-0.008230283072425234	-0.47156048424792996	0.10900641683682054	12.152661157936482	1.7545780453364816e-10	13.931618257066882	-0.06677502988396489	-0.48801482254590844	0.42123979266194356	173.763851840202
1	1.0	perception	78	diff_vonmises	-0.12014343953896424	-6.883712021767832	10.766661357130035	0.7884682633717427	0.15815145360061442	2.717550259065462	0.516115523972124	-0.4609385173768658	0.9770540413489899	40.380340002681066
2	1.0	wm	78	diff_vonmises	0.0048149707772005305	0.27587750401241623	1.40351313009767	2.562364471025515	0.4515731413043323	3.9771009872946443	0.1207564301056614	-0.35370514732758707	0.47446157743324846	88.68962347706136
3	2.0	ltm	78	diff_vonmises	0.13280951326560464	7.609424589305865	3.4430114816768613	0.4002827963946022	1.9542241054551868e-21	1.3638548156586263	0.06624610776123846	-0.21677465452123137	0.28302076228246986	73.94028549867576
4	2.0	perception	78	diff_vonmises	0.02257379748920368	1.2933833237143855	5.167688116113426	1.4427106952808173	0.488747821975453	2.154860401403979	0.7459477398048301	-0.34025036839891193	1.086198108203742	55.61122919849737
5	2.0	wm	78	diff_vonmises	0.48938185775661913	28.039515019725865	3.1841653135752384	0.6017225770215269	1.1769333329352404e-15	1.0069139600914634	0.24739333923177856	-0.159556207393646	0.4069495466254246	76.90943021412716
6	3.0	ltm	78	diff_vonmises	-0.24996278294694266	-14.32181249820448	2.086237223506395	1.1180472302800137	0.6907634593990005	1.7134666091022523	0.1070826217323087	-0.16988853503122195	0.2769711567635307	73.44131471732294
7	3.0	perception	78	diff_vonmises	-0.0784618763650699	-4.49553436839577	4.642919828389685	1.4937059055479214	3.2981655264191424e-15	2.062574163878609	0.916431705702974	-0.32815341494001815	1.2445851206429923	63.42853113259355
8	3.0	wm	78	diff_vonmises	0.24791874300247058	14.204697636230074	0.5827526166398206	67.9794874386263	0.5609913375329292	67.78220907449385	0.33009495814616585	-0.13979134889657896	0.4698863070427448	122.93104316533226
9	4.0	ltm	78	diff_vonmises	-0.27110028577780754	-15.532902199858867	7.645392795730416	0.40098271868452134	2.8158596770537215e-40	1.3730646926611145	0.21595866872608277	-0.21852993359702624	0.43448860232310904	49.182605831624926
10	4.0	perception	78	diff_vonmises	-0.04696441674464757	-2.6908628667618384	1.8521622859218685	3.6146836270014897	0.41703440408166165	4.77966758387025	0.6741667901252675	-0.48375243189699374	1.1579192220222612	85.83861665218623
11	4.0	wm	78	diff_vonmises	-0.3761818072721204	-21.55362988629624	0.9657720532658199	172.6416224344891	0.9544831721429945	173.50227526464826	0.08316071273041814	-0.22134576391105654	0.3045064766414747	85.17252069244886
12	5.0	ltm	78	diff_vonmises	-0.3659620073211023	-20.968078481634894	1.0485121247202471	126.71284417316434	1.0307089094837418	127.45005085602375	0.1689911986502466	-0.22381807728003267	0.39280927593027926	84.42685826549024
13	5.0	perception	78	diff_vonmises	-0.039166595673581016	-2.244080629991542	0.9372249421637281	203.33851457233715	0.9155638314109731	204.16361372610223	0.5689547425015888	-0.3989983104938801	0.967953052995469	93.48448693985648
14	5.0	wm	78	diff_vonmises	-0.14664650778838373	-8.402225976606744	0.4007919061152452	145.38845572373418	0.38850395672094085	145.58557496682928	0.28278442248098656	-0.24054887674410352	0.5233332992250901	136.32680474934597
15	6.0	ltm	78	diff_vonmises	-0.47704759404621805	-27.332813765718512	1.1933021385301967	2.1753690434164357	0.1921280753466038	3.31934647373527	0.18772713735255098	-0.3563681056424359	0.5440952429949868	108.07619759920101
16	6.0	perception	78	diff_vonmises	0.01558546217467288	0.8929812043695419	0.8418437411352286	262.5293285698408	0.8275053913659884	263.55015915703876	0.4032068175048664	-0.3868441091576038	0.7900509266624702	96.68621118500499
17	6.0	wm	78	diff_vonmises	0.3198669363911318	18.327025460991415	0.00024631284076032995	4888.090901688688	3.4940015069612564e-32	4889.010446221939	0.04528109968896388	-0.3379576174078238	0.3832387170967877	176.75820096335485
18	7.0	ltm	78	diff_vonmises	-0.003381945463982211	-0.19377120162959366	0.8993491323098138	154.5701917858255	0.8803666076678418	156.2749685747309	0.01529090711751735	-0.3856751719564002	0.40096607907391757	85.14354433783853
19	7.0	perception	78	diff_vonmises	-0.22608592075456546	-12.953769066565785	1.4663790008342477	2.4832168612509498	7.598552041950978e-14	3.896482177508524	0.44081179535361126	-0.5636484577112206	1.0044602530648319	111.33675298513226
20	7.0	wm	78	diff_vonmises	0.3463197618487963	19.842660715911812	1.0571367693939069	71.49300068472027	1.0220125961599993	72.001508180411	0.2973984546084836	-0.21913297285387134	0.5165314274623549	87.65643873810754
0	1.0	ltm	79	diff_vonmises	-0.41724464242484766	-23.906357035388947	0.8923423597983113	1.0563567766136666	2.106104440947975e-16	3.2173548701423034	-0.172688836330956	-0.45509470224533355	0.28240586591437755	131.60979426560846
1	1.0	perception	79	diff_vonmises	-0.06211983802844189	-3.5592045430659933	8.804514025415063	0.9162753414048952	2.003367970857374e-16	3.313334044027477	0.5407577436767391	-0.527333467159675	1.068091210836414	45.78712480601172
2	1.0	wm	79	diff_vonmises	-0.10027537814101521	-5.745355956558562	4.583253732095401	0.514991980975773	0.09455076751473912	2.672451541361329	-0.04024368757454533	-0.4217836665123545	0.38153997893780917	60.246864138095475
3	2.0	ltm	79	diff_vonmises	0.010274607919446637	0.588691669935984	1.8114687210973388	0.8368005849910443	0.27047247042352884	1.8967023522356485	0.01802644789051383	-0.2348147821036783	0.2528412299941921	84.59471190233913
4	2.0	perception	79	diff_vonmises	0.030973843052663905	1.7746704822182477	5.162881385931683	1.9581443624736625	0.5594295732193358	2.8230995673535317	0.9990792752042499	-0.4461455253427222	1.445224800546972	55.211655506823746
5	2.0	wm	79	diff_vonmises	0.2462499719149122	14.109084095939524	2.319426896376912	0.8363345132208865	0.17267669136244315	1.8876423943411758	0.11713713834533618	-0.26012490670933314	0.3772620450546693	81.60919614542829
6	3.0	ltm	79	diff_vonmises	-0.12812837460082882	-7.341215100498705	1.1850173824301822	107.03040852959114	1.1666347455915211	107.8642551211743	0.053713956734270596	-0.21258192946258525	0.26629588619685585	75.63207923800343
7	3.0	perception	79	diff_vonmises	-0.028523533821412095	-1.634278104765574	4.476231933823079	1.982024921999667	0.3512864082315847	2.5197321510425286	1.0669580417987863	-0.37414347055153196	1.4411015123503184	60.94329993396917
8	3.0	wm	79	diff_vonmises	0.22269815128761766	12.759664174146392	0.7484651792838214	143.60078728872463	0.7351791702385999	144.04485202754935	0.2348064884164316	-0.20298956353746078	0.4377960519538924	103.70139807358129
9	4.0	ltm	79	diff_vonmises	-0.5794158169971081	-33.19808089705876	0.8766512516577593	154.2352295862594	0.8581816480189396	156.02693982550596	-0.020666903518510082	-0.39228200357436194	0.37161510005585185	85.10284345013935
10	4.0	perception	79	diff_vonmises	-0.01785695331142619	-1.0231280597068801	2.325058786105805	2.6548606671238217	0.1981988371554764	3.7176419487103427	0.7846825877191791	-0.4848018843996753	1.2694844721188545	83.63269380986816
11	4.0	wm	79	diff_vonmises	-0.2560505628345955	-14.670616592371614	0.7547068132598493	214.21742902587636	0.7411259171973846	216.24071727930186	-0.03626897257756667	-0.43581092411443123	0.39954195153686456	91.55253978256287
12	5.0	ltm	79	diff_vonmises	-0.14505257905515576	-8.310900587348147	0.9425300958946777	123.3889109659689	0.9261259462723441	123.97624732897748	0.19229761784703925	-0.2009927996299794	0.39329041747701865	90.57839876483044
13	5.0	perception	79	diff_vonmises	-0.11650663224104678	-6.675338312694785	1.4771005305169222	6.589121305299883	0.7609186704079494	6.906932623882886	0.7818920504217872	-0.34755744691517015	1.1294494973369573	87.83934197978934
14	5.0	wm	79	diff_vonmises	0.12528595921387023	7.178356695202933	0.355613269133644	115.66816981978455	0.3402833253190539	116.12864952212324	0.22127690874946637	-0.27719713847638516	0.49847404722585154	140.03941121680964
15	6.0	ltm	79	diff_vonmises	-0.5321122184103031	-30.487784342253832	0.6316581257082855	97.58882618116354	0.6194406590132066	97.87554221359997	0.14897570646324	-0.1421624115464546	0.2911381180096946	112.6212524030775
16	6.0	perception	79	diff_vonmises	-0.010564028959279756	-0.6052742740207094	0.28389517682719906	165.96064007599827	0.272033853120521	166.23250146032467	0.29418025879976994	-0.29714803711506477	0.5913282959148347	148.53155437453887
17	6.0	wm	79	diff_vonmises	0.1840956991264253	10.547906586454406	0.0006570873828396746	1982.8633648021887	9.211081556166336e-28	1983.2786108101247	0.14130442545996402	-0.2734132149162747	0.4147176403762387	178.80505142416652
18	7.0	ltm	79	diff_vonmises	-0.9334297785539853	-53.481586782974404	0.00019151991428755172	4319.312561325745	9.777785393451437e-32	4320.368818481226	-0.03644845635517413	-0.29975603276204765	0.2633075764068735	156.63275441411227
19	7.0	perception	79	diff_vonmises	-0.0853922935641731	-4.892618024169261	1.4292178654567713	3.560975543496326	0.3657290084551063	4.694099494535013	0.4561834245578631	-0.42818551339434674	0.8843689379522098	95.45638883473366
20	7.0	wm	79	diff_vonmises	0.11884176613932271	6.809131629663926	0.6993806842097623	83.50558308589866	0.6764434616539742	84.70293164908492	0.029522784424973025	-0.2805220167147606	0.31004480113973365	98.43922358570217
0	1.0	ltm	80	diff_vonmises	-0.04791167959240701	-2.745137030027998	5.266938979592667	0.3392527778458913	2.468689093054871e-21	3.460497615126131	-0.2483404140864659	-0.5507472501250081	0.30240683603854224	59.45742374186267
1	1.0	perception	80	diff_vonmises	-0.09633781021927246	-5.5197499330966036	10.70179081519559	0.6651482129657051	0.01784366188979926	3.8499442246447426	0.23343005461505895	-0.6157342668892297	0.8491643215042887	41.251590550046586
2	1.0	wm	80	diff_vonmises	-0.10596961782167844	-6.071611857796487	2.738714521544781	0.96852034333861	0.18743206161655926	3.8706588709517202	-0.1345570780945452	-0.5718451038646566	0.4372880257701114	71.85227522943495
3	2.0	ltm	80	diff_vonmises	0.04447525025286108	2.5482441322770875	2.0102716009146318	0.5522035069983293	8.400950198068305e-20	2.120477766423137	-0.05174538994372552	-0.3323567987011894	0.2806114087574639	96.78245420478632
4	2.0	perception	80	diff_vonmises	0.035732818761726064	2.0473397051527877	5.505069979730733	1.7255317865659894	0.4984254700417832	3.233846960461978	0.777746204369731	-0.5332220252111501	1.310968229580881	53.261913194491655
5	2.0	wm	80	diff_vonmises	0.3204476667115401	18.36029885738609	3.1010480247507335	0.6767249836424787	0.10496696154395174	1.9715481998317168	0.10407421827917612	-0.2955017786591401	0.39957599693831625	73.28778958840823
6	3.0	ltm	80	diff_vonmises	-0.19463952907148988	-11.15202354221026	1.0565033331180411	133.964050061905	1.03741271435458	135.28401264474005	0.02128169364810617	-0.30885258053881515	0.3301342741869213	78.52863418667263
7	3.0	perception	80	diff_vonmises	-0.05108724475008166	-2.9270835111315514	4.600427105994669	1.8989457241083199	0.29599692689691626	3.13549716392038	0.9183886395947379	-0.47892135786389967	1.3973099974586376	59.97697134240451
8	3.0	wm	80	diff_vonmises	0.2762758891906454	15.829442431847982	0.7418846592212271	120.19790269019101	0.723339958332176	120.86411543495166	0.23280742518601727	-0.2510402834643237	0.483847708650341	102.88446628459269
9	4.0	ltm	80	diff_vonmises	-0.5138106817493218	-29.43918353297565	0.7795965223874652	203.04092769228092	0.7638875647448593	205.48835383411998	-0.11722196625485992	-0.5014002728150935	0.38417830656023355	87.58348089553762
10	4.0	perception	80	diff_vonmises	-0.0030951275326401057	-0.177337744675018	1.1702863567967097	16.92327667805322	0.8290370945343986	18.68657396757795	0.5454566811297372	-0.5856255495247014	1.1310822306544386	87.43087459362786
11	4.0	wm	80	diff_vonmises	-0.20227712477853893	-11.589625541851408	0.6363541101269985	148.34494503489114	0.6192631377751567	150.8861259953954	-0.20304924618564257	-0.4878027205411506	0.284753474355508	93.45240442324891
12	5.0	ltm	80	diff_vonmises	-0.22602749505628836	-12.950421520639402	0.8703660516685859	145.2272323216713	0.849847836691309	146.4543036943919	0.18415597806676942	-0.3409493272869266	0.525105305353696	91.66179977284607
13	5.0	perception	80	diff_vonmises	-0.10654972691678612	-6.1048496606033105	1.0473206747519859	295.5925404286152	1.0286851343177956	296.8446718166312	0.6037278722141224	-0.49297806462142546	1.0967059368355478	87.10036118759749
14	5.0	wm	80	diff_vonmises	0.0014338013655079544	0.08215076690370011	0.38645991879149055	95.66457950759224	0.3647144799933031	96.461529198359	0.20280706017779693	-0.34535186563701004	0.548158925814807	136.18552899034808
15	6.0	ltm	80	diff_vonmises	-0.4848964368696171	-27.782519333560824	0.7562999187833246	176.46371238615265	0.7439243653258412	177.49407902690706	0.11506064997264076	-0.27630973187974206	0.3913703818523828	97.42584123701613
16	6.0	perception	80	diff_vonmises	-0.03948532241398306	-2.2623423270345406	0.5219358736434069	185.98304257527693	0.50625062873726	187.21070320866045	0.24203926637917306	-0.43551982064192885	0.6775590870211019	120.43663952933925
17	6.0	wm	80	diff_vonmises	0.23356479041105002	13.382276733410807	0.3912884198710528	3.536170109079813	1.8905927646041513e-17	4.741424166318787	0.04671919223543719	-0.3882208630514607	0.4349400552868979	156.8437823614928
18	7.0	ltm	80	diff_vonmises	-0.49477896140715316	-28.348746280496115	3.071499861815077	0.40468131040409344	1.1244735156455273e-17	2.3133485482556595	-0.09957137118323917	-0.3676036916876472	0.26803232050440806	78.33427723907926
19	7.0	perception	80	diff_vonmises	-0.12549657437067746	-7.1904240547894736	0.6118057078686172	118.77477703958473	0.5770238361467271	120.9277878567465	0.21906802315203677	-0.6063933932768677	0.8254614164289045	109.77777948678502
20	7.0	wm	80	diff_vonmises	0.3488739362564121	19.989004129608524	0.9169194705721381	116.72084868808244	0.8912679067326148	118.67987311551866	-0.058835619212494805	-0.4196566365999459	0.3608210173874511	82.06071233201507
0	1.0	ltm	81	diff_vonmises	-0.3255968612926595	-18.655325974775867	0.8313576899711105	1.3347313246411228	5.846777197514515e-18	2.7283203120748776	-0.02095637626129826	-0.3558577867453864	0.3349014104840881	134.8844741109474
1	1.0	perception	81	diff_vonmises	-0.09044329081644316	-5.182018849056511	11.0326418957919	0.8115671419673158	5.690482694385207e-16	2.424077672371899	0.6768253096731249	-0.38580394371896864	1.0626292533920936	40.84176526818686
2	1.0	wm	81	diff_vonmises	-0.09888394081908662	-5.665632470555068	3.9239469142537042	0.5090315111519197	0.043835850057693075	1.7676917017695826	0.09345933835681669	-0.2752767767072075	0.3687361150640242	67.28172643633161
3	2.0	ltm	81	diff_vonmises	0.03617520187546678	2.072686390497987	2.5323374510397203	0.5535846993820295	0.20690751441152938	1.210269492024847	0.0943485633078989	-0.1671288807673283	0.2614774440752272	77.80064841565476
4	2.0	perception	81	diff_vonmises	0.031019282446384574	1.7772739677020755	5.017551802826777	1.8253314556917102	0.6590657502357601	2.1625086580830195	0.9872088625526431	-0.3300757345841106	1.3172845971367537	55.9271195898385
5	2.0	wm	81	diff_vonmises	0.2783891715150155	15.950524589953988	2.4229620299961825	0.7412165120066804	0.2129386511595701	1.2409452937440353	0.18724019385465543	-0.16497846739117158	0.352218661245827	80.75610509891123
6	3.0	ltm	81	diff_vonmises	-0.1740531338335222	-9.972509979686496	1.5687536565259133	134.2810127647489	1.5542903997472928	134.80549299936362	0.10320833686284203	-0.1688403271845509	0.2720486640473929	67.59014268833155
7	3.0	perception	81	diff_vonmises	-0.02761557687668986	-1.5822560038533968	5.01921005967054	1.7440511070396663	0.23580825324638863	2.0000890004293344	1.1177925267895783	-0.30495728158231217	1.4227498083718904	58.92131228231719
8	3.0	wm	81	diff_vonmises	0.2507299276310699	14.365766650880866	0.7059412122445354	102.411813790197	0.6905031313670426	102.51352867653127	0.2725541179349058	-0.15506949451775487	0.4276236124526607	110.45300064352594
9	4.0	ltm	81	diff_vonmises	-0.37968762866011535	-21.754498655555047	5.328514562111435	0.4484454809536939	5.501932883377637e-33	1.4411722111387748	0.17285509059304757	-0.22936021403183018	0.40221530462487776	59.105370288686544
10	4.0	perception	81	diff_vonmises	-0.026830530264779003	-1.53727614626986	2.2871478737099595	2.8431443626619792	0.2378598184251613	3.6491454909252448	0.8631872682068387	-0.4570090960692362	1.3201963642760748	83.72597619538189
11	4.0	wm	81	diff_vonmises	-0.28435049035913584	-16.29208300005389	0.8901737321822613	195.5080588101938	0.8775590636717165	196.59791629236935	0.12298803639205858	-0.28675758465825396	0.40974562105031254	89.42629043494982
12	5.0	ltm	81	diff_vonmises	-0.10467601792887571	-5.997494043560315	1.13690924433123	109.60278254707636	1.120028620304923	109.94715174712502	0.2197258928563599	-0.15331196219096377	0.3730378550473237	84.28708691880513
13	5.0	perception	81	diff_vonmises	-0.08064343066415056	-4.620528222511712	1.015299535286493	199.4794085013178	0.9951719704446973	199.56538966084648	0.7298412915033481	-0.29552904729537843	1.0253703387987265	93.37188848269113
14	5.0	wm	81	diff_vonmises	0.14468101982532838	8.289611811639908	0.3907304571417918	78.64535043866337	0.3694609811568796	78.78797636964757	0.2737508880910653	-0.22359873743256742	0.4973496255236327	137.92210359781868
15	6.0	ltm	81	diff_vonmises	-0.5267128978066568	-30.17842605942687	0.6410484604826182	105.79919300844281	0.6271713685166176	106.0117199683545	0.22118323457617706	-0.16271548092580446	0.3838987155019815	113.60912204769268
16	6.0	perception	81	diff_vonmises	-0.07601566865940745	-4.3553769910489315	0.6888274527839617	163.396262103369	0.6742135834721645	163.52670202203038	0.4182270603996585	-0.2365477004934462	0.6547747608931047	111.93223684262415
17	6.0	wm	81	diff_vonmises	0.15058682363144607	8.627989444362749	0.00042917248378844937	3359.859205857032	2.627509770460347e-31	3360.0489014552095	0.19932370992501092	-0.2596564518910327	0.4589801618160436	179.16990439729017
18	7.0	ltm	81	diff_vonmises	0.07017245025574474	4.020585237745888	1.2126708090256149	117.71418150131798	1.1915385249351367	118.81735760432399	0.04283388345172767	-0.2749328806520026	0.3177667641037303	73.91933420903001
19	7.0	perception	81	diff_vonmises	-0.12442070797455673	-7.128781450971806	2.170662815245925	1.7684831920629087	2.85116686336541e-17	2.6073274804147526	0.5434622634474167	-0.4024908552651018	0.9459531187125185	93.25848861922898
20	7.0	wm	81	diff_vonmises	-0.28434585236504134	-16.291817262566866	0.00039303901329167	2484.5712823159815	6.957595894274044e-19	2485.3369683498154	0.03357066068952008	-0.2772655534707269	0.310836214160247	177.6782095966841
0	1.0	ltm	82	diff_vonmises	-0.4527665521313469	-25.941612541816145	0.000371624374924794	2042.0540701940388	6.04341657004662e-26	2044.0475516136414	-0.19648222843380836	-0.43804017317950183	0.24155794474569348	174.20518272556083
1	1.0	perception	82	diff_vonmises	-0.12807083331713157	-7.337918227795088	11.823971134384811	0.8074782814845458	0.1914133408005271	2.908481080891789	0.5398362441465311	-0.5049282079173623	1.0447644520638932	38.429489965321096
2	1.0	wm	82	diff_vonmises	-0.11842476167768692	-6.785239033974071	3.0178059867763207	0.6022699789945809	0.11899777839505435	2.196298606947673	0.003451936972225622	-0.32990268053788124	0.33335461751010687	72.66363067031293
3	2.0	ltm	82	diff_vonmises	-0.09607608966636423	-5.504754450003132	4.255747891021244	0.41259092973911515	4.7360944040078424e-26	1.7306857875440385	0.052598370694465324	-0.2753811930604845	0.3279795637549498	66.3248902847863
4	2.0	perception	82	diff_vonmises	-0.009123698790202353	-0.52274943422721	6.77977070969125	1.3217030844993745	0.36081031217550247	2.6559258742589402	0.7582357073434028	-0.44989008948801457	1.2081257968314174	49.487848570879294
5	2.0	wm	82	diff_vonmises	0.48114745060467157	27.56771824312693	3.799681341471799	0.4715637557722627	8.863163450118143e-15	1.4624083230890694	0.11971681760209629	-0.23257297052401063	0.3522897881261069	70.28094247204336
6	3.0	ltm	82	diff_vonmises	-0.2260806527699185	-12.953467233278975	3.2539734155533266	0.6062645618207211	0.23696368045314103	1.4892779964373868	0.11954295957056754	-0.2177063755952467	0.33724933516581423	68.86730119975968
7	3.0	perception	82	diff_vonmises	-0.09339273446516484	-5.351009522039929	3.633020925587756	2.172703349741733	0.37138569492127804	3.1249774554301037	0.8875682048132596	-0.43941430616135246	1.326982510974612	66.09995779030257
8	3.0	wm	82	diff_vonmises	0.176880292146904	10.134494219058599	0.9701189977690791	130.62125824426693	0.9565115516053687	130.78008868770024	0.28425949393754024	-0.14354073172108173	0.42780022565862197	93.8535533999123
9	4.0	ltm	82	diff_vonmises	-0.299723635484685	-17.172899333589967	5.527075653040094	0.5651048960161962	0.35949984011672126	2.181799766523186	0.03501476622494781	-0.37063857330816014	0.40565333953310795	51.75731065199349
10	4.0	perception	82	diff_vonmises	-0.13370744482494804	-7.660872277947843	1.2383909841049752	13.769948841045975	0.8417653093512318	15.388057571485142	0.5228165555602642	-0.5433711631974552	1.0661877187577193	85.84425965244239
11	4.0	wm	82	diff_vonmises	-0.6001674730230547	-34.38706320525273	1.13704910529383	154.7345998863485	1.120995805955762	156.19202912246303	-0.06780475550699805	-0.3236009150221406	0.25579615951514256	72.17714669056816
12	5.0	ltm	82	diff_vonmises	-0.26873880522652593	-15.397599330868205	1.018526918592349	127.77571456734003	0.9990854955076628	128.61808266425828	0.18184389770656395	-0.2518610539182493	0.43370495162481326	85.55782533550367
13	5.0	perception	82	diff_vonmises	-0.10158081886347292	-5.820152200359898	2.201243833240108	2.4990072865938227	0.29956806442253064	3.487221524755114	0.6333897117014026	-0.41888628940044376	1.0522760011018464	82.93107955848185
14	5.0	wm	82	diff_vonmises	-0.20363750726783625	-11.667569717011645	0.5352488382067686	121.37713886306166	0.5208309487939206	121.8411084381302	0.21213357164307567	-0.2335622969945632	0.4456958686376389	121.44555724653695
15	6.0	ltm	82	diff_vonmises	-0.37066453886355416	-21.237513692044534	1.6277957253065602	1.044788490324076	0.17588069293750647	2.114180602535727	0.07748670777684791	-0.2654076942358748	0.3428944020127227	94.37079970151845
16	6.0	perception	82	diff_vonmises	0.17107270771460556	9.801744141922017	0.6670241791096647	2.633262761758739	2.071085884159655e-17	3.7036546240127675	0.14332112927048057	-0.3964337875881775	0.5397549168586581	143.27028199759053
17	6.0	wm	82	diff_vonmises	0.42471707892349475	24.334496109440938	0.0001816054770847424	3549.7650515366304	3.384691909668655e-31	3550.804684327586	-0.06285947608625975	-0.26805660352135874	0.205197127435099	174.47885167462152
18	7.0	ltm	82	diff_vonmises	-0.22123128769657097	-12.675619081258013	0.9254928944907158	171.18775753174674	0.9099660741109674	172.53228734374684	0.06929792287391479	-0.3242240125004088	0.39352193537432356	85.68466230165917
19	7.0	perception	82	diff_vonmises	-0.34482594802552163	-19.75707148845987	0.700420032816359	271.16830314064345	0.6863532633271239	272.68338270651384	0.29962774787553315	-0.47462550708437234	0.7742532549599055	103.62060568338104
20	7.0	wm	82	diff_vonmises	0.4743556656418303	27.178577629395708	1.3582946919711114	61.28412318721361	1.3127558245719948	62.08580806452172	0.1836145613832585	-0.2517643496724986	0.4353789110557571	73.9585936436194
0	1.0	ltm	83	diff_vonmises	-1.2442914261798776	-71.29264720442102	0.29779654366268393	42.29035349918513	0.26945616723481947	45.41602640210287	-0.42622554820545666	-0.5340658742390847	0.10784032603362803	112.41210092353884
1	1.0	perception	83	diff_vonmises	-0.031467614985876254	-1.802961530033331	8.84479517600223	1.029552138259262	0.10987655570523841	4.454094754987499	0.41437928261194923	-0.7332963245726252	1.1476756071845744	44.493471238274424
2	1.0	wm	83	diff_vonmises	0.017256275452642068	0.9887117535515948	6.7018493630005045	0.32613730998191326	0.0625591736892234	3.3434268485179057	-0.23587500601731892	-0.5392155119642257	0.30334050594690676	50.257236327421225
3	2.0	ltm	83	diff_vonmises	-0.200830473818576	-11.506738547416981	5.394721418528956	0.26986104442582115	4.620211062954991e-17	1.739197734162611	-0.033202497795441155	-0.27679689235097965	0.2435943945555385	58.739244687424616
4	2.0	perception	83	diff_vonmises	-0.01883411438829435	-1.0791152653158844	8.833539706241021	1.534489968600879	0.3630495145016434	3.285959594565296	1.0645199834834167	-0.5855214152672774	1.650041398750694	43.765225123445106
5	2.0	wm	83	diff_vonmises	0.06397213722619706	3.6653334694928326	3.0220806244509393	0.5770516204099678	0.04863173533098799	2.3487118759231826	-0.012698065141131754	-0.36088587056232446	0.3481878054211927	75.55747264165208
6	3.0	ltm	83	diff_vonmises	-0.18672461646389354	-10.698532454580105	1.0715014726669851	16.98758565842498	0.9979695117276682	17.63231754058834	0.015456767063906973	-0.151983128478129	0.16743989554203598	79.36909957971079
7	3.0	perception	83	diff_vonmises	-0.04721381297197968	-2.7051522180144536	3.6041282626689366	2.951827906506174	0.9993254711256144	3.3608656964273664	0.9950688013918951	-0.3991885035725611	1.3942573049644562	61.23882209101174
8	3.0	wm	83	diff_vonmises	0.03525006317028759	2.0196798472270214	1.3931528068012244	154.6451574572778	1.3782911529260304	155.19593101934106	0.18462247169235724	-0.1928443872491279	0.37746685894148513	73.72105034796726
9	4.0	ltm	83	diff_vonmises	-0.4855822165443353	-27.82181161459803	0.8940109622302049	107.71589819742272	0.8708436688367518	109.99968079144958	-0.2486867344251209	-0.44093346489025365	0.19224673046513274	74.42939482919309
10	4.0	perception	83	diff_vonmises	-0.07743478290172796	-4.436686247780802	3.6135807747725077	1.717700060685441	0.14324454668202785	2.8494732787101515	0.7281353057611583	-0.4221388280972563	1.1502741338584146	69.06897347837773
11	4.0	wm	83	diff_vonmises	-0.0144901889246124	-0.8302266697274995	0.5757488910513262	129.0173415282194	0.560419347980663	131.53326370423176	-0.2762422752546456	-0.45431259654663236	0.17807032129198674	91.98656969974434
12	5.0	ltm	83	diff_vonmises	0.006248579549976002	0.35801723616538017	2.1475552506782267	1.0482091781043992	0.27676708160809005	2.4135636226879535	0.06737582268169395	-0.3138107319703304	0.38118655465202433	79.66375468081463
13	5.0	perception	83	diff_vonmises	-0.12036940127951683	-6.896658675832925	2.1212500354520953	3.394980254530772	0.4795738245094212	4.616899132616001	0.6930978197432538	-0.48846290088801153	1.1815607206312653	79.99174991550129
14	5.0	wm	83	diff_vonmises	0.026557557135347697	1.5216359380329678	1.2394161476866383	1.1442130216838382	6.267723683029946e-14	2.3730782696339183	0.0644134951659891	-0.34061774442902054	0.40503123959500964	119.23874619966503
15	6.0	ltm	83	diff_vonmises	-0.40417730015824344	-23.157653474059607	0.6478987817993571	121.64617885280254	0.6361538704400608	122.5032251501522	0.03792129323295512	-0.21118481409895296	0.24910610733190808	103.1273036872416
16	6.0	perception	83	diff_vonmises	0.26251295136535746	15.040884180758024	0.00019202907808676714	10405.21141240816	9.886572205176168e-29	10406.096816548621	0.17710673305123237	-0.4589090908682465	0.6360158239194789	177.75842571362543
17	6.0	wm	83	diff_vonmises	0.15686893964820534	8.98792817853459	0.6139613661941926	1.968362403095956	9.489888472774224e-17	3.13330107074414	0.02923492959212748	-0.3440537630466479	0.3732886926387754	145.9390673903847
18	7.0	ltm	83	diff_vonmises	-0.7319270183394059	-41.93632906244236	0.4114198096337752	34.30457864763938	0.3833799631110578	35.15461196287976	-0.015036395372123756	-0.2071310443732286	0.19209464900110484	124.49097757363917
19	7.0	perception	83	diff_vonmises	-0.09050096529847447	-5.185323353462508	0.6772839552992491	86.37266317969863	0.6486816797884281	87.57590970573987	0.1392953969850872	-0.3350992753234525	0.4743946723085397	104.0734198181573
20	7.0	wm	83	diff_vonmises	0.2504838522249681	14.351667568669267	0.6272972453488888	85.72794221932743	0.6100156559679631	86.84255226737184	-0.017223908381176045	-0.24501841553466974	0.2277945071534937	101.49246716292441
0	1.0	ltm	84	diff_vonmises	-0.10671104696452682	-6.1140926184897015	0.000320835673142601	2054.0616641046863	1.5312340940682891e-32	2057.4583279647713	-0.435701944672644	-0.6454729166329685	0.20977097196032446	179.6559108895928
1	1.0	perception	84	diff_vonmises	-0.08404607964417812	-4.815485648231786	8.414635446478162	0.9873666684192332	0.21548651395685411	4.326789035179374	0.2801967444543034	-0.7416099116336525	1.021806656087956	44.551379950539086
2	1.0	wm	84	diff_vonmises	-0.03714160505437367	-2.128057213957378	2.374428108251912	0.9399817446193584	0.14500035298919656	3.8322530631709615	-0.16400297233491712	-0.5586685822820723	0.39466560994715516	77.67237806913235
3	2.0	ltm	84	diff_vonmises	-0.19199420429332223	-11.000457596979874	0.0011439484238961013	743.1925899466418	7.054344678586703e-22	745.1528641550658	-0.17663925480948706	-0.4472580118941778	0.27061875708469074	178.88283142732712
4	2.0	perception	84	diff_vonmises	-0.020217273401524273	-1.1583644391694385	7.8081506294073	1.2692491598041264	0.2909765365998933	3.1566777356267792	0.7326594996462537	-0.5418655439735779	1.2745250436198314	46.48058314337956
5	2.0	wm	84	diff_vonmises	0.39072056583173687	22.386639391121964	3.916787353497821	0.5304916451385595	3.812617924418085e-10	2.0406289347701008	0.0783998434521444	-0.32461641235573585	0.40301625580788025	69.19881337412144
6	3.0	ltm	84	diff_vonmises	-0.3051658722956855	-17.48471653397103	2.4270422414284423	0.4944953957281499	1.8615580428679146e-17	1.5254456011801423	0.04359065096028508	-0.2405491231903625	0.2841397741506476	88.23187020201772
7	3.0	perception	84	diff_vonmises	-0.10725426308825223	-6.145216609742624	3.494629657165542	2.1416711730568108	0.38864644216172134	3.132952216472829	0.8200851105730479	-0.4344735612629389	1.2545586718359867	66.88272106735968
8	3.0	wm	84	diff_vonmises	0.08379860436441236	4.801306359167389	1.0460689014532067	158.39018592916733	1.0329474162643872	158.7729660517008	0.2585263179453463	-0.17762546377302968	0.436151781718376	88.09824376909356
9	4.0	ltm	84	diff_vonmises	-0.21080076808190984	-12.077994329209508	4.181628022557435	0.5109595867151028	0.2009281518102105	2.7147008507214987	-0.1204491798058061	-0.43275187482954547	0.31230269502373936	59.31228918363385
10	4.0	perception	84	diff_vonmises	-0.10767861744908605	-6.169530323636374	2.227112838384102	2.6557202349679296	0.35941859538961135	4.313753355159965	0.509069047236683	-0.5178361352362617	1.0269051824729447	79.64205222089046
11	4.0	wm	84	diff_vonmises	-0.4723274584902023	-27.062369919629173	0.8084900507692389	150.61413074584993	0.7940885263345405	152.61292777730387	-0.1904449125433274	-0.3834015044955521	0.1929565919522247	80.18686888884405
12	5.0	ltm	84	diff_vonmises	-0.35240983323197794	-20.19159610310152	1.7682748503595818	1.2486990711917945	0.17946980340017543	2.9094551669621556	0.04814135200502345	-0.3777925172231611	0.42593386922818455	89.83994023401729
13	5.0	perception	84	diff_vonmises	-0.09520191904999714	-5.454668163110948	2.1738520548038114	3.0047534601470725	0.36726948338216336	4.7449831137018785	0.5753018029625394	-0.5587431561001635	1.1340449590627029	80.42241777478986
14	5.0	wm	84	diff_vonmises	-0.2822139540276284	-16.16966848548215	0.4631457222896799	205.01546710384477	0.45296118314522493	206.07492306802502	0.13537975863913942	-0.3460409159646005	0.48142067460373994	124.95540602387823
15	6.0	ltm	84	diff_vonmises	-0.3559260328349962	-20.393059500280042	0.9152508575671945	4.74267777393396	0.45588347819575786	6.545408765933633	-0.016903318686571245	-0.39662750479376563	0.3797241861071944	97.78018164542324
16	6.0	perception	84	diff_vonmises	0.3294478288741176	18.87597016423512	0.14115225808110704	15.253386915431047	2.299737266508605e-09	17.032609120332864	0.07098560245734165	-0.6132156596463192	0.6842012621036608	168.98113194950022
17	6.0	wm	84	diff_vonmises	0.45888283051424933	26.292049479483556	0.00022121746555685986	3658.702947059722	2.2482852674059537e-30	3660.5504120754085	-0.16521266366021337	-0.42283946787961213	0.25762680421939876	173.60785048264012
18	7.0	ltm	84	diff_vonmises	-0.47328912699485065	-27.11746946623618	0.61505440668505	93.06226935455898	0.5904850594681702	94.66628452024959	0.009805485778844769	-0.37091555513964103	0.3807210409184858	104.49061016477386
19	7.0	perception	84	diff_vonmises	-0.2777943189764999	-15.9164420500644	0.4700230102283406	216.3563517820999	0.4546436276208937	218.36039599147853	0.1404641898693626	-0.5800145854747178	0.7204787753440804	123.0163388129194
20	7.0	wm	84	diff_vonmises	0.33885723889086533	19.415089645902885	1.1756744229265015	5.641133106954913	0.6745834646221687	7.130892408697297	0.11871007442757064	-0.3723037191583357	0.49101379358590636	86.92707099615004
0	1.0	ltm	85	diff_vonmises	-0.14281621094581348	-8.182766133245183	0.38199883262541406	2.1476067065084505	8.5640678284027e-15	5.522591471756353	-0.3959191610363066	-0.6539518661278849	0.25803270509157833	158.12250560183423
1	1.0	perception	85	diff_vonmises	0.006328208894353173	0.3625796615235859	6.25357059550475	1.138284721935501	0.06592849171303744	4.682581472066216	0.31561195287196453	-0.746877343218918	1.0624892960908825	53.13396983590005
2	1.0	wm	85	diff_vonmises	-0.03712612402475517	-2.1271702162977206	3.7040233212634583	0.6669463069381915	0.08990570724784383	4.09295436369694	-0.21965231187661832	-0.6385161177359338	0.41886380585931543	65.67112803589123
3	2.0	ltm	85	diff_vonmises	0.10273029784049446	5.886012494382248	1.9238692596703038	0.4544511728580073	0.00043195229725347356	1.9186839175873114	-0.07650011148964989	-0.3003520136490857	0.22385190215943582	98.7364806223357
4	2.0	perception	85	diff_vonmises	0.020275986606598972	1.161728458021905	5.823489142149651	1.8191640601721866	0.4316049209283489	3.2097088260524056	0.9589766254096662	-0.5287151363116592	1.4876917617213254	52.72571310051623
5	2.0	wm	85	diff_vonmises	0.20431492882936714	11.706383113438527	2.3245806035206593	1.0397486151162618	0.230677655267495	2.4941524050800137	0.09362837986192613	-0.3380099252895622	0.4316383051514883	78.83427530663383
6	3.0	ltm	85	diff_vonmises	-0.13912643356280166	-7.9713574618557805	0.8972670477049488	52.224671264218365	0.8687769789314549	53.08273256174733	0.011781619486690431	-0.19537571552334754	0.20715733501003797	85.73717157974474
7	3.0	perception	85	diff_vonmises	-0.04226290828763045	-2.421486274829694	4.414937148124958	1.8639093315299937	0.32949086870000804	2.4734533246983226	0.9790191286384876	-0.36761215896759875	1.3466312876060864	61.39901258242625
8	3.0	wm	85	diff_vonmises	0.11801374350136148	6.761689427167459	0.8856434834879555	145.06085532453437	0.8719185796133313	145.5907450877567	0.21136525661304972	-0.19866218070257702	0.41002743731562674	94.20604569254618
9	4.0	ltm	85	diff_vonmises	-0.5467432591054661	-31.32608122397082	0.6626739664115447	174.08532549285033	0.6473738534052833	176.44749715388608	-0.14211436726425575	-0.4713677198602255	0.3292533525959698	94.1039060806159
10	4.0	perception	85	diff_vonmises	-0.006941213285444912	-0.3977022259561295	2.7825724094507547	2.1447480163709267	0.1049753974213817	3.302997173825099	0.7630242485694774	-0.47682492169735136	1.2398491702668286	79.09978877692583
11	4.0	wm	85	diff_vonmises	-0.09563661241049891	-5.479574258050058	0.5705173664354738	195.13950914644337	0.5560033634553143	197.7962420241055	-0.14951322782173548	-0.539900158869461	0.3903869310477255	102.56290736771544
12	5.0	ltm	85	diff_vonmises	-0.18489194618523622	-10.593528182373976	0.7222055475536571	144.8077220427484	0.706803447083146	145.92167142470305	0.10691057330605958	-0.29412400003620576	0.40103457334226533	99.45306453557555
13	5.0	perception	85	diff_vonmises	-0.11170881121035153	-6.400443416776841	1.399430630840994	9.547307956184188	0.8254638889937022	10.467370780197125	0.736422960093214	-0.4613262467362924	1.1977492068295064	85.84941459855077
14	5.0	wm	85	diff_vonmises	0.061188474869698424	3.5058413648760194	0.3075104236513833	156.89774367880833	0.2950279789003135	157.85907378002335	0.14941194369070843	-0.37052632169353217	0.5199382653842406	143.9629996553021
15	6.0	ltm	85	diff_vonmises	-0.5482928510711736	-31.41486630357325	0.5936195978799946	130.4945008766104	0.5816316251642252	131.21404272712618	0.10712835796533682	-0.22193722173290986	0.3290655796982467	111.70536619822327
16	6.0	perception	85	diff_vonmises	0.1150958263685986	6.594505090491231	0.08710485942604049	225.27016023465092	0.07679221599589421	225.9737767561184	0.2634824475774451	-0.4575434569349923	0.7210259045124374	170.09976394636192
17	6.0	wm	85	diff_vonmises	0.14216484528504642	8.145445629963481	0.5320023774231875	3.0399678748183114	2.3686028536820913e-17	4.0003880941688506	0.131620424645142	-0.37156181572296226	0.5031822403681043	150.1459319441272
18	7.0	ltm	85	diff_vonmises	-0.8029277973296755	-46.004374040725935	0.00026279468316924086	3404.8490953636697	3.6713624006572935e-30	3406.0761853760882	-0.0528800248710013	-0.3376961452792102	0.2848161204082089	162.42196747775435
19	7.0	perception	85	diff_vonmises	-0.015205743515454829	-0.8712249277939812	0.7489597002500422	217.95596029489604	0.7299737146529838	219.50303227822943	0.3407091303108487	-0.49026386181521886	0.8309729921260676	100.63117808112679
20	7.0	wm	85	diff_vonmises	0.08935680455204238	5.119767771607411	0.600062165175892	94.9723089799747	0.575824069005997	96.62380689804203	0.004140662880498525	-0.3809833115463661	0.38512397442686463	105.65480660091919
0	1.0	ltm	86	diff_vonmises	-0.7591142142847994	-43.494040646908594	0.39525149691129957	80.15753764566992	0.3743061170013926	83.12385383465312	-0.3560449481207826	-0.525813741603983	0.1697687934832004	109.36616834557096
1	1.0	perception	86	diff_vonmises	0.01198246496689465	0.6865446707664291	6.526925329853767	1.0343061965898164	4.465630938609295e-15	4.437126175837098	0.3260390165508761	-0.706188352716253	1.032227369267129	53.29598854739561
2	1.0	wm	86	diff_vonmises	-0.04135803816262866	-2.3696410356596163	5.500612527536068	0.4798481405380817	0.11305508368135328	3.684638137080381	-0.21685616229674987	-0.5958974020186103	0.37904123972186043	54.04340771313102
3	2.0	ltm	86	diff_vonmises	0.041421168343581366	2.373258128588103	1.0536468276713633	1.6105287882524315	0.40869966947001957	2.635111077036742	-0.038940164748741624	-0.2121530994160407	0.1732129346672991	93.32353297172833
4	2.0	perception	86	diff_vonmises	0.03442028410307351	1.9721370087473524	6.112640168953736	2.089745176312692	0.6009222639592066	3.2395082835764204	1.1544349083820986	-0.5493717442900936	1.7038066526721922	50.86005178954633
5	2.0	wm	86	diff_vonmises	0.1033486511580886	5.9214415297283045	1.9214603470038563	1.2695909990379715	0.34756629408033674	2.645830704590568	0.06075891419727186	-0.31774844634180177	0.37850736053907363	80.88756100238788
6	3.0	ltm	86	diff_vonmises	-0.14959207140391345	-8.570994340063892	1.2354348457004385	80.21480926346806	1.2177904357860028	80.90213952638506	-0.002473879350414876	-0.16461888547157955	0.16214500612116467	71.47848355944592
7	3.0	perception	86	diff_vonmises	-0.011289781797628731	-0.646856848627746	5.26658828666901	1.967450784081992	0.6766959414242777	2.361391957416091	1.092206622950345	-0.368937798763393	1.4611444217137382	54.62343112920823
8	3.0	wm	86	diff_vonmises	0.16387263450868136	9.389210335037333	1.0766106158511208	108.0356934970538	1.0587756752280229	108.6106148699655	0.15923468535997642	-0.1840780751173572	0.3433127604773336	83.9232422855064
9	4.0	ltm	86	diff_vonmises	-0.8620589024036698	-49.392336799410415	0.9865397558274843	235.62664245699057	0.9704751142685718	238.02348013454707	-0.08830649294691284	-0.5165285925067806	0.4282220995598678	78.3109182484061
10	4.0	perception	86	diff_vonmises	0.03274811456330196	1.8763287514881095	2.9315919062032476	2.228136251214675	0.22474015396210392	3.133056807405854	0.8237367352820881	-0.428627861828685	1.252364597110773	74.98284336108401
11	4.0	wm	86	diff_vonmises	0.18892094319328642	10.82437270660609	1.3671841347184648	1.0940019114977482	4.6253477525051736e-14	4.093091866814108	-0.20333003033951036	-0.622337674003353	0.4190076436638427	114.58862870335318
12	5.0	ltm	86	diff_vonmises	-0.03841566276854983	-2.201055343835757	0.9892535769011986	46.283789047076326	0.9375704222521815	47.20695487073604	0.14929475272872317	-0.25850514926296864	0.4077999019916918	86.63158008140385
13	5.0	perception	86	diff_vonmises	-0.13941964354497835	-7.98815715634561	1.1695362610451356	200.58565497433852	1.1431058979378697	201.2152644917464	0.753362093483716	-0.402804829830945	1.156166923314661	84.86997974615568
14	5.0	wm	86	diff_vonmises	0.2976338277819683	17.05316217223037	0.3413283621708606	103.82154823100197	0.3224493417866635	104.68498567903498	0.16888356363120138	-0.35046683445503035	0.5193503980862317	139.72956338030218
15	6.0	ltm	86	diff_vonmises	-0.6179137788728264	-35.403851632392964	0.7140790270087078	79.01925525799837	0.7002194080636821	79.23788201954697	0.146574872555437	-0.11720831898718487	0.26378319154262186	106.95351496965543
16	6.0	perception	86	diff_vonmises	0.07243912209159022	4.150455967481004	0.07348708203565588	175.3347165508328	0.06184216823477845	175.65765732824025	0.2809371278453021	-0.36187243192676277	0.6428095597720649	172.01993600763245
17	6.0	wm	86	diff_vonmises	0.14514202081194713	8.316025222524528	0.49653206671691347	3.544206450644324	6.28621320385376e-16	4.087445946004523	0.22165122915630853	-0.32743896536865	0.5490901945249586	151.9619486486023
18	7.0	ltm	86	diff_vonmises	1.8616526303525638	106.66483863863024	0.7020814411055567	1.950622664821116	0.702097384603205	2.9503942543183137	-0.0699575733636966	-0.2848953504887177	0.21493777712502113	155.05220359932065
19	7.0	perception	86	diff_vonmises	-0.012976387348314791	-0.7434922283853952	2.9173184911668324	1.1507889770916762	4.589225875641603e-18	2.434953114645917	0.35422128982245693	-0.38536544313877763	0.7395867329612346	80.47302192867988
20	7.0	wm	86	diff_vonmises	0.08795686403926047	5.039557088655627	0.5441191496035443	139.6976038741735	0.5327131132383943	141.17600178612875	-0.07437740476721189	-0.30668094008013114	0.23230353531291925	105.86828850455603
0	1.0	ltm	87	diff_vonmises	-0.14871787999153574	-8.520906861648069	0.0011160025761229844	646.8505018302887	6.222833892265968e-24	649.2680346946956	-0.26984242672658354	-0.4996180833606587	0.22977565663407518	179.30632186434286
1	1.0	perception	87	diff_vonmises	-0.03444072284969553	-1.9733080626673314	10.255892252805939	0.8338568234677324	1.0986934332277726e-18	3.5266894918248313	0.4904422274880891	-0.561290064074741	1.0517322915628302	42.3743354425435
2	1.0	wm	87	diff_vonmises	-0.013106856246344039	-0.7509675456001939	4.020143392808393	0.4681444086962107	0.026251858290863624	2.8478636234201535	-0.10431693741398312	-0.44790133072572014	0.343584393311737	66.43531446826213
3	2.0	ltm	87	diff_vonmises	0.01917969249393679	1.0989154322613224	3.000514101866737	0.3238780179253301	2.248757368030652e-32	1.3254656022858777	0.0011917582208881283	-0.21042908045756412	0.21162083867845224	79.32806545539063
4	2.0	perception	87	diff_vonmises	0.007524432210461063	0.4311182088917117	6.9453443697374935	1.588595706327025	0.4720146769805747	2.462733881239172	1.0427526327909251	-0.42323156054988503	1.4659841933408102	48.83787653776656
5	2.0	wm	87	diff_vonmises	0.07344261737089071	4.207952011746224	2.4721320573210157	1.0198319606953696	0.371309966960008	2.0807004001432228	0.133169624271669	-0.2696935500959277	0.4028631743675967	74.18574013616484
6	3.0	ltm	87	diff_vonmises	-0.21015037552954471	-12.040729580932245	1.3605600349124989	87.63640420639513	1.3447805012509306	88.1444673362854	0.042963141409082084	-0.13848665627673817	0.18144979768582026	70.77820616658477
7	3.0	perception	87	diff_vonmises	-0.030849260014438853	-1.7675323999290353	4.92881268519127	1.8919637222043804	0.5840722272370578	2.0656504834832754	1.0857025423946487	-0.30958330633654607	1.3952858487311948	57.15420082157087
8	3.0	wm	87	diff_vonmises	0.06257106418686217	3.585057897549377	1.231618947414193	103.20421675517815	1.2120858276718445	103.59386451821588	0.2225243387571254	-0.16396330931651093	0.38648764807363634	80.54772532003415
9	4.0	ltm	87	diff_vonmises	-0.5118749297834515	-29.328273115147134	0.5726013568736672	49.029712306543736	0.5377553050076592	50.491009701833285	-0.049134169890505675	-0.3140296094952779	0.26489543960477224	105.9565404908705
10	4.0	perception	87	diff_vonmises	-0.02937258711699677	-1.6829252751842492	3.2958913217264607	2.0289502065239953	0.11264782637183483	2.822726323569592	0.9001994372266239	-0.41422973910765637	1.3144291763342801	73.08122494520151
11	4.0	wm	87	diff_vonmises	-0.058973750393171646	-3.3789469995867147	0.6747670569612303	195.03643437197383	0.6626278745342968	196.67670540175584	-0.0045580159252196495	-0.36607441465173096	0.3615163987265113	98.26428590598972
12	5.0	ltm	87	diff_vonmises	0.019547656109515813	1.1199981944483746	0.9780102231973313	75.72337275935406	0.9479470805131015	76.69331752583311	0.11004744393199672	-0.2551146595000251	0.3651621034320218	85.5053500847223
13	5.0	perception	87	diff_vonmises	-0.07896583948035055	-4.524409327931616	1.0339177918372429	272.75998526553485	1.0160792547673057	273.52523406793836	0.6544602040394238	-0.40713020873659644	1.0615904127760203	89.40492347633267
14	5.0	wm	87	diff_vonmises	0.18349392857835395	10.513427673814643	0.36466682774790177	72.64841987990118	0.3389984285963536	73.54056207828154	0.1445790271421945	-0.3358348998844134	0.4804139270266079	137.74115398846845
15	6.0	ltm	87	diff_vonmises	-0.5321019490152596	-30.48719594925969	0.6390313788301226	148.77894854997817	0.6267654615800244	149.42653207850702	0.17112916082817975	-0.23235666801603827	0.403485828844218	109.75334074749239
16	6.0	perception	87	diff_vonmises	0.06212342889448236	3.5594102845349087	0.4362314903771632	165.8427512011798	0.4196385942053176	166.40458708310365	0.37752097386901795	-0.3862037677841528	0.7637247416531707	132.26047637904145
17	6.0	wm	87	diff_vonmises	0.0836548656637414	4.793070738266248	0.4584204615440631	4.094160275371118	1.091666319460938e-17	4.865885837212764	0.20404434280864225	-0.38325307388438556	0.5872974166930278	154.22288730527646
18	7.0	ltm	87	diff_vonmises	-0.11363657537418874	-6.510896167261278	0.9007455779374846	68.42686174047877	0.876739883360249	69.56639903297635	-0.04970895391993935	-0.23884209576078774	0.1891331418408484	81.76179053073449
19	7.0	perception	87	diff_vonmises	-0.027538071771128016	-1.5778152884139873	1.7770277243796626	1.5138778241774906	4.388733655040898e-14	2.719230831833001	0.29411160700677313	-0.4119818552142734	0.7060934622210465	102.52030919294758
20	7.0	wm	87	diff_vonmises	0.17038121107916077	9.762124303163535	0.5096280756238291	114.55128205599482	0.49618164124802455	115.71291977610447	0.0022227979987974322	-0.2792206762026126	0.28144347420141	114.94612892318025
0	1.0	ltm	88	diff_vonmises	-0.08703333669399858	-4.9866428695072	0.0002460679194822831	4223.627448656359	2.1197405618779997e-31	4225.246364577299	-0.09223869305003518	-0.423057898488878	0.3308192054388428	179.7690798400804
1	1.0	perception	88	diff_vonmises	-0.044774861429311835	-2.5654105881826648	10.278392974164218	1.0045943116442804	0.06865070538726005	2.8182944114803425	0.7882809972361875	-0.4578609756090615	1.246141972845249	41.9092003193785
2	1.0	wm	88	diff_vonmises	0.03480801108512692	1.9943521284223573	3.1861838155721904	0.48991498037594267	1.743549757810544e-16	1.9656584304349838	0.0191771703212828	-0.3122771264124843	0.3314542967337671	76.93279519424655
3	2.0	ltm	88	diff_vonmises	0.001912109415914679	0.10955579949913608	3.9671542912535664	0.2957580479152158	6.231295947299844e-14	1.048764855187044	0.059456199079866545	-0.16683501414697463	0.22629121322684118	68.7516127691263
4	2.0	perception	88	diff_vonmises	-0.015619080351442929	-0.8949073840133904	7.241044717595896	1.4070318838822051	0.3327499479820318	1.8577889267641843	1.081280055567555	-0.3098661165050154	1.3911461720725704	48.868128252696664
5	2.0	wm	88	diff_vonmises	0.07448815022965864	4.267856631895874	2.3275454376276863	0.9806827348191575	0.39538938354133296	1.6513685886993739	0.1786036225602997	-0.20025532030148535	0.37885894286178506	77.10001858899278
6	3.0	ltm	88	diff_vonmises	-0.2020124123092439	-11.574458634576317	1.3767631140948489	57.33774136195052	1.3575853030201137	57.63654060588959	0.07559375191697626	-0.09664716958133024	0.1722409214983065	73.35587488430437
7	3.0	perception	88	diff_vonmises	-0.0415927260057859	-2.3830876585755543	4.419050212014614	1.8555714930950946	0.440159788044243	1.68520744391964	1.1087275225583744	-0.2390066748861442	1.3477341974445185	61.56586345759382
8	3.0	wm	88	diff_vonmises	-0.03368840445011273	-1.9302033935212004	1.2987785845240167	89.5782842932108	1.278960911635893	89.68919194872278	0.2796479008505983	-0.12001959710883892	0.39966749795943723	81.5565850515317
9	4.0	ltm	88	diff_vonmises	-0.3182754068668942	-18.235837536282137	16.884108412546844	0.229584899446324	8.465416681819644e-38	1.1058935759723554	0.19742514573912054	-0.17600842914957204	0.37343357488869255	32.95689879806545
10	4.0	perception	88	diff_vonmises	-0.0740176379416468	-4.240898263583752	3.4776436910968105	1.9675713398242238	4.2530298985153587e-17	2.4450409569746467	1.0113137370953684	-0.38780482744814876	1.3991185645435171	73.55939330783161
11	4.0	wm	88	diff_vonmises	-0.23833694997670718	-13.655701335685945	0.8154617400494435	157.094401012648	0.8023700172978204	158.010621738915	0.11409715967403145	-0.24738128723014086	0.3614784469041723	94.00667856003791
12	5.0	ltm	88	diff_vonmises	0.031011404840375897	1.7768226141251113	1.006117997793053	69.23490550411029	0.9822517385922206	69.84425485015404	0.10656151358802646	-0.17342419046226	0.27998570405028644	85.47510705306078
13	5.0	perception	88	diff_vonmises	-0.05873986074887299	-3.3655461100965853	2.148311716210699	2.3186513349985116	0.19295176875553566	2.613408834756419	0.748978592601539	-0.3276383588711396	1.0766169514726787	87.9105605456391
14	5.0	wm	88	diff_vonmises	0.07109905343538599	4.073675689222734	0.39621077093246604	70.91470292124252	0.37427296595861215	71.50103049766993	0.1534219944972488	-0.2550576153013884	0.4084796097986372	135.1012056927119
15	6.0	ltm	88	diff_vonmises	-0.4479680138799602	-25.666676552179602	0.4107559954572796	121.88403217523036	0.39799458674690846	122.43580351128473	0.15989726914046187	-0.24681711187990274	0.4067143810203646	131.75920039555513
16	6.0	perception	88	diff_vonmises	0.13118990092253138	7.5166276376004735	0.3660518110637242	183.6752924028928	0.3526412988707193	183.89354657485345	0.3997207692342002	-0.3355990399338644	0.7353198091680646	140.01768323128363
17	6.0	wm	88	diff_vonmises	0.05047233248402682	2.8918516335157833	0.21372002846860874	7.277877198465964	7.92229381353474e-09	7.772946255583738	0.18096488366517804	-0.31227167560790425	0.4932365592730823	167.71933798509573
18	7.0	ltm	88	diff_vonmises	-0.0886461316624858	-5.0790492144214525	0.8474996814871023	80.25158851186669	0.828345254336077	81.02848309148085	0.0532989786148228	-0.19209839592744515	0.24539737454226795	90.54294374152022
19	7.0	perception	88	diff_vonmises	-0.06961931468326328	-3.9888929039441474	1.4165247123003908	2.287168262173474	0.1699584798903278	3.018204991104694	0.39174564768327813	-0.34606675725079017	0.7378124049340683	104.59967147103087
20	7.0	wm	88	diff_vonmises	0.13490980561163338	7.729762476476942	0.49255822491169604	63.581192418585765	0.4708575585846703	64.2319454068583	0.10008801179505333	-0.2193382454720032	0.31942625726705653	123.08590612969569
0	1.0	ltm	89	diff_vonmises	-0.5718998879088613	-32.76744988118261	0.2992331475185333	2.407860615108997	3.1534763987547704e-16	4.105825767198702	-0.14794304428017013	-0.3756003257240501	0.22765728144387998	156.37134847249024
1	1.0	perception	89	diff_vonmises	-0.1224309332779882	-7.014775758676505	14.368990843943363	0.6706876172875009	0.02503090693538219	2.5960201219564336	0.5815561902089046	-0.417545367308344	0.9991015575172486	35.61157458451598
2	1.0	wm	89	diff_vonmises	-0.127125088475116	-7.283731039851329	3.795593087440625	0.49629630286707205	0.11369366992682392	1.9716442608346412	0.020308905995688076	-0.3045181080089785	0.32482701400466657	65.71540332272863
3	2.0	ltm	89	diff_vonmises	-0.10274501356098793	-5.886855643059018	4.595483283561637	0.364853104835549	1.541766832169782e-18	1.3088629263908802	0.09409653727792036	-0.20828117156550496	0.3023777088434253	63.754289119438056
4	2.0	perception	89	diff_vonmises	0.018499699473648195	1.059954702100432	6.082249942977357	1.5963995466482503	0.5462371556792829	2.512099562105361	0.8938639409580083	-0.42241319377574976	1.316277134733758	51.27530754652153
5	2.0	wm	89	diff_vonmises	0.3451739619771097	19.77701121909754	3.355598246315709	0.4549699886913901	2.953139750034666e-11	1.3025145234931816	0.1101392810089315	-0.2069152139646903	0.3170544949736218	74.90356047734471
6	3.0	ltm	89	diff_vonmises	-0.16106745127797942	-9.228485175157239	1.5467436977215936	130.12031802886867	1.527879276676598	130.86866620236523	0.09824379480009782	-0.22525199557373554	0.32349579037383336	67.09880893391107
7	3.0	perception	89	diff_vonmises	-0.041726216648151994	-2.3907361089876216	4.445131642720663	2.112102101561834	0.5072006526724424	2.8109743566021175	1.022035455181308	-0.4158498715652832	1.4378853267465912	59.60697453613733
8	3.0	wm	89	diff_vonmises	0.24763816050802562	14.188621443493126	1.0105391791158593	117.72736792509706	0.9947293949607979	118.0263236745113	0.2501548004710443	-0.15790691089880582	0.40806171136985014	90.34820930830514
9	4.0	ltm	89	diff_vonmises	-0.4194568074581334	-24.033104755382638	6.609151832361709	0.4325698759745952	0.17931817591481666	1.8980721516100627	0.0760493544458955	-0.3137335102542641	0.3897828647001596	50.04536334621571
10	4.0	perception	89	diff_vonmises	-0.06400827431484564	-3.6674039721562863	1.8618116430853513	3.9487469889416675	0.4989948664472382	5.2849422291155115	0.6475382042835971	-0.5080553542173423	1.1555935585009394	83.30247860456961
11	4.0	wm	89	diff_vonmises	-0.40764759733214045	-23.356486855780084	0.9507731144713251	198.64243485171315	0.9390256640823429	200.15103749069206	-0.054770422263786145	-0.3229318895466804	0.26816146728289425	79.76807913152163
12	5.0	ltm	89	diff_vonmises	-0.12473997827207518	-7.1470742915434995	1.2033011531682503	144.84846693238634	1.1862155067850237	145.43995494804864	0.23475768806953567	-0.21411469890591128	0.44887238697544696	80.3192052224918
13	5.0	perception	89	diff_vonmises	-0.10316296604268742	-5.910802556297417	1.0630655217574796	121.72722610472762	1.025861833712446	122.31684108398082	0.6487530655130413	-0.36547411078769976	1.014227176300741	89.17771127889097
14	5.0	wm	89	diff_vonmises	0.04414648884134526	2.5294074909304674	1.127550352494386	1.419077282372517	2.7124517028459403e-14	1.7788456785637805	0.23580338019406666	-0.22869292021059784	0.4644963004046645	123.43194609355074
15	6.0	ltm	89	diff_vonmises	-0.4491396676733233	-25.7338073695898	0.7675568117479843	110.44877143014234	0.7530049029380803	110.98882008176676	0.14773352720865773	-0.18238291480708746	0.3301164420157452	100.027379730486
16	6.0	perception	89	diff_vonmises	-0.022577431783895933	-1.2935915534617584	0.5576843068136056	126.30329038900592	0.540150970868373	126.91568620142091	0.26103846844137735	-0.2919451498953496	0.5529836183367269	119.36597449272479
17	6.0	wm	89	diff_vonmises	0.23116314328763488	13.244672489359385	0.0002820311379809252	3660.2117684712557	3.162779310895185e-34	3660.8147710615326	0.06833388511540761	-0.26025240373724046	0.32858628885264807	178.2231105600659
18	7.0	ltm	89	diff_vonmises	-0.011630666610709802	-0.6663881097173973	1.2681263008302748	144.4421480335009	1.2486168519126937	145.72421138219397	0.018258923137310035	-0.3159493009757135	0.33420822411302353	71.27730124041679
19	7.0	perception	89	diff_vonmises	-0.24453128166223412	-14.010610398170797	0.7977232954506983	117.81363714910317	0.7659735246350735	119.09392187282468	0.33389160311180177	-0.4215227292242574	0.7554143323360591	98.41545915935859
20	7.0	wm	89	diff_vonmises	0.6762258042394556	38.74488458076061	17.220267444091014	0.2738163180388902	0.12002331106624803	1.261333648825639	0.22431304977062166	-0.21524221128376209	0.43955526105438375	32.20216265414021
0	1.0	ltm	90	diff_vonmises	-0.01579598225937141	-0.9050431167255042	0.9522301486765357	1.0961210886528177	5.300766091488002e-31	3.6640787804878427	-0.2185252187693621	-0.5288614591081213	0.31033624033875923	130.60154494942006
1	1.0	perception	90	diff_vonmises	-0.08874192955222061	-5.084538029189517	10.783259686878997	0.7129611236563277	0.06548403685816924	3.4199279234266524	0.34216896627135684	-0.5576881894820978	0.8998571557534546	40.72625566350098
2	1.0	wm	90	diff_vonmises	-0.02003078658891286	-1.1476795318719577	2.215038769276504	1.0945718709430443	0.1698952695457989	3.3889276131200754	-0.03422334418540329	-0.47559605308165526	0.44137270889625196	80.6734241888131
3	2.0	ltm	90	diff_vonmises	0.1325656387107093	7.595451606579731	1.8518442142812184	0.5170525715356719	1.9776413986048675e-35	1.7439713834340758	-0.02299251212094572	-0.2712904117700763	0.24829789964913057	100.55400562205455
4	2.0	perception	90	diff_vonmises	0.02024519887387277	1.1599644508759168	6.017024347187544	1.4835120984238839	0.47882442916968365	2.534749710234005	0.8034033992377724	-0.4233957956679841	1.2267991949057564	51.72780819180761
5	2.0	wm	90	diff_vonmises	0.30218585044899027	17.313973859298617	3.039483855285311	0.704494713289485	0.18145977388235873	1.5815441170918423	0.16551865665410914	-0.22885016572885652	0.39436882238296567	72.71165019676644
6	3.0	ltm	90	diff_vonmises	-0.24645006395499028	-14.120548525350161	1.2301706031388504	60.12165309714614	1.199232803366732	60.87549244788431	0.05712371914961878	-0.19641393350648695	0.2535376526561057	74.6764716380388
7	3.0	perception	90	diff_vonmises	-0.05849153874480454	-3.351318307303233	5.1777208367181595	1.5687221780563863	0.2069625081305997	2.2202000129631063	0.9557008119294894	-0.3438440483746391	1.2995448603041284	57.9479911135237
8	3.0	wm	90	diff_vonmises	0.18769474116136597	10.754116505346682	0.906400800494358	53.72080567966749	0.8729887223690193	53.968535021803476	0.26333457627482204	-0.15898435769099972	0.42231893396582176	96.57418067385481
9	4.0	ltm	90	diff_vonmises	-0.32490632576224093	-18.615761203279057	2.8835198871608045	0.5359909655679506	1.9987329745774036e-18	2.032708205931403	0.01965191401667865	-0.32244164636671563	0.3420935603833943	80.92199009768102
10	4.0	perception	90	diff_vonmises	-0.021576300387179635	-1.236230949691877	2.222411584974326	2.931455334394666	0.3600080756813923	4.188533649243636	0.6859674626703517	-0.4899423461336263	1.1759098088039779	80.92616204067471
11	4.0	wm	90	diff_vonmises	-0.19140451688766688	-10.966670997403803	0.7340810711053969	185.11905659398306	0.7226472725212121	186.59063417305848	-0.021251793668078278	-0.3191372994180419	0.29788550574996364	93.09776267124668
12	5.0	ltm	90	diff_vonmises	-0.20755629148395494	-11.892099513417728	0.9208833733871238	143.74642791798533	0.9031355073781253	144.89860310969075	0.11307744630082084	-0.29666864042160057	0.4097460867224214	87.54675864062018
13	5.0	perception	90	diff_vonmises	-0.06154924960521209	-3.5265122345759012	0.9765959875151855	300.99581422637954	0.9601574348890813	302.17028301902246	0.5458737315739342	-0.4602009170068797	1.0060746485808139	90.15108449175915
14	5.0	wm	90	diff_vonmises	-0.018752858345459044	-1.0744596370014872	0.5916580152376228	4.911943845811202	0.20749505009790273	5.612069006069017	0.209229144836927	-0.3209584354525226	0.5301875802894496	134.66263276922547
15	6.0	ltm	90	diff_vonmises	-0.49813600346271375	-28.54109062192766	0.6981585849907127	199.89172434308745	0.6849256998328833	201.10567925405854	0.16199409741398085	-0.3439832325397667	0.5059773299537476	102.29540566659489
16	6.0	perception	90	diff_vonmises	0.002790541011622823	0.15988622252415496	0.7339462546496854	240.1886418180621	0.7182088188375554	241.42173852525917	0.3659945481381328	-0.43634740640875336	0.8023419545468862	102.73761720781258
17	6.0	wm	90	diff_vonmises	0.1486390722079042	8.516391508253202	0.5111530102151257	3.120546408102297	2.399244384794203e-32	4.327259107950736	0.08775015892512683	-0.4093537281470275	0.4971038870721543	151.1885004916122
18	7.0	ltm	90	diff_vonmises	-0.10706453553590212	-6.134346021735615	0.8705917077160539	112.62187602496607	0.8486525931530664	114.43821259002345	-0.09705243529316476	-0.3734557828736502	0.27640334758048546	82.31525116523721
19	7.0	perception	90	diff_vonmises	-0.13324778425483255	-7.634535667271648	1.320137090485985	2.2632113957887885	3.0889465973471015e-18	4.043852967463576	0.26419380742076704	-0.5788322089522016	0.8430260163729686	116.29901427894804
20	7.0	wm	90	diff_vonmises	0.3209149135757119	18.387070130693857	0.79074954531849	85.99348580536082	0.7613466558574044	87.37951288993308	0.07219209169597107	-0.33573391301034405	0.4079260047063151	93.62236635459337
0	1.0	ltm	91	diff_vonmises	0.001594132152377388	0.09133704431733017	4.764068017757944	0.4849378655966816	9.620705794210386e-20	3.666240550713796	-0.17371533907467207	-0.5834704836873963	0.4097551446127242	62.589623067714086
1	1.0	perception	91	diff_vonmises	-0.10517814995319821	-6.026264089312354	9.970309101012864	0.7006089647415294	0.03177749747959545	3.8195422929095955	0.2435700388506219	-0.6133351945349821	0.856905233385604	42.57798485679416
2	1.0	wm	91	diff_vonmises	-0.1305341961039126	-7.479058518887226	2.445933827845134	1.2565503193767518	0.2399331491660301	4.205563681540152	-0.10768294015731927	-0.5964767283271273	0.488793788169808	73.93319910804232
3	2.0	ltm	91	diff_vonmises	0.06809155376774767	3.90135865138006	2.056918824749104	0.6524598169638987	4.0742912992066796e-17	2.4458984977957345	-0.04693274547920695	-0.3836812126281279	0.3367484671489209	95.71933659291099
4	2.0	perception	91	diff_vonmises	0.04493107290559295	2.5743608464850807	4.644110254001696	1.8252736174043689	0.4801765752561125	3.394621342035958	0.6962586420025194	-0.5305835881668083	1.2268422301693276	57.358665703927954
5	2.0	wm	91	diff_vonmises	0.3826054388163833	21.92167686292961	3.212586055719397	0.6955012601333136	0.04881671459264786	2.029967654163713	0.13450705614137431	-0.3113905497634845	0.44589760590485883	74.17149920748753
6	3.0	ltm	91	diff_vonmises	-0.16102614955204936	-9.22611876057484	0.898561788698427	111.12129472675944	0.8713045943846028	112.82947748331661	0.03532042438683902	-0.3930306584508987	0.4283510828377377	85.98703546708143
7	3.0	perception	91	diff_vonmises	-0.0669976365451345	-3.8386818113876533	3.726827133658731	2.1038211568775553	0.17921885417675842	3.7478520815365934	0.8480896173979335	-0.5555055886738114	1.403595206071745	67.30710928894831
8	3.0	wm	91	diff_vonmises	0.3443504053805981	19.729824901927266	0.4105427581050778	115.67704036540931	0.3903353964655053	116.43080422234995	0.25818555902867146	-0.3647862961733743	0.6229718552020458	133.01354610601888
9	4.0	ltm	91	diff_vonmises	-0.42256750191834164	-24.211334419307295	0.7237496278712059	172.78014061004424	0.7038533888084529	175.43585925311083	-0.10207100707655314	-0.5516752520180255	0.44960424494147233	92.14812476646766
10	4.0	perception	91	diff_vonmises	-0.010542756698773099	-0.6040554632729751	0.8749027109411122	400.31559918554177	0.8596816722119306	402.4143393587469	0.5008340061996677	-0.6550921721221385	1.1559261783218062	92.94900270758063
11	4.0	wm	91	diff_vonmises	-0.35453971815008417	-20.313629519757573	0.738597454727262	219.20936144551794	0.7242094475404418	221.8815416586114	-0.17090241744526935	-0.5310507700121576	0.36014835256688826	88.35591804028579
12	5.0	ltm	91	diff_vonmises	-0.30952595870758925	-17.734531083685457	0.7954080193089689	129.030576303309	0.7724947922978743	130.13177620732287	0.23600474564597107	-0.34037897618244983	0.5763837218284209	97.53113269469794
13	5.0	perception	91	diff_vonmises	-0.10108276615605935	-5.791615882250037	1.02855183556694	264.7109700137992	1.0075598614836816	265.8883809205338	0.6454640321567808	-0.4934097791848586	1.1388738113416395	88.39713340159952
14	5.0	wm	91	diff_vonmises	-0.08040593371925595	-4.606920649922	0.3505084241986145	175.58973695225626	0.3383949920577847	176.28542100682557	0.23416774213160352	-0.3491703264228363	0.5833380685544398	140.07472496596466
15	6.0	ltm	91	diff_vonmises	-0.48252128653983384	-27.646433243955137	0.7214362747388491	185.25414031267704	0.7096929367318493	186.34337597152071	0.10293763354891183	-0.2867929063624004	0.38973053991131223	99.32488692660908
16	6.0	perception	91	diff_vonmises	-0.07757242175589664	-4.444572373221684	0.5186550758494242	226.16628163660715	0.505921709688412	227.38698057828105	0.2366892953694233	-0.4312913679503545	0.6679806633197778	120.56419473598531
17	6.0	wm	91	diff_vonmises	0.30891092687790306	17.69929235557823	0.0004867445604420406	2520.4406723069783	3.1318538575067544e-26	2521.616257751435	0.008173831801002507	-0.38232678427675637	0.3905006160777589	176.94951947081415
18	7.0	ltm	91	diff_vonmises	-0.5186397081809999	-29.715866366667928	1.9926362619607825	0.722431919734147	8.163154482328018e-32	2.7538774691729846	-0.06644040062862971	-0.43138110436849925	0.36494070373986953	96.77315115389838
19	7.0	perception	91	diff_vonmises	-0.13136881438216214	-7.526878623735399	0.6141786247812688	295.23134040294053	0.5978071531632713	297.5429925544986	0.302374390742429	-0.681850059998947	0.984224450741376	109.54915526831614
20	7.0	wm	91	diff_vonmises	0.2801189058510089	16.049631067085272	1.0476588820910748	147.10905697964478	1.023804140367833	149.04673045024504	-0.00918219770314721	-0.44056638413688276	0.43138418643373555	77.95705553952732
0	1.0	ltm	92	diff_vonmises	0.16624053471902103	9.524881023397937	1.814693892867595	0.6659428517313891	4.4995623333974937e-26	4.404545768983469	-0.3771500905838367	-0.692411497340401	0.3152614067565643	101.47684316509694
1	1.0	perception	92	diff_vonmises	-0.037288534832207725	-2.136475670112064	7.386912544124956	1.1671734585677016	0.19037506770620505	4.814664701966795	0.3239688322099863	-0.8059280547538061	1.1298968869637924	47.60831570152291
2	1.0	wm	92	diff_vonmises	-0.04166999346454475	-2.3875147578561373	3.2652541262622834	0.6211468824714642	0.03752846560716348	4.141260134240045	-0.2572856248914469	-0.6455182470577309	0.38823262216628396	72.27129949152413
3	2.0	ltm	92	diff_vonmises	-0.04249714070697285	-2.434906803883152	1.6040842421565646	0.6926703576529527	3.124845359309303e-25	2.803722586636366	-0.13373497594111067	-0.43359093055202236	0.2998559546109117	107.31752034840278
4	2.0	perception	92	diff_vonmises	-0.030089279211622133	-1.7239887074166733	7.427048771331303	1.3244018881523754	0.20587758145931856	3.2590946964965415	0.7832918376670842	-0.540917211021918	1.3242090486890024	48.17920816830741
5	2.0	wm	92	diff_vonmises	0.14319002948610804	8.204184357907803	2.9083444681619164	0.8614093068021209	0.1289089556005185	2.7326264036401446	0.06156002739921934	-0.40527709018001806	0.4668371175792374	74.08643759736532
6	3.0	ltm	92	diff_vonmises	-0.2022689493311489	-11.589157123220327	1.959475574059702	0.7102130422601924	9.895638017874582e-21	1.8755157790587118	0.06336337712590617	-0.2913096304498616	0.35467300757576775	97.90890585294389
7	3.0	perception	92	diff_vonmises	-0.08876908894437248	-5.086094147733959	2.644183313251867	3.3043452993204774	0.5523481875870286	4.230252000001084	0.9270619781921647	-0.4823852316387687	1.4094472098309334	73.13506667758173
8	3.0	wm	92	diff_vonmises	-0.07370799071831415	-4.223156784548846	1.0387268970225818	98.94372317660476	1.009456579130273	99.68532046525931	0.29192011108564486	-0.26866420867432694	0.5605843197599718	87.01820090970017
9	4.0	ltm	92	diff_vonmises	-0.035701919401917345	-2.045569302246092	3.6888418067207795	0.5148896004860888	0.05750469515878881	2.9130376507387816	-0.11199418780908765	-0.4540679999105158	0.3420738121014281	67.63348036535609
10	4.0	perception	92	diff_vonmises	-0.11394798869955743	-6.528738836489039	2.525342819369049	2.5403209835763367	0.18268465017639107	4.195564623899282	0.7109958262718552	-0.5716525120153889	1.282648338287244	80.25748747678085
11	4.0	wm	92	diff_vonmises	-0.27880301121540524	-15.974235858181277	0.6323955864114268	193.55628120008865	0.6197450160951178	195.83695990532794	-0.14964216489504878	-0.4505887361301433	0.3009465712350945	95.68697812440541
12	5.0	ltm	92	diff_vonmises	-0.20980790376805966	-12.02110739439674	0.5153389615850572	141.1908268229502	0.49956654047785487	142.76002559848823	0.029639376996776434	-0.3920307037189801	0.4216700807157565	115.51101668749953
13	5.0	perception	92	diff_vonmises	-0.06854193267889312	-3.9271634621703924	2.2365914988370785	2.8831013460953496	0.2691375264326693	4.471612837753979	0.6758952183281932	-0.5584624919781528	1.234357710306346	82.37869658317936
14	5.0	wm	92	diff_vonmises	-0.27800163832734376	-15.928320573879144	0.4450638904416556	191.23612895759447	0.4331516682984498	192.70806253993942	0.07639559200261203	-0.41565223177306265	0.4920478237756747	125.12642134193962
15	6.0	ltm	92	diff_vonmises	-0.37762612665735545	-21.636383291339136	0.5170365817229788	161.40205846025592	0.5035681759104154	163.16022177740558	-0.02805607300530255	-0.4022681041955991	0.37421203119029656	112.61904081220918
16	6.0	perception	92	diff_vonmises	0.19010280498344098	10.892088399149722	0.1968417581560076	18.543863278674255	0.06138956178747526	20.026491152956254	0.1729363504819239	-0.5940180328509395	0.7669543833328634	163.9836014562709
17	6.0	wm	92	diff_vonmises	0.08656309032512213	4.9596997372392275	0.3010692345654981	49.00719841238733	0.26606091061548465	50.77318005173166	-0.054832899625878895	-0.44150011734817873	0.38666721772229984	142.61794863613716
18	7.0	ltm	92	diff_vonmises	-0.5070889522635034	-29.054056802409615	1.7987744764306492	0.8543417251237045	8.797028655589983e-13	2.1847446015513867	0.06556732645251018	-0.3363928182891159	0.40196014474162606	101.3947344335178
19	7.0	perception	92	diff_vonmises	-0.08929950682675737	-5.11648485377288	0.5096227826161375	308.78719191774996	0.49847524725064624	310.6023147013354	0.19641966440917713	-0.5519140269206808	0.7483336913298579	119.6095098519554
20	7.0	wm	92	diff_vonmises	0.20845444462051485	11.943559897499048	0.7806721833302899	58.49127943224565	0.7342749839962344	60.04416040449425	0.06608335361668694	-0.3710776496341772	0.43716100325086416	94.41019003025409
0	1.0	ltm	93	diff_vonmises	-0.11345500776239974	-6.500493109409499	1.05677301429359	0.989403774375869	3.611572443032408e-24	3.4216023901040304	-0.1958911304644238	-0.5024386814832017	0.3065475510187779	126.17090417430015
1	1.0	perception	93	diff_vonmises	-0.08077064113489589	-4.627816845595293	9.940642221090426	0.961328825498567	0.15448096866835972	3.4552315201959947	0.5549971973261015	-0.5823130314620307	1.1373102287881323	41.93806706111735
2	1.0	wm	93	diff_vonmises	-0.12813871895533782	-7.341807788353858	4.511138112303057	0.4332200969062851	0.001353790707531784	2.6572411300563976	-0.06799645468143384	-0.4223512739195596	0.3543548192381258	64.24494760275829
3	2.0	ltm	93	diff_vonmises	-0.04245943347523594	-2.432746338647505	3.072764325537403	0.5123685838865211	1.6919550357628878e-18	2.0583708304931703	0.01255665239045739	-0.3268707946091415	0.33942744699959887	78.3757618060842
4	2.0	perception	93	diff_vonmises	-0.02415163380926002	-1.3837866856160665	6.534736894580247	1.3697693289284485	0.24491572552984398	2.808260906195043	0.8052952774826483	-0.4602372770631745	1.265532554545823	51.11878291234666
5	2.0	wm	93	diff_vonmises	0.17536105329305832	10.047448244660949	3.0053529161411263	0.6359281832170479	0.04561938748030155	2.0010093913634233	0.08376693409236163	-0.30653324964304973	0.39030018373541137	76.55173654520499
6	3.0	ltm	93	diff_vonmises	-0.18243678686495962	-10.45285791528992	2.137136424003621	0.9573890806037815	0.21082355313382695	2.008446353478019	0.12368082947099146	-0.2649373216084302	0.38861815107942166	83.31497812277006
7	3.0	perception	93	diff_vonmises	-0.07544194796055918	-4.32250521638563	2.7691704358304228	3.224063653279564	0.5162384119589672	4.094025735901644	0.994120388908065	-0.48457014645249996	1.478690535360565	72.49240585289479
8	3.0	wm	93	diff_vonmises	-0.06012076146679547	-3.444665893160129	0.9849347608862857	120.60565434799867	0.9628084649618567	121.21082586456868	0.30333238367387594	-0.2451698647178766	0.5485022483917525	90.14273813825287
9	4.0	ltm	93	diff_vonmises	-0.16323975932171467	-9.352949257865589	4.9098620696906075	0.48168263945838696	0.09829091896582647	2.332427932260543	0.005041784517132053	-0.3695533206522546	0.37459510516938666	58.492188566136434
10	4.0	perception	93	diff_vonmises	-0.13295451259966384	-7.617732439179665	1.9448848115319708	3.734319310933278	0.3525432873154343	5.315766318414814	0.7270184730700624	-0.5881262451335139	1.3151447182035763	85.28321183026867
11	4.0	wm	93	diff_vonmises	-0.4041266634156632	-23.154752202421474	0.8122363018792307	194.64335661499982	0.7992333575048062	196.39056187843187	-0.04696235566802187	-0.37142693514310565	0.3244645794750838	87.37883419509748
12	5.0	ltm	93	diff_vonmises	-0.1664355232723407	-9.536053044556516	0.7398991251180632	133.83278576305324	0.7238950272917549	134.7444532938395	0.1451121838942413	-0.2648658922386051	0.4099780761328464	99.94343661632372
13	5.0	perception	93	diff_vonmises	-0.07212747078903171	-4.132599663164647	2.170301344761788	2.625939361689952	0.22704671652416483	3.550868121459468	0.7228551886942286	-0.4432537560210948	1.1661089447153234	85.55415885224579
14	5.0	wm	93	diff_vonmises	-0.2086534540983234	-11.954962300660581	0.4846795028629311	112.81350277152131	0.4672572552509088	113.71005221215265	0.15017796361086155	-0.31107139124585714	0.4612493548567187	123.88016889288096
15	6.0	ltm	93	diff_vonmises	-0.370620791255273	-21.23500713872623	0.5410539420729021	113.78521619486771	0.5254737006573292	114.9142515827066	0.04898180562950216	-0.2934100137140039	0.34239181934350604	113.8131420936385
16	6.0	perception	93	diff_vonmises	0.09326566818623128	5.3437291605386035	0.2677157295727022	148.06068272127317	0.2524515351976655	148.97165888410117	0.21589303733152576	-0.41871509669812923	0.634608134029655	149.22663638704535
17	6.0	wm	93	diff_vonmises	0.11865552011336276	6.798460518425338	0.07625828923694412	13.225564906225559	2.063772050484968e-09	14.30296741878987	-0.007977984414403672	-0.32885484216393124	0.32087685774952757	175.1443343487447
18	7.0	ltm	93	diff_vonmises	-0.33135517396989456	-18.985252988298114	0.7750601316868695	101.39994608905154	0.7533344103001318	102.52995807433939	0.08759145868710405	-0.2858782652951444	0.3734697239822484	95.37104781488429
19	7.0	perception	93	diff_vonmises	-0.13753885507703362	-7.880395914975502	0.5852975071378724	310.554483008668	0.5739087654325153	311.97898294944207	0.29675307552682284	-0.48900823906177493	0.7857613145885978	113.90907861694822
20	7.0	wm	93	diff_vonmises	0.24947431380992838	14.293825278231164	0.9192221848291943	93.4963663184983	0.8941914864483765	94.58350228219686	0.09592291616533899	-0.2760751098216705	0.3719980259870095	87.51548097539947
0	1.0	ltm	94	diff_vonmises	-0.15315824429385214	-8.77532099567135	5.089246854185159	0.26406857310911336	3.9199664987974986e-17	2.523574044636155	-0.17049666484959625	-0.40163050435479597	0.23113383950519972	60.50973086216686
1	1.0	perception	94	diff_vonmises	-0.09055556808544994	-5.188451862705854	16.83477926637517	0.615677380054615	0.0003815275711800643	3.0849695110085356	0.5088254731667523	-0.4910374108894345	0.9998628840561867	33.00177771571305
2	1.0	wm	94	diff_vonmises	-0.1559310470559198	-8.934190891360046	4.783303410834317	0.4078917125286127	0.07372670105284373	2.546202204168418	-0.09023011910948475	-0.40327712167103213	0.3130470025615474	59.28486837253064
3	2.0	ltm	94	diff_vonmises	-0.11065716526694845	-6.34018854267779	5.113818759347779	0.4047415107098273	1.369475453336564e-23	1.657770111297279	0.0913242726134188	-0.26382946361789955	0.35515373623131835	60.36385709105295
4	2.0	perception	94	diff_vonmises	0.002840032435916654	0.16272187225828272	6.866586766532537	1.510413236916158	0.42485538180231974	2.8496970160240513	0.8846182220637357	-0.48981714199770426	1.37443536406144	48.91840460483732
5	2.0	wm	94	diff_vonmises	0.005189915723675125	0.29736026699516904	3.2624175588899185	0.6847349038946908	0.18290448578705396	2.072959334631458	0.07741143652796678	-0.3091732893603498	0.3865847258883166	69.10888555845517
6	3.0	ltm	94	diff_vonmises	-0.19076337381369243	-10.929936205201024	1.4040727137308244	152.72753480447048	1.384259054718391	153.77506851482667	0.1084197433755989	-0.2944695073325221	0.402889250708121	70.0985576363139
7	3.0	perception	94	diff_vonmises	-0.02467912185194235	-1.4140095242053807	3.5260375877991423	3.3890542013717733	0.8290588338302167	4.306906077530704	1.0990435995030448	-0.5424473425599015	1.6414909420629462	62.41555038440492
8	3.0	wm	94	diff_vonmises	0.04167609498913655	2.3878643494638427	1.7960868941142925	2.7622547894752083	0.7612643335115593	3.7628411723672026	0.22023512743288043	-0.2991253186022576	0.519360446035138	76.63315730922525
9	4.0	ltm	94	diff_vonmises	-0.4305784621384214	-24.670328629765056	7.188134199402286	0.3136778179604686	3.279053018720056e-42	2.2586623123093403	-0.030268093594953194	-0.3594770838298692	0.329208990234916	50.74355735535008
10	4.0	perception	94	diff_vonmises	-0.08607319824185222	-4.93163098845099	1.8538947938763826	4.7998751225692535	0.5380174413152933	6.427539160795716	0.7331786570047911	-0.6000682954351877	1.3332469524399788	82.3701359358488
11	4.0	wm	94	diff_vonmises	-0.14710666624383664	-8.428591114011454	0.6507727355116852	190.7123811124337	0.6391687820150724	192.7281590038268	-0.12982587063933693	-0.39898212400730415	0.2691562533679672	94.34594335380635
12	5.0	ltm	94	diff_vonmises	0.013849787692023167	0.7935343819051607	1.0791127738180315	104.60602372165472	1.0514252123505836	105.51409796020431	0.2252909104357741	-0.28168765240468296	0.5069785628404571	83.6323112290923
13	5.0	perception	94	diff_vonmises	-0.07825520265413773	-4.4836928370230495	0.9887899008866345	341.48327323541594	0.9741160930970693	342.4526244201584	0.6228170975798122	-0.44369487570501676	1.066511973284829	90.57597806923093
14	5.0	wm	94	diff_vonmises	0.061639747847991484	3.5316974019405105	1.1477939088921094	1.429568147234221	1.0556651103656839e-14	2.4001736624554875	0.14614440525167527	-0.328810180792691	0.47495458604436624	122.63628684939219
15	6.0	ltm	94	diff_vonmises	-0.4342680569005571	-24.881726837749007	0.7862685367696787	153.66607898473902	0.7736157511741565	154.51054670235612	0.1191371239084873	-0.23518584447050017	0.35432296837898747	96.24793457808013
16	6.0	perception	94	diff_vonmises	-0.0414764558657737	-2.37642587026946	0.5457727213502166	162.39948776213706	0.5297685312527517	163.272548486021	0.2681207278340736	-0.3598033895270891	0.6279241173611627	119.44885607126159
17	6.0	wm	94	diff_vonmises	0.08257547896862034	4.7312264361732375	0.1673340629821497	8.068281171165426	9.342272314933533e-10	9.003853277626959	0.07442443073417282	-0.3543221989621259	0.42874662969629873	170.20697463136665
18	7.0	ltm	94	diff_vonmises	-0.1166639414628822	-6.684351467184441	1.2753566235609073	163.48063020056807	1.2584867959599644	164.82800281766265	-0.021227631424991955	-0.3226567468219095	0.3014291153969175	69.74536886021158
19	7.0	perception	94	diff_vonmises	-0.06670355193273281	-3.821832004277295	0.5133601059737083	123.72629897358557	0.490046698381741	125.27663463620385	0.15960811250676343	-0.46730358995793253	0.626911702464696	119.73372752485231
20	7.0	wm	94	diff_vonmises	0.3562617252611905	20.41229325951548	0.8480706874011267	118.66388257283137	0.8326737572923832	120.01862428615091	-0.07110771481708866	-0.27800900128916517	0.2069012864720765	83.37226924336974
0	1.0	ltm	95	diff_vonmises	-0.1694282756914988	-9.70752512730184	0.0002977832119703892	1894.2016043552646	5.057211658088367e-33	1897.5819382132438	-0.44821816415810645	-0.6277621556641861	0.1795439915060797	179.16350265206887
1	1.0	perception	95	diff_vonmises	-0.045349998214364806	-2.598363498608923	8.16465387122666	1.0001863558773774	0.13908147824793743	4.474686248969638	0.3068846340649247	-0.7419266698679386	1.0488113039328635	45.88199934476722
2	1.0	wm	95	diff_vonmises	-0.023942934190567186	-1.3718290782789777	3.499845781064678	0.5911483678484862	0.07105370786556127	3.7252954937570446	-0.21352118577268858	-0.5794172517212085	0.3658960659485199	68.14044465673854
3	2.0	ltm	95	diff_vonmises	-0.06130173482265178	-3.512330682168097	2.0628180653055512	0.4665359371973912	7.105501259649416e-31	2.160891198346935	-0.09872085755954621	-0.3399552254033299	0.2412343678437837	95.59885923830353
4	2.0	perception	95	diff_vonmises	-0.011401441280927996	-0.6532544657634054	7.67431605003884	1.4346686461181895	0.33143161956089323	3.161137480716949	0.8758231906075088	-0.5454981001204254	1.4213212907279342	46.80222896149485
5	2.0	wm	95	diff_vonmises	0.22685873179080218	12.99804787730328	3.201808472121625	0.6393537477507943	0.07805965192485112	2.217712013102115	0.053460465238606036	-0.33768526373897756	0.3911457289775836	72.66124472425244
6	3.0	ltm	95	diff_vonmises	-0.23064324115543233	-13.214884291424326	1.9310275457011579	0.688808917988629	0.28570195726741854	1.5462782842238487	0.026973765896176283	-0.19348235193460947	0.22045611783078575	82.36947477065074
7	3.0	perception	95	diff_vonmises	-0.06960919255507403	-3.988312948719213	3.8934442719512536	2.147360696308543	0.5063817747357457	2.8471517880652577	0.920916046230844	-0.3995508228617083	1.3204668690925523	63.053232361539074
8	3.0	wm	95	diff_vonmises	0.05418331589602191	3.10447532086616	1.1440624857872679	177.32014668383127	1.1316749489865454	177.82175745672203	0.22547931688204415	-0.19035139461360018	0.4158307114956443	82.8173325201426
9	4.0	ltm	95	diff_vonmises	-0.2779740557743004	-15.926740210001563	3.3970860324477203	0.45274414095503734	0.1212722545094254	2.6827578454041747	-0.16218424231901335	-0.4156515680290168	0.25346732571000347	66.68353917228671
10	4.0	perception	95	diff_vonmises	-0.07007355734063091	-4.01491909108612	2.9252569733784184	2.009586445555115	0.1846287950172651	3.387485549790276	0.6543946387719235	-0.47698034341041395	1.1313749821823373	75.11870715949982
11	4.0	wm	95	diff_vonmises	-0.19633097513484232	-11.248936262914373	0.6377519618225713	171.33335420895762	0.6251277038388213	173.597260343383	-0.20145202243521965	-0.427091375100904	0.22563935266568436	91.61477196471262
12	5.0	ltm	95	diff_vonmises	-0.16980174577164114	-9.72892338666841	0.7484722453498669	89.68634602117308	0.7207989729432406	91.18500737522037	0.04122131957052133	-0.35003533490552385	0.3912566544760452	95.21687702106865
13	5.0	perception	95	diff_vonmises	-0.09972198017338604	-5.713648588622294	1.8659130204107652	4.0209596647061945	0.5098868070455926	5.467423372187259	0.629750176878825	-0.5255438578012757	1.1552940346801006	82.70787350860516
14	5.0	wm	95	diff_vonmises	-0.10572962141141395	-6.057861076390042	0.4331753762208863	146.5488965752107	0.41939265223917394	147.71539504154566	0.10223125978734515	-0.3593669542498841	0.4615982140372292	127.99691158421555
15	6.0	ltm	95	diff_vonmises	-0.4198154998619596	-24.05365631626528	0.6316725030530478	180.63668776966847	0.6204282430212359	181.9510607327341	0.031209075065916636	-0.31273483116249423	0.34394390622841087	103.45108114538276
16	6.0	perception	95	diff_vonmises	0.25472684047201605	14.594772887748727	0.034813677609250616	207.7535299050853	0.02393616970970445	209.04999761440044	0.1535506103338662	-0.5557268783654656	0.7092774886993318	174.6227064611985
17	6.0	wm	95	diff_vonmises	0.16181095190409733	9.27108462309913	0.6867451422685396	1.8354376254492375	2.0756964617420676e-15	3.334359794184093	-0.013030770787501256	-0.3995979018349799	0.38656713104747864	142.36063220262074
18	7.0	ltm	95	diff_vonmises	-0.5563420423497628	-31.87605099232992	1.6880433998846642	0.6476274530210205	3.4132893345587396e-18	1.9712012847326974	-0.012328602491141538	-0.303424282813135	0.29109568032199346	104.10651006592049
19	7.0	perception	95	diff_vonmises	-0.12953322760443445	-7.421707248441585	0.5695201786490226	203.99855006138822	0.553851075291187	205.68178563772238	0.17014833983673583	-0.4839086178379972	0.654056957674733	113.0887776264602
20	7.0	wm	95	diff_vonmises	0.24286974085563504	13.915411122463906	0.7025873493497269	64.97640689514812	0.6665102887707001	66.50794778280103	0.02041736441225339	-0.35150310074526114	0.37192046515751453	98.0610115026328
0	1.0	ltm	96	diff_vonmises	1.5518646100287783	88.91529253036437	14.487460020995366	0.14887248083766746	0.16416213924394304	3.250411895860961	-0.3814844072348442	-0.5752162566407771	0.1937318494059329	33.070942595771925
1	1.0	perception	96	diff_vonmises	-0.09741648903840987	-5.581553676883333	12.526007845148873	0.7084402482105947	0.16429526710201636	3.937786706735923	0.2559164715317377	-0.6807997232276262	0.9367161947593639	37.18024231294248
2	1.0	wm	96	diff_vonmises	-0.0381081623066367	-2.1834368651698113	3.5143104575514106	0.4900848621528977	0.07698142082732563	3.069336408888226	-0.1759377019275975	-0.4773341209005466	0.3013964189729491	67.71854302453474
3	2.0	ltm	96	diff_vonmises	-0.17763537263416215	-10.177757144171172	0.0008974525734699419	828.2020991171327	6.233134352547695e-24	829.815951106073	-0.13853112847920102	-0.37512083319714407	0.23658970471794305	179.0480314844853
4	2.0	perception	96	diff_vonmises	-0.01968832239737928	-1.1280577790627235	9.013383702763369	1.3309552226385684	0.4346282514666576	3.219794152287355	0.8154141857589413	-0.5940826123874492	1.4094967981463906	42.807317114983505
5	2.0	wm	96	diff_vonmises	0.23053178434573438	13.20849828663064	4.314264954732494	0.417075582608284	0.045319779493809574	1.9170340975967581	0.01502882404252609	-0.30067985268143094	0.315708676723957	63.822244718448815
6	3.0	ltm	96	diff_vonmises	-0.3970357216313937	-22.748471165409864	13.890781937655468	0.18866717159523447	9.805685575367072e-16	0.9975998158106606	0.11910295492849673	-0.15877294191359168	0.2778758968420884	36.35998001782215
7	3.0	perception	96	diff_vonmises	-0.06460339396185848	-3.701501816235437	4.116083521777606	2.451089566732745	0.8425413383797671	3.256409718082685	0.8988116752686579	-0.4559435687639323	1.3547552440325903	58.45594877156216
8	3.0	wm	96	diff_vonmises	0.13186561704075173	7.555343319323462	1.5554793399366915	152.79360289170174	1.538934826758458	153.29586029877888	0.21682357920784057	-0.1968007123756763	0.4136242915835169	70.26622282886828
9	4.0	ltm	96	diff_vonmises	-0.30775334414006356	-17.63296775026283	0.9961862023091718	79.05254709347446	0.9640351466350021	81.09012584377572	-0.20079710999013045	-0.4094092180656048	0.20861210807547437	72.37625411198108
10	4.0	perception	96	diff_vonmises	-0.10071042344815757	-5.770282216554793	2.587919788054805	2.5027799466362346	0.48738022151057286	4.023546229807673	0.5219072170221347	-0.49080944103569435	1.012716658057829	72.68408043489873
11	4.0	wm	96	diff_vonmises	-0.06029150037287701	-3.454448511877282	0.6646638390202676	90.0934601879257	0.648905973620841	91.99802508378889	-0.2534913243547763	-0.3379385792424614	0.08444725488768512	78.52579022643619
12	5.0	ltm	96	diff_vonmises	-0.10531254645799858	-6.033964441818725	1.9390344384284404	1.8313288415005426	0.5059514561893766	3.7278011150494335	0.0032796080214285706	-0.424403087346575	0.4276826953680036	74.86799011558188
13	5.0	perception	96	diff_vonmises	-0.09932704253899893	-5.691020329001032	1.0637627065501043	167.8688024657418	1.0284605735580543	169.84203971035404	0.43125199902023326	-0.5918388368757057	1.023090835895939	83.9875502354245
14	5.0	wm	96	diff_vonmises	-0.09210253752553843	-5.2770866826586404	1.778641140685819	0.9367602562730234	2.1193606514361446e-16	2.182518747254974	0.10268897232906449	-0.33452445687492083	0.4372134292039853	102.45956955272447
15	6.0	ltm	96	diff_vonmises	-0.33845029279661865	-19.391773352213217	0.8758634002715571	176.9435620832405	0.8587047488229343	178.70052718713788	0.025828456208508044	-0.40020375817096365	0.4260322143794717	86.6034916764142
16	6.0	perception	96	diff_vonmises	0.423312780127754	24.254035715269687	0.0009927042470385956	2080.820899012351	2.924456397412793e-25	2082.802268246158	0.013490396180088737	-0.6440166387963018	0.6575070349763905	174.47069701589695
17	6.0	wm	96	diff_vonmises	0.2264361201872108	12.973834016044238	1.2366050987349424	0.8911377238159722	5.053739955914154e-22	2.84811211542792	-0.10941885103048993	-0.4242979499827863	0.3148790989522964	119.03705172929315
18	7.0	ltm	96	diff_vonmises	-0.3467622241798147	-19.868011940072687	1.0103344498065887	179.04748998117142	0.9960832707193445	180.69680808425537	-0.0798009181883188	-0.3525091270013796	0.2727082088130608	76.47608066154824
19	7.0	perception	96	diff_vonmises	-0.3435964027899308	-19.6866237357401	0.40593526913808087	155.98005327305083	0.3912262197963243	157.85594516750623	-0.0043120408861341275	-0.4761023918041367	0.4717903509180026	127.63447985491568
20	7.0	wm	96	diff_vonmises	0.6960453962118704	39.88046355245135	7.668639231110822	0.37223462886780556	0.04866566129162193	1.936929942671891	0.08061676528230455	-0.310738837480012	0.39135560276231657	48.21369282298667
0	1.0	ltm	97	diff_vonmises	-0.2868200272642933	-16.43357704207121	0.00041983082914284775	2399.8683052026304	1.0811767573238376e-27	2401.7229874148643	-0.13481484254555198	-0.45551518425673976	0.3207003417111878	177.63769729862673
1	1.0	perception	97	diff_vonmises	-0.11215947554913504	-6.426264581366189	9.692585104022706	0.9152879620489017	0.1369908557645902	2.9049893991801428	0.5933558707539824	-0.4842066512030664	1.0775625219570488	42.65826883455219
2	1.0	wm	97	diff_vonmises	-0.05009190188049609	-2.8700545655358574	2.2954563207043663	1.0048389711282324	0.25332164959323095	2.5531563342897674	0.04786220596597923	-0.344877825440071	0.39274003140605024	77.77205024657212
3	2.0	ltm	97	diff_vonmises	-0.0007647038073739381	-0.043814300740111736	2.9319002754324957	0.39500983833749004	4.73015163903759e-15	1.4782769985127042	0.02006870052341342	-0.23454980468442968	0.2546185052078431	80.2671517755052
4	2.0	perception	97	diff_vonmises	0.020720182349783678	1.1871789993840656	5.174084908080231	1.6556269851955359	0.5003937905613918	2.5404699024008726	0.8349917813446657	-0.4028217410560997	1.2378135224007654	55.39399505911027
5	2.0	wm	97	diff_vonmises	0.5457649968957696	31.270030928098073	3.839340750918199	0.544145139103137	7.119126349492232e-13	1.2270999973267027	0.21377052037449262	-0.1951097849064772	0.40888030528096986	69.89931711970581
6	3.0	ltm	97	diff_vonmises	-0.15835359856430334	-9.072992868443473	1.5699629955319703	1.654909082235918	0.7031736366938515	2.3373990591027587	0.07039371870096789	-0.17680177800473942	0.2471954967057073	79.19529041654707
7	3.0	perception	97	diff_vonmises	-0.07996042706829902	-4.58139499907716	4.295254054618609	1.6113862306959281	0.10922009667087922	2.2121167122109076	0.8961447817751106	-0.33611015549829054	1.232254937273401	64.41472481365426
8	3.0	wm	97	diff_vonmises	0.32940815933488854	18.873697267062063	0.6230662610476068	90.02694199214307	0.6073300025830232	89.9176070729466	0.29770136354538934	-0.13510535496398912	0.43280671850937846	118.77683135752011
9	4.0	ltm	97	diff_vonmises	-0.3096699656344119	-17.742782072813043	6.331284673705634	0.4949735463543856	0.24715348076586033	1.8624478209329873	0.11239136155840296	-0.31151671362171773	0.4239080751801207	50.504955699857646
10	4.0	perception	97	diff_vonmises	-0.06067001048018145	-3.47613554352887	2.1129389783521266	2.5323903508470975	0.2581777027254841	3.707757267166299	0.5989592571271006	-0.453654044160405	1.0526133012875056	85.04716237013645
11	4.0	wm	97	diff_vonmises	-0.5682049696165913	-32.555746657389854	1.1871923841838716	187.95794452673405	1.1722251420532692	189.29221462896837	0.022157048198252483	-0.32241528157652155	0.34457232977477403	73.81288112069684
12	5.0	ltm	97	diff_vonmises	-0.3671366485995021	-21.03538046932906	0.9774223290605188	168.31909945065385	0.9650215186289007	168.9346083144557	0.18953815778481697	-0.20498991969707703	0.394528077481894	88.5560714366503
13	5.0	perception	97	diff_vonmises	-0.12000650408197579	-6.875866198016698	2.601708449242967	2.001000922102075	0.17107695861289599	2.521047665770281	0.7345351309384073	-0.34129077764757776	1.0758259085859851	80.66648423708929
14	5.0	wm	97	diff_vonmises	-0.1251136553925559	-7.168484413447645	0.4099878207359797	117.35286996163613	0.3964397883143337	117.4968102278124	0.2591250383321402	-0.20932205523650715	0.46844709356864733	135.68949197270882
15	6.0	ltm	97	diff_vonmises	-0.43835306515659167	-25.115780570095886	0.5692273591137682	103.14404213148961	0.5546114826710219	103.78353325369307	0.11982172880249209	-0.2150333581012589	0.334855086903751	115.07298084248855
16	6.0	perception	97	diff_vonmises	0.15904006665762613	9.112324592961262	0.23216478478692057	167.9064916958136	0.22060015506109729	168.51859998505648	0.2195995882103361	-0.34786498244378095	0.567464570654117	153.16465403305534
17	6.0	wm	97	diff_vonmises	0.44666830082597336	25.592208479608097	0.00017110671487331503	4840.313809667789	3.584101215591942e-29	4840.963225080817	0.028458372433647128	-0.23516244267455022	0.26362081510819735	173.92857017507487
18	7.0	ltm	97	diff_vonmises	-0.30169175111644925	-17.285664052883785	1.5027054373778548	0.8936455677574717	6.234502433508652e-16	2.116117807953934	0.050710170391943976	-0.31760147225021845	0.36831164264216243	110.07044041106481
19	7.0	perception	97	diff_vonmises	-0.24869068105618436	-14.248926428753418	1.1416157895720318	6.388892137337848	0.4976848033519068	7.559729899808511	0.49105222177623964	-0.4613779468160536	0.9524301685922932	98.74372867080459
20	7.0	wm	97	diff_vonmises	0.26241061004927396	15.035020455276625	1.024434352985576	43.05899196732774	0.9695420558287688	43.59787385756173	0.2661967993554928	-0.21584398477736366	0.48204078413285645	89.0132079702806
0	1.0	ltm	98	diff_vonmises	-0.037737327862247844	-2.162189616608251	4.093367820395622	0.44197635328479	1.4153726613711462e-16	3.747903985236346	-0.25238514394661515	-0.5964016686826121	0.344016524735997	67.6539856784006
1	1.0	perception	98	diff_vonmises	-0.0487318806925928	-2.7921310914206305	8.435114155645923	0.8645288725635519	0.03182574485762498	4.217342673254683	0.29316318818813314	-0.6747929813754637	0.9679561695635969	46.28488892675145
2	1.0	wm	98	diff_vonmises	-0.13156711046621386	-7.538240152445535	4.020557138934358	0.6549838327037734	0.10180445389198577	3.957245884829084	-0.19057112663276699	-0.6212950650676549	0.4307239384348879	63.005818865891314
3	2.0	ltm	98	diff_vonmises	0.04077238954369424	2.3360858415170083	2.150360334215796	0.6158249291171461	0.01721217876703693	2.3516165776099607	-0.04887975395016986	-0.36335739714376747	0.3144776431935976	91.77666587140604
4	2.0	perception	98	diff_vonmises	0.020345146977557956	1.1656910553874138	5.411761184220962	1.7627767964118557	0.3959743618070858	3.3867140374362896	0.8237900388617002	-0.5484097930448236	1.3721998319065238	54.46979411745019
5	2.0	wm	98	diff_vonmises	0.15347587559180886	8.793519928485534	2.337911357502244	1.1263687945804903	0.2420639845655136	2.7811011566574377	0.08238416385219915	-0.37728209859531264	0.4596662624475118	77.98062931256314
6	3.0	ltm	98	diff_vonmises	-0.14308978043342016	-8.198440510288602	0.8980186839919959	152.7081807912407	0.880164244112747	154.20238595060923	0.04297478763032814	-0.34802755526903084	0.391002342899359	86.15566555451454
7	3.0	perception	98	diff_vonmises	-0.04349145189309249	-2.4918766383704543	3.440866701974725	2.6522031750538906	0.4006831007477704	3.8857265872640814	0.9891844785181255	-0.5349580231992221	1.5241425017173476	67.15078867704656
8	3.0	wm	98	diff_vonmises	0.09706628542516159	5.561488487873975	0.7514938827751678	144.70716393097604	0.7322880509915896	145.74320024875536	0.2292436107937874	-0.3284747015181626	0.55771831231195	100.48263287867542
9	4.0	ltm	98	diff_vonmises	-0.3859498509132249	-22.11329756103113	0.565000060238569	161.88962182383395	0.5477261361898841	164.58678283268083	-0.16287248972259505	-0.5435793295900844	0.3807068398674893	102.70504051063703
10	4.0	perception	98	diff_vonmises	-0.03750152284399034	-2.1486789842740905	1.480182499386951	6.203904464370886	0.5132706354258458	7.988880953427622	0.6746790419149062	-0.6348851852104571	1.3095642271253634	89.51254057335083
11	4.0	wm	98	diff_vonmises	-0.17123811717031778	-9.811221405625885	0.5725391460159512	180.294229794581	0.55614117654895	183.15607162476837	-0.17884661450577966	-0.5730546858883478	0.3942080713825682	101.62446383164675
12	5.0	ltm	98	diff_vonmises	-0.16625489856819697	-9.52570401133328	0.7213139105300966	154.14586923406497	0.7046496146142127	155.24470528604633	0.1761779798398635	-0.32216811999235695	0.49834609983222045	101.34321221559807
13	5.0	perception	98	diff_vonmises	-0.09571374547565256	-5.48399365714427	1.0354513160361827	258.8631632142217	1.0134700411493671	259.9220408401611	0.7094111544296027	-0.4907400272478597	1.2001511816774624	88.73879303697541
14	5.0	wm	98	diff_vonmises	-0.0039529889269217175	-0.22648958197456262	0.33527304864222274	183.35092187041573	0.3237801207162992	184.39839056041458	0.1555565262489509	-0.3904777487453721	0.546034274994323	140.58932162417975
15	6.0	ltm	98	diff_vonmises	-0.4918769279416353	-28.182472010916218	0.6581158961032044	151.67801078239228	0.6461906980723435	152.6053523950557	0.08944674687717935	-0.25085184802738425	0.3402985949045636	104.35971478768694
16	6.0	perception	98	diff_vonmises	-0.031060031231463066	-1.7796087011073587	0.3169327106479996	212.23078237283613	0.3051748118039859	213.15515221798563	0.2528024512354534	-0.43366860933525686	0.6864710605707103	143.61900966289554
17	6.0	wm	98	diff_vonmises	0.13525133574336842	7.749330711601908	0.4432841559420752	3.320080782043377	1.7764552987897297e-13	4.395156671424245	0.08464863737411565	-0.3763815698567662	0.46103020723088184	154.80131670744095
18	7.0	ltm	98	diff_vonmises	-0.5862310575900888	-33.58856541940279	1.8217026529100722	0.6587025372407268	1.1677197531667e-32	2.1668519158350863	-0.023774354463516	-0.3364636728610902	0.3126893183975742	100.6247485684415
19	7.0	perception	98	diff_vonmises	-0.01937763407391045	-1.1102566493839643	0.617953916731081	297.9292165195572	0.60393434500182	299.8303881815273	0.2850830588131714	-0.578118592496665	0.8632016513098364	109.58576334513111
20	7.0	wm	98	diff_vonmises	0.15539294060345418	8.90335966270501	0.8309983548044716	181.1316175608731	0.8157781660140688	183.0133555272789	-0.05069927756120762	-0.4005904626366359	0.34989118507542827	86.38834721713869
0	1.0	ltm	99	diff_vonmises	0.11179454433718575	6.405355563108901	5.6024510310423885	0.37791730612944374	2.9363546229476305e-20	3.823379927705209	-0.26046147738252123	-0.6085050774763731	0.3480436000938518	57.61539700375292
1	1.0	perception	99	diff_vonmises	-0.10676320631923371	-6.1170811293765315	9.31524070317738	0.8063638078759008	0.17242846551614366	4.118414839378603	0.19487643091450702	-0.7007711854412423	0.8956476163557493	42.685766539808526
2	1.0	wm	99	diff_vonmises	-0.03742021226071153	-2.1440202310224676	1.7184710860874404	1.814550109698338	0.2776620145799114	4.714076501922303	-0.11786320101024317	-0.5877661240129941	0.46990292300275094	83.3032218091461
3	2.0	ltm	99	diff_vonmises	-0.07203195085488744	-4.127126774078812	0.0011051263907916281	809.7648200770748	1.320208397984516e-25	811.6894759393751	-0.1638529492562384	-0.4487053403289565	0.2848523910727181	179.78840273580596
4	2.0	perception	99	diff_vonmises	0.00440801447639873	0.2525606255302167	6.38777303369212	1.3317418070244222	0.36235373634282536	3.0370844324467	0.6419970406827454	-0.5124902047169312	1.1544872453996766	50.488726984869345
5	2.0	wm	99	diff_vonmises	0.4376184951232914	25.073692807430994	3.8361304293620035	0.5781422033043603	0.01164219157297253	1.8450382599045005	0.13736944541906793	-0.2906563025322936	0.4280257479513615	69.34980482222377
6	3.0	ltm	99	diff_vonmises	-0.3075426624132878	-17.620896576498048	2.9631522861002866	0.48385714050613904	3.435569342545739e-13	1.6630505715177797	0.04997577177246604	-0.26384299921727145	0.3138187709897375	79.81637845814213
7	3.0	perception	99	diff_vonmises	-0.10694570883092105	-6.127537753046754	4.075157092908697	1.7358697719981913	0.1876033919438538	2.937948585596346	0.7890909069972638	-0.44065284356723133	1.229743750564495	64.62371469029708
8	3.0	wm	99	diff_vonmises	0.1888131917761057	10.81819900516508	0.8205178813393402	87.87637966677879	0.7981562181424008	88.20736770188991	0.27484942095242815	-0.1888053224610493	0.46365474341347745	100.60385428618505
9	4.0	ltm	99	diff_vonmises	-0.2303772002476135	-13.199641270228478	4.392043694087906	0.46221120529909315	0.05723425441653692	2.614072635063263	-0.06632126649151837	-0.41113982109441	0.3448185546028916	62.46776656318667
10	4.0	perception	99	diff_vonmises	-0.06802195272470299	-3.8973708053638916	1.5449610468175268	5.253960628158373	0.5885531229096216	7.057177915945708	0.45809887967116003	-0.554824360864627	1.012923240535787	84.97788248195539
11	4.0	wm	99	diff_vonmises	-0.40589368028962036	-23.255994811627616	0.7856397316188722	176.54437230527833	0.7733566268136798	178.4489193424968	-0.15450226862116523	-0.37080998999779524	0.21630772137663	83.37682720782733
12	5.0	ltm	99	diff_vonmises	-0.44036095020217136	-25.230823908955035	3.34615420951815	0.745420434997498	2.6306956610892606e-17	2.4386087384120323	0.13115594672623604	-0.3874724859513671	0.5186284326776032	75.00236467874396
13	5.0	perception	99	diff_vonmises	-0.08038649785508571	-4.605807056933856	1.0288510783287674	118.20453574985372	0.9792161387685272	120.02476212725658	0.49458300592889515	-0.5804671294660437	1.0750501353949389	86.59627242216138
14	5.0	wm	99	diff_vonmises	-0.2495463440782165	-14.29795230860127	0.42121076095484183	207.52154149248852	0.4107430334649086	208.44869064434386	0.18645339231844105	-0.3568684080564921	0.5433218003749332	130.77599443826605
15	6.0	ltm	99	diff_vonmises	-0.40351121367346543	-23.119489529691123	0.7182030865231898	188.30141465872975	0.7017352781658255	190.31125811181244	0.018700609853539163	-0.45589629978629986	0.474596909639839	95.9375336713362
16	6.0	perception	99	diff_vonmises	0.1837553423957873	10.528405582259978	0.8053710868935622	3.762954352413051	0.10379116711620236	5.83576565676656	0.11883007505842236	-0.6059780358084355	0.7248081108668578	128.65198487279716
17	6.0	wm	99	diff_vonmises	0.06890943302113026	3.9482196807501935	1.7443911254876887	0.6648862172736605	5.64379040446598e-34	2.652941529965336	-0.10654942776639453	-0.41258851735538726	0.30603908958899273	103.37027790510473
18	7.0	ltm	99	diff_vonmises	-0.43886858973425974	-25.14531795263153	1.8123865078182988	0.9634949810987559	0.07506727054256357	3.095858085230749	-0.062162438167261025	-0.44546083371499146	0.38329839554773043	93.66396425430183
19	7.0	perception	99	diff_vonmises	-0.27744559864962937	-15.896461847104295	0.4462129976114607	155.4681386659479	0.4218005308770181	157.88616436185345	0.1396772269666542	-0.6943237365033106	0.8340009634699648	125.9313991603052
20	7.0	wm	99	diff_vonmises	0.40399382156860125	23.1471409252421	1.0424028718759482	104.34724325861121	1.0068648923889338	105.99301112715177	0.13541567111208508	-0.4175263214967444	0.5529419926088295	81.88374174150846
0	1.0	ltm	100	diff_vonmises	-0.5951363107570212	-34.09879884136353	0.31853160403660596	2.0015606774565993	2.4916674985510598e-20	3.325154690737679	-0.10206703269190692	-0.3033203759137796	0.20125334322187266	154.91286649114122
1	1.0	perception	100	diff_vonmises	-0.09707072013644434	-5.561742578113836	16.099086152123974	0.6753937066659594	0.005626469739860294	2.2854143213693954	0.7061763196136076	-0.36450265817063426	1.0706789777842418	33.7401166051867
2	1.0	wm	100	diff_vonmises	-0.10379028325381008	-5.946745184910663	4.57147229519545	0.3272052693557551	4.8958977814333854e-11	1.4641407327706466	0.03741823280400888	-0.23299630503161595	0.27041453783562486	63.924744851366455
3	2.0	ltm	100	diff_vonmises	-0.12732301737154636	-7.29507153026047	14.913060394250314	0.23103447255624135	5.394710598085254e-30	0.8272767173444695	0.221121776209437	-0.13166517887016974	0.3527869550796067	35.08346221777808
4	2.0	perception	100	diff_vonmises	0.0007627321136774436	0.04370133101281005	7.355865488644348	1.4730050053698176	0.5913165737672467	1.9986151820262104	1.037326629148266	-0.3538391657653706	1.3911657949136365	47.301848012986284
5	2.0	wm	100	diff_vonmises	0.0745466166560684	4.271206511372365	3.514890781670734	0.47083702603391453	0.15773037212178675	1.1328756449008406	0.12731527390905245	-0.16937747684903687	0.2966927507580893	68.5535814063316
6	3.0	ltm	100	diff_vonmises	-0.1887318742706253	-10.81353985530052	2.108318957654428	90.583830327545	2.0860885682222365	90.94514835092794	0.11548479076007112	-0.14985999446056653	0.26534478522063765	58.81479081354993
7	3.0	perception	100	diff_vonmises	-0.025716397872858173	-1.473441062393981	4.278040532521498	2.636996535956411	1.0534433767471163	2.716263902985829	1.1470746446198623	-0.3521588672785039	1.4992335118983662	57.738910378448026
8	3.0	wm	100	diff_vonmises	0.10402392043498877	5.960131609329535	1.5867379400017143	113.71414302542924	1.5681031994700705	113.96232964465452	0.25418514804971437	-0.14469121258267492	0.3988763606323893	71.864769541996
9	4.0	ltm	100	diff_vonmises	-0.4410876081743241	-25.27245834390892	25.159575920273106	0.2007730534278562	5.9938250338382145e-18	1.1417983348832728	0.2178915526482702	-0.18172284901076813	0.39961440165903833	26.97142899213435
10	4.0	perception	100	diff_vonmises	-0.07128423248630293	-4.0842856672945125	2.967573477599847	2.308048686934962	0.2746032288113495	3.1477016012011028	0.8552965966382792	-0.4227062216656382	1.2780028183039174	73.83295789099705
11	4.0	wm	100	diff_vonmises	-0.1937638270830008	-11.101849514158623	0.8598108409763128	139.9713067720172	0.847324544168644	140.97654871449024	0.01914306851337244	-0.23033231633990248	0.24947538485327492	87.55061960103652
12	5.0	ltm	100	diff_vonmises	0.040501564680258964	2.3205687198549603	1.4821999632595326	120.21783257569844	1.461421329120865	120.74368885603208	0.21529544997117256	-0.19936228747513773	0.4146577374463103	72.00669709941917
13	5.0	perception	100	diff_vonmises	-0.0719968390769184	-4.1251150173899855	1.005885220304296	206.22578135502556	0.986024882835974	206.6820082307318	0.6203727388250542	-0.3318973032140278	0.9522700420390819	91.80263928185121
14	5.0	wm	100	diff_vonmises	0.1655082801731708	9.482925928391449	1.275795961375012	1.1738936969556515	1.4727962134665377e-16	1.6417760945189526	0.20008870936295736	-0.2253250775916738	0.42541378695463117	117.77696472613721
15	6.0	ltm	100	diff_vonmises	-0.46485827543799235	-26.6344172543269	0.7525115419087249	110.6650114420133	0.7373399811706232	111.11672823516304	0.1887129679328723	-0.18313391861008377	0.37184688654295606	102.667874623539
16	6.0	perception	100	diff_vonmises	0.002240078704252244	0.12834705553078773	0.6929652921050341	125.60744672785317	0.6731559269016558	126.0178175016703	0.3591911355067907	-0.26612779213403215	0.6253189276408229	109.61396408351506
17	6.0	wm	100	diff_vonmises	0.09576930619589918	5.487177051921108	0.0008239011954523275	1651.5619971743406	2.360828548099796e-25	1652.0313831155765	0.14189760260757112	-0.2912185865806691	0.43311618918824024	179.58831097741793
18	7.0	ltm	100	diff_vonmises	0.08746350433695775	5.011289659931851	1.4946938407371901	150.02736042692266	1.4769708937540522	151.06594906489494	0.020835524713035625	-0.2769384232954657	0.2977739480085013	65.58107269116601
19	7.0	perception	100	diff_vonmises	-0.16659389386273588	-9.545127010985153	1.9188144604411468	1.264608194603072	2.4320557205315073e-12	2.1979037219767013	0.28638234095642967	-0.33609911815971905	0.6224814591161487	98.8966762299783
20	7.0	wm	100	diff_vonmises	0.6815874686356722	39.05208532182939	12.463433091599917	0.21330527653859785	1.9946605280013592e-15	0.9825444044751551	0.1409136981928984	-0.15637679877506114	0.2972904969679595	38.40049815111905
0	1.0	ltm	101	diff_vonmises	-0.5457939602537448	-31.27169040627058	0.23204839715717404	3.7839720214496446	2.732640699964272e-14	4.042111148677125	0.10608461868358321	-0.17216556837084546	0.27825018705442867	160.232093493369
1	1.0	perception	101	diff_vonmises	-0.12944062103761653	-7.416401283007722	15.7996190650182	0.7610099379690801	0.22212821322568027	1.1404455511670502	0.9725542577872417	-0.2028042865420641	1.1753585443293058	33.73704483818548
2	1.0	wm	101	diff_vonmises	-0.1391947841227573	-7.975273660468594	3.4510692114008545	0.3648302525167108	2.5629221184747483e-15	0.3309127263921251	0.2059087908121043	-0.05240636431705474	0.25831515512915904	73.84545729422115
3	2.0	ltm	101	diff_vonmises	-0.1369276445459514	-7.845376131150541	14.161270543864738	0.2624742190028085	1.1591659118064901e-17	0.1830033540059836	0.36130607204952875	-0.029125888392252743	0.39043196044178147	36.00549781807209
4	2.0	perception	101	diff_vonmises	-0.008497440350506638	-0.4868674687481973	6.741439674082983	1.301541462119113	0.6981467620857412	1.1188289552838255	1.002911134080569	-0.1860580593298526	1.1889691934104216	49.77904289261136
5	2.0	wm	101	diff_vonmises	0.6407422732765838	36.71182801436629	1.4566094207405844	0.542517659654058	2.6203212718892237e-20	0.29589363589849216	0.183759429902155	-0.03455703641656585	0.21831646631872084	110.09793771754056
6	3.0	ltm	101	diff_vonmises	-0.21458169787527415	-12.294625649004553	3.4697603180506147	44.36518344847098	3.426732011956641	44.35195463094585	0.2279165230752227	-0.08066305781747651	0.3085795808926992	49.927862478159284
7	3.0	perception	101	diff_vonmises	-0.04885665346830782	-2.799280044867234	4.610094364779986	1.9042841719881112	0.6001752250537465	1.7102529421711374	1.1268067638453387	-0.241595971379848	1.3684027352251866	59.4297944433539
8	3.0	wm	101	diff_vonmises	0.21380281478515248	12.249998935206474	4.493034888417487	0.9705815435775274	9.672924318248537	0.45071613689439594	0.3004069320819249	9.946103994649058e-05	0.3003074710419784	97.84735448757775
9	4.0	ltm	101	diff_vonmises	-0.34895895503740093	-19.99387534693853	13.178748921441453	0.35997942037303704	0.8173035190406326	0.5698633763879286	0.34130153237814315	-0.12707291408933394	0.46837444646747706	35.535480147928126
10	4.0	perception	101	diff_vonmises	-0.12085617955810367	-6.924549016754595	2.480799389692123	2.619948411115664	0.34810859547794093	3.2600550142996076	0.8239817103129919	-0.39250815588361954	1.2164898661966115	78.80745294138856
11	4.0	wm	101	diff_vonmises	-0.5606643989340868	-32.123703782162266	1.694224795620938	71.45179152678729	1.6725166365604274	71.64295967712795	0.17218211635241687	-0.10552746337442898	0.27770957972684585	69.11777494944144
12	5.0	ltm	101	diff_vonmises	-0.022856614091541685	-1.309587521404583	2.1474546286464267	77.25623207845264	2.1291101201832676	77.15592955696744	0.26743364113389845	-0.061706670174470624	0.32914031130836907	65.90202910925942
13	5.0	perception	101	diff_vonmises	-0.07134461166964066	-4.087745139670211	2.05657230279872	1.8468714588176072	0.08308636492628418	1.592281763645784	0.6940511733585413	-0.2169643564472939	0.9110155298058351	93.62014892395686
14	5.0	wm	101	diff_vonmises	0.029420703732067798	1.6856821541522748	1.6656632160168836	0.8403115191974768	5.569367802353319e-16	0.4831492393213245	0.3110018299114583	-0.06302924556572846	0.3740310754771868	105.54823647628209
15	6.0	ltm	101	diff_vonmises	-0.42972271803070533	-24.62129810404974	1.577630313286677	0.8398868213325238	1.5979237447765793e-24	1.0170807349491013	0.21322583352150126	-0.14588285960035688	0.3591086931218581	107.53667110989204
16	6.0	perception	101	diff_vonmises	0.020327965248935008	1.1647066148525798	0.8404154237049165	96.30565276292047	0.8207992187898179	96.33972275844317	0.3501558035224335	-0.15750506698932654	0.50766087051176	102.49790540490022
17	6.0	wm	101	diff_vonmises	0.1700680486254491	9.744181416263896	0.00023424668153260227	3324.6580606792463	1.3058364522423567e-31	3324.676680586295	0.12099086895830169	-0.12690325279174886	0.24789412175005054	178.98290992614446
18	7.0	ltm	101	diff_vonmises	0.1452895929569453	8.324480483606616	1.6804549137414717	167.5627476176493	1.6611190137613483	168.31455672873042	0.19952062900854628	-0.26483703166264405	0.46435766067119033	66.00491693302837
19	7.0	perception	101	diff_vonmises	-0.3677096442007285	-21.06821069895889	1.0938542516807073	161.65919073836864	1.0725543180276564	161.94501016420125	0.5443666537564766	-0.2591609902141663	0.8035276439706429	88.61939257339631
20	7.0	wm	101	diff_vonmises	0.6845164516181145	39.21990368498897	18.179662449164713	0.28563294641448056	0.38949198512172745	0.16929083583808316	0.44406138103744225	-0.03260253433682375	0.476663915374266	31.532269676459578
0	1.0	ltm	102	diff_vonmises	-0.4942111386107903	-28.316212430753207	0.00027152763617373444	2042.1331944265469	1.8576587999801083e-27	2044.3626310375564	-0.2665704957248636	-0.44306923765554984	0.17649874193068626	173.12701857644325
1	1.0	perception	102	diff_vonmises	-0.10093460522644918	-5.783126886294639	12.90132961031966	0.7563991938515116	0.1457662233652579	3.1605186395916895	0.49401454628586705	-0.5399236168017497	1.0339381630876168	36.96792379833363
2	1.0	wm	102	diff_vonmises	-0.09956451109385467	-5.704626274961336	3.7328117195073687	0.4354197231522774	0.03508215251736765	2.335855426971337	-0.06261273956362695	-0.3653996365002756	0.3027868969366487	68.548564410752
3	2.0	ltm	102	diff_vonmises	-0.09228226329681335	-5.287384210822427	11.92399466990194	0.27438695194295065	1.4769409351396162e-33	1.5465363479175098	0.12767570865295946	-0.24613890442592518	0.37381461307888464	39.27157396541921
4	2.0	perception	102	diff_vonmises	-0.016242371431365688	-0.9306193323011158	7.976850026054926	1.3095421565073762	0.3814771095029723	2.673236451383961	0.8499102903889904	-0.4699483379477915	1.319858628336782	45.82962388516117
5	2.0	wm	102	diff_vonmises	0.221747923404753	12.705220126882594	3.988944800906727	0.42048709023556674	0.006087596302867673	1.5946293203349555	0.06744890817934868	-0.25234574618475064	0.3197946543640993	68.18971111487068
6	3.0	ltm	102	diff_vonmises	-0.22954206404786814	-13.151791490664474	2.6961692691320946	0.8320047122370002	0.5873376564901585	1.5751278537294586	0.09795023498374061	-0.1999108264920888	0.2978610614758294	67.7721145567865
7	3.0	perception	102	diff_vonmises	-0.06335160637929507	-3.62977967090767	3.9023003676420602	2.4333296340823822	0.6598718377692414	3.1019828401612073	0.986626335138759	-0.42545277955810545	1.4120791146968643	61.67966983389482
8	3.0	wm	102	diff_vonmises	0.07537520420727711	4.318681081013705	1.3597282372983166	173.316218503797	1.3459515363661343	173.73701407805632	0.2591859390586819	-0.18453515366354978	0.4437210927222317	76.57244512483572
9	4.0	ltm	102	diff_vonmises	-0.390342499602289	-22.364977791798175	15.625137220697125	0.22532833317674025	0.07014109257713552	1.8217727048377754	0.04166617130250361	-0.30161400403930555	0.34328017534180916	33.76942335931696
10	4.0	perception	102	diff_vonmises	-0.11102637251228162	-6.361342559601032	2.370526953474412	2.8843512876698805	0.41704772819992497	4.3065711146166405	0.6510542139763685	-0.5088768140215295	1.159931027997898	77.28113454642184
11	4.0	wm	102	diff_vonmises	-0.3188700713368341	-18.269909300636076	0.8058092350377245	143.6583026955439	0.7933275974497542	145.16651365157853	-0.11361780508241992	-0.2972143791659576	0.1835965740835377	83.05230422474126
12	5.0	ltm	102	diff_vonmises	-0.07830035016311389	-4.486279598742913	1.0645082243859745	110.3702836101557	1.040271616998936	111.47173941116984	0.1187153345555032	-0.2894863118183615	0.4082016463738647	81.46082862854735
13	5.0	perception	102	diff_vonmises	-0.08001028807081371	-4.584251824083544	1.489917762912855	5.521503561192855	0.6253159140790606	6.731554268074803	0.5619458808278079	-0.4639405488231468	1.0258864296509547	87.0397384868138
14	5.0	wm	102	diff_vonmises	-0.09618456174264785	-5.510969442169205	1.486570668464995	1.064610115892921	4.4106105498953805e-16	1.9170536954851134	0.15350103140994753	-0.281651634883198	0.43515266629314553	110.85257927271782
15	6.0	ltm	102	diff_vonmises	-0.38364089914917954	-21.98100436985204	0.7535063387727793	124.61124801165435	0.7354130237708663	125.810986748409	0.08086335119769927	-0.29961601800151527	0.38047936919921455	96.31424210512186
16	6.0	perception	102	diff_vonmises	0.15976106172810436	9.153634567549402	0.9238067383184578	2.2749266284201597	3.242906785875846e-11	3.469335715042894	0.19231503073406586	-0.43482200272760085	0.6271370334616667	131.55894499099685
17	6.0	wm	102	diff_vonmises	0.18269664903507224	10.467746920892484	0.23872475461587017	4.1971189614884254	2.028651051843845e-11	5.431118251619666	-0.028249041884544135	-0.3456700665087715	0.3174210246242274	165.5373093970403
18	7.0	ltm	102	diff_vonmises	-0.19053850015338125	-10.917051893541535	1.064301371182766	188.40384588367883	1.0509566767067242	189.73143550387348	0.006561544097920091	-0.3070184917659269	0.313580035863847	77.59582103081019
19	7.0	perception	102	diff_vonmises	-0.2504308117191968	-14.348628571545332	0.5611724514511744	190.0280104059905	0.5458795403960593	191.53111126135812	0.1634018782371669	-0.4412438002947283	0.6046456785318952	114.19245145098228
20	7.0	wm	102	diff_vonmises	0.6032998246766486	34.566533734954476	5.624369535311213	0.3888597337107837	0.05858414495976103	1.5094902532464074	0.10433904330526972	-0.2391860703904384	0.34352511369570815	56.11153152172372
0	1.0	ltm	103	diff_vonmises	-0.1442706335381589	-8.26609840941505	1.1143522442903053	1.1109701847518687	7.26297833427326e-27	3.3631554995085446	-0.13174075044647165	-0.49181543416279644	0.3600746837163248	123.83539712517666
1	1.0	perception	103	diff_vonmises	-0.13075747761223883	-7.491851606957634	11.400712281120663	0.7195399998226906	0.07873236256985762	3.0321250105335533	0.4364596212361299	-0.49798196848130344	0.9344415897174334	39.61796070593354
2	1.0	wm	103	diff_vonmises	-0.08920861483665446	-5.111277126348439	2.0693082228409123	1.3706249701694084	0.29733085008079707	3.2965597352328517	0.03079295857556852	-0.424167319360851	0.4549602779364195	79.24978695496398
3	2.0	ltm	103	diff_vonmises	0.06884273497844393	3.9443981644024833	2.5160694813464985	0.530317137579136	9.32713369084528e-16	1.864596838222099	0.01696640966896501	-0.29471278571681425	0.31167919538577926	86.71158511078335
4	2.0	perception	103	diff_vonmises	0.03881814721643222	2.2241160040190704	4.632220128634381	1.7023417425346279	0.5182254837661873	2.8058432261965223	0.7151185883299966	-0.4329862287202408	1.1481048170502375	57.57386185169523
5	2.0	wm	103	diff_vonmises	0.4976840056991919	28.515193057728506	3.4605641633600097	0.6040853793699137	8.393946385377708e-12	1.4138320235411614	0.20373304115269533	-0.2245951945638808	0.42832823571657613	73.72145856964849
6	3.0	ltm	103	diff_vonmises	-0.19077872562546797	-10.930815799223641	1.1622391449810145	10.05562192231758	0.9284265679972883	11.1603199987475	0.08005657429857971	-0.27711521516831406	0.35717178946689376	80.81853135717563
7	3.0	perception	103	diff_vonmises	-0.07971821087504961	-4.567517033474244	4.186919958850883	1.709393160888129	0.058371969550985864	2.8573118738009167	0.8655245165675094	-0.4406646017204603	1.3061891182879697	65.71458000983608
8	3.0	wm	103	diff_vonmises	0.3724645123771552	21.340644577609208	0.4174442024395352	99.20241381279688	0.3985552757401938	99.33210297898282	0.3147855983494203	-0.24167053075359313	0.5564561291030135	134.25049181347774
9	4.0	ltm	103	diff_vonmises	-0.308511185709288	-17.67638887371896	6.143609735656652	0.4691075993837444	1.7392277093968836e-15	2.1691611764902206	0.10831499988100673	-0.34523063220439226	0.453545632085399	54.96503605516847
10	4.0	perception	103	diff_vonmises	-0.03735871409013168	-2.1404966454004666	0.9150244936396211	333.3336794869477	0.898108207137656	334.9931098944213	0.5386555219612177	-0.5692040835157854	1.1078596054770031	91.96748980447117
11	4.0	wm	103	diff_vonmises	-0.46525590710112075	-26.657199870424925	0.978912659698226	229.77175791123526	0.9667518542501636	231.391545389533	-0.013549512124725993	-0.36189173365884386	0.34834222153411787	80.34165096096257
12	5.0	ltm	103	diff_vonmises	-0.3568819414778977	-20.447829031118374	0.9420774088321596	161.48644349293687	0.9259057377664028	162.27241327296449	0.23889609248656996	-0.26199502319255075	0.5008911156791207	90.32723453064683
13	5.0	perception	103	diff_vonmises	-0.08795013903385611	-5.0391717742287545	1.0197774537043225	142.90362833571945	0.9856403685946165	143.7706082095783	0.628718693507949	-0.4216106517720526	1.0503293452800015	89.94467192676129
14	5.0	wm	103	diff_vonmises	-0.12311682441505535	-7.054074426035882	0.3860886146919913	159.25004598200326	0.3742537504903651	159.54428489633685	0.27846692714808796	-0.2659420684158782	0.5444089955639662	137.47496486307745
15	6.0	ltm	103	diff_vonmises	-0.4669284003006259	-26.7530266720209	0.6893739341185194	160.25192194266393	0.6759244369438598	161.2215116706808	0.13899922924078112	-0.2803144446200019	0.419313673860783	103.24680486604333
16	6.0	perception	103	diff_vonmises	-0.03141655205982371	-1.8000358398809315	0.6338693031875383	225.54130388248944	0.6210278349620267	226.56082399120808	0.27472486261255114	-0.3700672094254074	0.6447920720379585	110.35185598727108
17	6.0	wm	103	diff_vonmises	0.3855507998419191	22.09043361883513	0.0002413560077542596	4285.127121143159	1.7984296250099986e-25	4286.057113132474	0.01660149935798927	-0.3126072795739674	0.32920877893195666	175.39580366036256
18	7.0	ltm	103	diff_vonmises	-0.205562206002082	-11.777846831318097	1.5451513665233814	1.5975075643272163	0.2971667006667673	3.390233114476426	-0.005996155574889861	-0.3883295572439537	0.3823334016690638	88.04167488401342
19	7.0	perception	103	diff_vonmises	-0.23345516440887662	-13.375995626161378	0.6987409982372056	156.92772408087515	0.6683563799172524	158.67807755026212	0.42053371909674553	-0.5868699441391065	1.007403663235852	105.15279258969215
20	7.0	wm	103	diff_vonmises	0.38991179250026653	22.340300092645975	1.2559346555177282	95.6374655569758	1.2240329023953642	96.5992434581657	0.1911985092563313	-0.2878409430940003	0.47903945235033163	76.47677884714184
0	1.0	ltm	104	diff_vonmises	0.022806342036959356	1.306707144849564	5.620524962332993	0.3187276182509545	0.022697743381549337	3.6870944275044994	-0.30615944716771315	-0.5862712697874063	0.28011182261969314	55.97616706856533
1	1.0	perception	104	diff_vonmises	-0.05844735245722035	-3.3487866195123077	12.106392957889813	0.8198984648558033	0.09657901801583374	4.179200085524563	0.39474464425462097	-0.6949977084073509	1.0897423526619718	38.26833786160228
2	1.0	wm	104	diff_vonmises	-0.14571354922287474	-8.348771388342499	5.42659647864994	0.39563486675682774	0.04868828594666601	3.6191270127397495	-0.2460964386157573	-0.5766597154271527	0.33056327681139536	56.07091380592209
3	2.0	ltm	104	diff_vonmises	-0.11095716621525695	-6.3573773308657895	2.8215792714142496	0.5975837027109964	4.390038161737023e-25	2.6661127463632845	-0.046465786914913376	-0.4229866249750986	0.3765208380601852	81.8477416955233
4	2.0	perception	104	diff_vonmises	-0.029268118979793104	-1.6769396918288857	7.591300133494827	1.3735816066692343	0.23458703193324373	3.509970645845855	0.7863762340261886	-0.5899267253373547	1.3763029593635432	47.43362918796305
5	2.0	wm	104	diff_vonmises	-0.03950312455578036	-2.2633623146258195	3.1109860679376653	0.8290716572768309	0.13007926604495024	3.0212755091971912	0.008975886827120583	-0.4546157081881852	0.4635915950153058	71.31167801550464
6	3.0	ltm	104	diff_vonmises	-0.20808198063824762	-11.9222192832945	2.019908301702015	1.2464252013191532	0.2209786243524709	2.804404040034225	0.09689375658642818	-0.36586670079202954	0.4627604573784577	83.9712240755354
7	3.0	perception	104	diff_vonmises	-0.06325354450381737	-3.6241611393116604	2.410843947442814	5.4758303525229985	0.8583648861063762	6.798298216020816	1.0187961324033319	-0.6277471342342263	1.6465432666375581	70.8830385869575
8	3.0	wm	104	diff_vonmises	-0.09490719739283196	-5.437781856024282	1.1541419728027267	76.72655795386241	1.1006643171194102	78.15885118016585	0.24895785835585826	-0.4104768661707823	0.6594347245266405	79.98922940870227
9	4.0	ltm	104	diff_vonmises	-0.041966861692902827	-2.404524054412581	0.7403362283222722	83.48239077402947	0.7050515792397106	86.26360537953703	-0.2321910897233117	-0.5346090805403438	0.30241799081703213	86.32005832235913
10	4.0	perception	104	diff_vonmises	-0.14556534598949508	-8.340279968559653	1.8101965997792615	4.913593606736338	0.47823912760000037	6.997607867119036	0.6878498995757489	-0.6857274220359985	1.3735773216117475	83.6499842697668
11	4.0	wm	104	diff_vonmises	-0.23076619003927415	-13.221928743564305	0.5519077962000319	167.32153642564543	0.5379765242895169	170.04794348748837	-0.2536599212863635	-0.5097467572535841	0.2560868359672206	98.21718271979734
12	5.0	ltm	104	diff_vonmises	-0.0326335137184263	-1.8697626067481006	1.766519879372936	1.279124798897053	0.10813969659170433	2.6879702659147497	0.13671777080038855	-0.3657966439551753	0.5025144147555638	95.19260785874184
13	5.0	perception	104	diff_vonmises	-0.07512476367148774	-4.304331895293978	1.652121104877099	4.878159107233972	0.5022302791892256	6.391981409311114	0.660854469544917	-0.5611252171799807	1.2219796867248975	86.7299257595835
14	5.0	wm	104	diff_vonmises	-0.18137861579208092	-10.39222917881114	1.1986858659482296	1.564978633065653	0.06863442223450016	3.1303934879943256	0.059960269932383015	-0.41068788303240006	0.4706481529647831	114.74323317341076
15	6.0	ltm	104	diff_vonmises	-0.3570228926371435	-20.455904937660634	0.6782370135971646	176.3535989182616	0.6664088665088012	177.76975196386147	0.0030883688748275517	-0.3189087696003199	0.32199713847514744	98.31277510681747
16	6.0	perception	104	diff_vonmises	0.06451215451987441	3.6962741812846214	0.3376137593375662	6.112512123857849	3.941663861862924e-11	7.4130083714407435	0.14566285616705232	-0.5050875125061708	0.6507503686732231	160.79471054676912
17	6.0	wm	104	diff_vonmises	0.07730306905371316	4.429139600186127	0.37188516719276676	3.1458980087480652	1.1231491304832377e-13	4.620084672726038	-0.03356295287596012	-0.40174938083266165	0.36818642795670153	158.88364162485385
18	7.0	ltm	104	diff_vonmises	-0.47410993915151306	-27.164498538585967	0.9290546329495682	97.43696005292223	0.903848165177314	98.70849588496273	0.05608585964039747	-0.30335902585461305	0.3594448854950105	85.45088273649733
19	7.0	perception	104	diff_vonmises	-0.05121878562429448	-2.934620248057407	0.46470740058785437	255.12914258783113	0.45322503124832225	256.9481559973924	0.11079688954880851	-0.5171703869374298	0.6279672764862383	123.34514194693683
20	7.0	wm	104	diff_vonmises	0.2056633789758626	11.783643615716514	0.8675436523154543	137.79616977912536	0.850916782385732	139.36047331245783	-0.053135909982493956	-0.33087244048202535	0.2777365304995314	83.9654383302815
0	1.0	ltm	105	diff_vonmises	-0.18984626960303105	-10.87739000455645	0.007396228025659113	145.98309822708978	8.372403607393815e-21	146.99036820173052	0.01184802728150558	-0.33183653246051037	0.34368455974201595	178.55447609452114
1	1.0	perception	105	diff_vonmises	-0.07025979135915363	-4.025589514349233	12.631526048637644	0.8616378436083671	4.0087562885117573e-13	2.058557086196764	0.8815150354278863	-0.32762953589202404	1.2091445713199103	38.139594101490474
2	1.0	wm	105	diff_vonmises	-0.047371084808528204	-2.7141632304849557	3.445528226871471	0.45286140981136347	1.2220257720298462e-18	1.2698345086912042	0.11856625624451525	-0.20177434459342936	0.3203406008379446	73.91209502225803
3	2.0	ltm	105	diff_vonmises	-0.02343012024166407	-1.3424470033313916	3.9349769105551875	0.38454678322562863	0.15725113603908283	0.8190286386804821	0.141393776930305	-0.12385107272643424	0.2652448496567392	65.54681351113527
4	2.0	perception	105	diff_vonmises	-0.005871498407892668	-0.33641207819003216	6.3791428489771995	1.454258825802206	0.44728088685091655	1.5504201445616355	1.0666883200894108	-0.2522656745560469	1.3189539946454578	51.648449047345935
5	2.0	wm	105	diff_vonmises	0.0667330634005258	3.82352288682907	2.1734244708787815	1.075516250037659	0.6080272140106333	1.3874030414655394	0.21277775817562733	-0.13642336810940353	0.34920112628503086	77.26056425770415
6	3.0	ltm	105	diff_vonmises	-0.19371725227708855	-11.09918097434821	1.7950682483507678	96.85735835611436	1.7797321480687047	97.09792165760213	0.12804532912579702	-0.10717958085014878	0.2352249099759458	65.57521807113673
7	3.0	perception	105	diff_vonmises	-0.030252083113065834	-1.733316683857661	4.507510748736536	1.938000277686846	0.4299539477648855	1.726095273733378	1.1862070802192057	-0.24650088352747315	1.4327079637466789	61.12678886547815
8	3.0	wm	105	diff_vonmises	-0.010783803721417226	-0.617866440334678	1.253676863160268	65.70895537594141	1.2282177813302408	65.71051587411552	0.30645597824229753	-0.10651851849790095	0.4129744967401985	84.59165160612119
9	4.0	ltm	105	diff_vonmises	-0.33091328806152226	-18.959934790722077	17.612554337663823	0.2612348448850414	1.8503729919573672e-30	0.8479878536204348	0.29922372110223766	-0.13496145858557856	0.4341851796878162	32.25860610828016
10	4.0	perception	105	diff_vonmises	-0.07555534983592253	-4.329002665232818	3.209512188159066	2.14202502669531	1.6815905061184932e-17	2.588662012133925	1.045587135049918	-0.40962188088117674	1.4552090159310946	76.64713956071458
11	4.0	wm	105	diff_vonmises	-0.2811047413608973	-16.106115281096006	0.9127004694945198	158.27871037708022	0.9001607094162318	158.89201224843464	0.17995097997643938	-0.20296701658443617	0.38291799656087555	91.60289807780612
12	5.0	ltm	105	diff_vonmises	0.046708354359807226	2.6761915728184325	1.284497141258021	65.73503498342932	1.2598538449355972	66.0177257117573	0.18554694021259976	-0.1271632019155433	0.3127101421281431	79.27586994532106
13	5.0	perception	105	diff_vonmises	-0.045783479539224826	-2.6232001490211414	1.4810505250839203	3.9370216309546175	0.48727007130051603	3.89354136647949	0.7407801052646117	-0.2790924928436693	1.019872598108281	95.4712692832951
14	5.0	wm	105	diff_vonmises	0.13946197041388844	7.990582307294162	0.4149754361623413	81.08951351265051	0.3968505339326119	81.3296090584956	0.21532374865791937	-0.2041218583963591	0.41944560705427847	134.72815260538468
15	6.0	ltm	105	diff_vonmises	-0.4580980162009155	-26.247082931628068	0.47567757119763515	94.21408146707533	0.4596974260226677	94.50997022931094	0.20910619988880796	-0.20283011389687466	0.41193631378568263	127.18811469757979
16	6.0	perception	105	diff_vonmises	0.01896163821276223	1.0864218422452612	0.6316723572018151	168.53312949466047	0.6175292427508771	168.53406072864374	0.4518956806379322	-0.23978915897522235	0.6916848396131545	117.2622066100022
17	6.0	wm	105	diff_vonmises	0.05225775481682734	2.9941487978336547	0.0004747662350165704	3178.963342663991	1.340643384525223e-30	3179.1325031094207	0.21331268253601365	-0.2671011036078994	0.48041378614391306	179.83369464738894
18	7.0	ltm	105	diff_vonmises	0.06815218432751446	3.9048325265642134	1.2313162666785806	123.65434865984177	1.2140669177871046	124.44114443768339	0.09230472775193022	-0.2150546366048509	0.30735936435678113	75.47644021125839
19	7.0	perception	105	diff_vonmises	-0.09567306776077537	-5.48166299576157	1.8053845953721819	1.718418843593662	5.637323070684459e-16	2.26244930056373	0.4729942797696212	-0.337558246771686	0.8105525265413072	101.76535535035141
20	7.0	wm	105	diff_vonmises	0.14791823594543807	8.475090632693908	0.5449251989238153	57.500076508518774	0.5234498216824467	57.99900290024428	0.10663337487552305	-0.17908541184017235	0.2857187867156954	118.56727823715448
0	1.0	ltm	106	diff_vonmises	-0.20748864020101437	-11.888223380426588	0.00048683593353384324	2105.157258093393	9.357039817257948e-27	2106.678764742974	-0.07902324416130568	-0.40524766008007873	0.32622441591877305	178.743832785585
1	1.0	perception	106	diff_vonmises	-0.08856087604712772	-5.0741644274816435	10.31426046426432	1.0077570990925777	0.20007144782189493	2.667967364554447	0.7612531707380736	-0.45746615074972713	1.2187193214878007	41.21934445508296
2	1.0	wm	106	diff_vonmises	-0.07132923306865001	-4.086864010738632	3.493367883710098	0.46158201988276465	1.6777034327437377e-16	1.736309794542612	0.05303160094185244	-0.27603792353591666	0.3290695244777691	73.38883195192221
3	2.0	ltm	106	diff_vonmises	-0.04432225293090487	-2.539478031452192	4.452721643660311	0.36336109979407843	1.2814410405884788e-15	1.2703336430681356	0.09387977139361955	-0.20213970705707981	0.29601947845069937	64.80073640395656
4	2.0	perception	106	diff_vonmises	-0.026506942254675116	-1.5187359189898706	6.930494300390823	1.3026683241255932	0.2641782105067376	2.067213342894225	0.9201408310573036	-0.3398928464279008	1.2600336774852043	49.99757669901388
5	2.0	wm	106	diff_vonmises	0.27146086085800086	15.553561630151536	2.8849576065895586	0.5212940935398882	3.5404689549160208e-12	1.215483219750431	0.1403955484839727	-0.1924083742358849	0.3328039227198576	80.90914178271626
6	3.0	ltm	106	diff_vonmises	-0.19346709021852856	-11.084847744198418	1.9559778888273216	1.1241034871829945	0.6533688923651507	1.6077426061979483	0.12892734226546354	-0.1498287968984412	0.27875613916390474	76.95930532070486
7	3.0	perception	106	diff_vonmises	-0.06832630368758592	-3.914808831027827	3.4620110365144035	2.283737625006492	0.4078065056847367	2.520326412620447	1.0426828542638489	-0.33444017582319036	1.3771230300870392	68.2295692613884
8	3.0	wm	106	diff_vonmises	-0.03217135674194831	-1.843282962523385	1.1312796260605602	115.59797090328006	1.1156139629138437	115.6429630613398	0.32171189385888255	-0.12527064718859116	0.4469825410474737	88.3210002194318
9	4.0	ltm	106	diff_vonmises	-0.22611337687526964	-12.955342186403936	7.217947240980421	0.3993698408491577	0.2010519553823376	1.430667071196922	0.144486104179553	-0.23889828251952386	0.3833843866990768	48.25746841855627
10	4.0	perception	106	diff_vonmises	-0.12254434447466982	-7.0212737415958895	2.73083864181231	2.30654941312525	0.13681406254866516	3.282152566717468	0.8350966155183334	-0.4617503159993429	1.2968469315176763	79.23760250537359
11	4.0	wm	106	diff_vonmises	-0.44221459557232945	-25.33702996537906	1.008206995887408	140.91716808692902	0.9931669546838612	141.87098573376878	0.07620087024305633	-0.24062309992807585	0.3168239701711322	82.83640884371262
12	5.0	ltm	106	diff_vonmises	-0.13175798034415517	-7.549176190887749	0.9544529563391725	110.55861621202237	0.9390661535432034	111.10739525258408	0.14192364552652492	-0.17326422421067456	0.3151878697371995	89.10181152590818
13	5.0	perception	106	diff_vonmises	-0.06921955842341118	-3.9659885574206872	2.5508909354389027	1.8875976944995743	0.023478638799569483	2.3105749803612605	0.7492810886382613	-0.35230555624346777	1.101586644881729	85.38883547772753
14	5.0	wm	106	diff_vonmises	-0.16224281137340146	-9.295828348033016	0.5370587051770679	26.982352266585348	0.4783154061575751	27.42229671587049	0.1897956994576644	-0.2185808236983382	0.4083765231560026	123.33093217548364
15	6.0	ltm	106	diff_vonmises	-0.35914649589549286	-20.577578441724285	0.4324754745452911	38.57137859303956	0.3935480096747573	39.35356878285194	0.09862558480310035	-0.26306062768242855	0.3616862124855289	129.6595408217094
16	6.0	perception	106	diff_vonmises	0.1442694433980553	8.266030219410087	0.33967307495467675	156.38854029018003	0.325804226124753	156.89188931573526	0.2834611148559816	-0.3366229025682017	0.6200840174241833	141.80362674520686
17	6.0	wm	106	diff_vonmises	0.13525117360550917	7.749321421786873	0.0002798445531658373	3468.8312682644155	3.87821603745859e-30	3469.51066898647	0.04637638613939998	-0.2626147359001152	0.3089911220395152	179.3179463303111
18	7.0	ltm	106	diff_vonmises	-0.148880118256314	-8.53020242949539	0.8829646224984354	114.34866403663868	0.8652072882625894	115.21185229744847	0.1142869673863558	-0.23362934541911073	0.34791631280546653	90.4717682763886
19	7.0	perception	106	diff_vonmises	-0.18650246521826222	-10.685804125791856	0.6923075826069175	225.79065628618105	0.6773867797420626	226.66581112205665	0.3963910534702464	-0.383873962173638	0.7802650156438844	107.43519074554644
20	7.0	wm	106	diff_vonmises	0.2533176537929541	14.514032438492421	0.8553353404421694	33.92341013592465	0.8025886543028603	34.46238208418164	0.1776346152227113	-0.190013631855789	0.3676482470785003	96.37408356187078
0	1.0	ltm	107	diff_vonmises	-0.7001069530421088	-40.11317361707655	0.08605013064433058	6.6147332336892495	1.4932046012433945e-07	8.781874113726927	-0.2524299009554971	-0.4334990256821505	0.18106912472665337	162.62075021323727
1	1.0	perception	107	diff_vonmises	-0.09538346023034923	-5.465069706552946	12.206219683130064	0.7479895299558479	0.040433120838192046	3.1763720406935394	0.5048574641179002	-0.5134278532723661	1.0182853173902662	38.53413323218362
2	1.0	wm	107	diff_vonmises	-0.08389192781782104	-4.806653399177292	4.350808576548047	0.4409965738503023	0.09386827186504416	2.4244926137644525	-0.0680181069220388	-0.3816979324135871	0.3136798254915483	61.5015216416694
3	2.0	ltm	107	diff_vonmises	-0.1419657746001163	-8.134039719892206	5.027990143113971	0.3188292339259056	9.441521653325267e-17	1.4450037957927044	0.04730892984441559	-0.22996759305065367	0.27727652289506927	60.886026584168064
4	2.0	perception	107	diff_vonmises	0.006823654487475896	0.39096660298787367	6.98006005231522	1.574120709820983	0.48365848839384723	2.759470673479938	0.9544590845901113	-0.48036436807824956	1.4348234526683608	48.38306354220239
5	2.0	wm	107	diff_vonmises	0.23490491282753628	13.459060091906343	3.3552796528222526	0.47262616255776835	0.023175551786328838	1.6357773067637968	0.06330518494807863	-0.2551925773065804	0.31849776225465903	73.5113350302266
6	3.0	ltm	107	diff_vonmises	-0.15910119177697432	-9.115826804322147	1.3921359719216861	111.66954913572246	1.373703619877641	112.42599042633819	0.05784240272426899	-0.2062757379502571	0.2641181406745261	69.75242478694696
7	3.0	perception	107	diff_vonmises	-0.03971903420726959	-2.275733026412293	4.26606831866486	2.3252918166739045	0.6915540811537818	2.913964460885623	1.0269434420103307	-0.4154593921270479	1.4424028341373787	59.314941842067014
8	3.0	wm	107	diff_vonmises	0.14651003424595188	8.3944066186102	1.22208621733752	153.5380008585665	1.2078936229542179	153.99992613998353	0.2257887236110463	-0.18157242819240338	0.4073611518034497	80.29756094202608
9	4.0	ltm	107	diff_vonmises	-0.4528642028480533	-25.94720751574985	4.142484264958405	0.5306308052734917	0.26091160533373847	2.2996373994399013	-0.05129202149566864	-0.36631049946671873	0.3150184779710501	59.06895276408359
10	4.0	perception	107	diff_vonmises	-0.061162165113929884	-3.504333926910462	2.57470058091631	2.4203883563821815	0.30129557601053436	3.6780175380264555	0.6776409416498623	-0.4728579683222902	1.1504989099721525	77.22633806582132
11	4.0	wm	107	diff_vonmises	-0.2869688576108321	-16.44210439279135	0.7732933114317708	181.05045257936573	0.7613641052826446	182.93142290432257	-0.14487161229282464	-0.367701005365074	0.22282939307224936	84.59964778199947
12	5.0	ltm	107	diff_vonmises	-0.07844313744474635	-4.4944607073485985	1.114417500564758	104.44985615966277	1.0894661465292073	105.3225208055915	0.17487518216557874	-0.2571014296654237	0.43197661183100244	81.43170830439257
13	5.0	perception	107	diff_vonmises	-0.11308651286279786	-6.479379906890214	1.2857670954051759	12.528331534114267	0.8960760207451653	13.342474322314898	0.6510862111262075	-0.41027624814074937	1.0613624592669568	86.56266435010193
14	5.0	wm	107	diff_vonmises	0.06268217264967739	3.5914239435368747	1.1578858686150806	1.3372035575225938	2.513853069871986e-16	2.0017251994813856	0.17794991181645115	-0.2695786017153936	0.44752851353184475	122.24940782799034
15	6.0	ltm	107	diff_vonmises	-0.4414496008611662	-25.293198997079575	0.7395056811151056	117.77173308337203	0.7263122115164024	118.40434195010623	0.11331331974248826	-0.18934843102001153	0.3026617507624998	100.30846506594537
16	6.0	perception	107	diff_vonmises	0.10667222104555113	6.111868057196677	0.2504570827560037	112.86613860373984	0.23283498149241205	113.57472936609513	0.20916871738811338	-0.36254615176965466	0.571714869157768	151.51522335501195
17	6.0	wm	107	diff_vonmises	0.2031454355985631	11.639376087144337	0.09935284522646677	11.198879471191058	2.7783768258723644e-10	11.98844278672698	0.05566212576516616	-0.2982044610760959	0.35386658684126204	173.06212876550052
18	7.0	ltm	107	diff_vonmises	-0.14175240901773095	-8.121814772528175	1.066181106750079	95.7850175661812	1.0441884945589133	96.95074768454462	-0.011671688770753974	-0.26450761193727956	0.2528359231665256	76.9330913994201
19	7.0	perception	107	diff_vonmises	-0.1787708649358722	-10.242816060728753	1.1673567171146533	3.450517590659175	0.34568855749897576	4.783060255759312	0.24316743422227027	-0.4033308127119112	0.6464982469341815	101.25072398275034
20	7.0	wm	107	diff_vonmises	0.3688934844156634	21.136039746892518	0.859053177003317	54.71730404623669	0.8238253010227461	55.90640573404026	0.00141035307881765	-0.2648826906705706	0.2662930437493882	87.24858664065022
0	1.0	ltm	108	diff_vonmises	-0.5061401574915084	-28.99969486635023	1.4209007202068964	0.6895580155668369	4.750767441381888e-16	2.8414872741191903	-0.16317183283845083	-0.4353783321819007	0.27220649934344987	111.94498178902691
1	1.0	perception	108	diff_vonmises	-0.025347498643458376	-1.4523046934837445	7.236536317022709	1.0626220620276894	6.096474811977601e-21	3.530133018345923	0.557181684365254	-0.5618375396015322	1.1190192239667862	50.575348913716596
2	1.0	wm	108	diff_vonmises	-0.09785651584818414	-5.6067653559560044	5.836878835014569	0.4351275883593907	0.09288289869934634	2.760042279522782	-0.07149307531200855	-0.4438332772059929	0.37234020189398437	53.650578945807865
3	2.0	ltm	108	diff_vonmises	0.0033289099093140005	0.19073248818296984	0.9251287020036688	42.38977828592442	0.88639222904076	43.292007148529855	0.023809026926091548	-0.2096601790806334	0.23346920600672494	85.21274266421108
4	2.0	perception	108	diff_vonmises	0.03427464649089838	1.9637925882313545	5.2889467654476965	2.118463391705889	0.618854786103153	2.7815369100287417	1.1441203075868662	-0.4398887413529886	1.5840090489398548	54.56759324887443
5	2.0	wm	108	diff_vonmises	0.08823374802988188	5.055421372732973	1.392294456195719	2.713653903171221	0.5927159611262891	3.827891094047844	0.11249053281774057	-0.2851603880249299	0.39765092084267045	85.11746548564486
6	3.0	ltm	108	diff_vonmises	-0.12751095663479742	-7.305839656849554	1.2858236647830905	102.63471270246046	1.2685140543167959	103.35586734014261	0.04168237523807505	-0.18719828644836412	0.22888066168643917	72.21295871584593
7	3.0	perception	108	diff_vonmises	-0.007277889695012306	-0.416992363285959	4.779826841259162	2.073631907633937	0.5069550740981905	2.352916213982376	1.1715542969952955	-0.3508161560427312	1.5223704530380266	58.330817782670124
8	3.0	wm	108	diff_vonmises	0.15720363374287283	9.00710473758699	0.8865567305366284	124.00507782932648	0.8700745569140224	124.57568663372348	0.20874621768403756	-0.20641083758790124	0.4151570552719388	93.91851611580259
9	4.0	ltm	108	diff_vonmises	-0.7054533129843228	-40.419497477523215	0.834264317440897	179.44236081133468	0.8183028269460553	181.2365981822985	-0.004291346522705908	-0.3971384737838477	0.3928471272611418	87.87366991383226
10	4.0	perception	108	diff_vonmises	0.0033439831559158	0.19159612159681286	2.7042324303649856	2.433289813912433	0.11615297115957803	3.192197405896564	0.9326309810112797	-0.45243030787638816	1.3850612888876679	80.33533528353911
11	4.0	wm	108	diff_vonmises	-0.08999754956061748	-5.156479756342838	0.6189163263585189	182.68427475204825	0.6024826123674412	184.87644172803564	-0.014378802730846019	-0.4921377683645858	0.47775896563373976	102.87860269485333
12	5.0	ltm	108	diff_vonmises	-0.046394911394068566	-2.6582326137635435	1.0105357321196375	81.1775098955265	0.9870381500425953	81.68932404692475	0.18722868807460813	-0.18076666779925787	0.367995355873866	87.8961666088752
13	5.0	perception	108	diff_vonmises	-0.12068338070123397	-6.914648371551276	1.1304051133064104	156.06334376651083	1.1008397289226144	156.1586039787951	0.8278500029234976	-0.31896809796446135	1.146818100887959	88.72189187051802
14	5.0	wm	108	diff_vonmises	0.2765911108591377	15.847503303063663	0.32233871236306727	141.39425188355278	0.30934930998791876	141.93948450370382	0.21460212524974054	-0.30254844406801595	0.5171505693177565	142.55309423177064
15	6.0	ltm	108	diff_vonmises	-0.594664236631704	-34.07175098636552	0.6577937698959146	69.66564589487282	0.643804039083957	69.72604774439691	0.16870365861872827	-0.10011413575961825	0.2688177943783465	113.51243423828292
16	6.0	perception	108	diff_vonmises	-0.04631310190578176	-2.6535452753605844	0.27171017739023834	121.6058632250165	0.255918349222647	121.62170750052144	0.33671474068495755	-0.2628238674270609	0.5995386081120184	150.5372750777407
17	6.0	wm	108	diff_vonmises	0.11680463112245645	6.692412390899178	0.1409345990537954	11.01003723687772	1.7596774572623723e-11	11.221356082025835	0.22159216692893025	-0.2715056846209063	0.49309785154983654	171.50138382597046
18	7.0	ltm	108	diff_vonmises	-1.0954495963176627	-62.76463853831184	0.00016201420594892305	4169.904839006759	1.9045464549298894e-34	4170.763974657956	-0.029209733550260353	-0.2442529280059489	0.21504319445568854	148.52611069466573
19	7.0	perception	108	diff_vonmises	-0.02858637776892478	-1.6378787977259925	2.575842732244663	1.464642401039069	7.042722055006534e-11	2.4094728976869018	0.49493262068894844	-0.37839331002665305	0.8733259307156015	85.70387176411054
20	7.0	wm	108	diff_vonmises	0.06203991016400898	3.554625013768493	0.6136555374318244	118.11357389965264	0.6003273797298847	119.27754214597495	-0.011027828151132013	-0.25996821145375826	0.24894038330262624	103.00138812807944
0	1.0	ltm	109	diff_vonmises	-0.1975414120498015	-11.31828918950837	7.046181413980522	0.14549089934561782	2.8658958788151654e-30	2.2476252700685944	-0.20660251861243484	-0.35772055735203667	0.15111803873960183	51.26051993459234
1	1.0	perception	109	diff_vonmises	-0.1020117881518519	-5.84484492168377	19.46098932359348	0.5878581222311834	0.07382015646556192	2.930148627351031	0.5263129497140849	-0.4876593883907327	1.0139723381048176	30.440294799531245
2	1.0	wm	109	diff_vonmises	-0.14278196080714586	-8.180803744851792	4.405748114114511	0.3420352890509462	0.04238228917540421	2.1779876778106915	-0.08435431539147692	-0.34309930044770776	0.25874498505623084	62.74999186852921
3	2.0	ltm	109	diff_vonmises	-0.10912318155647814	-6.252297750226023	20.370542383588553	0.27369891596362694	2.313164722062749e-22	1.4382754015673762	0.260717572199617	-0.22890863968692868	0.48962621188654565	29.988427111836813
4	2.0	perception	109	diff_vonmises	-0.011085790931345705	-0.6351690329305111	8.106140660369965	1.3803614474064643	0.4623235893034302	2.7749869590128764	0.8767094025651024	-0.5013205995058637	1.3780300020709662	45.101619976632406
5	2.0	wm	109	diff_vonmises	0.01493549542005454	0.8557408525060958	4.868724028205407	0.4150772092947451	0.07476138736054666	1.7183114258425976	0.060552677321786263	-0.2707141288116404	0.3312668061334267	59.62221861669104
6	3.0	ltm	109	diff_vonmises	-0.19163233639746166	-10.979724093805784	1.6941322665366103	66.16463159388387	1.6512559249743881	66.95008774696304	0.11721529998211011	-0.25038072294351643	0.36759602292562654	64.43893020825482
7	3.0	perception	109	diff_vonmises	-0.03096817121761989	-1.7743455100081313	3.4127647979672138	4.0559566360926205	1.1638076023547126	4.793298446266726	1.0715915932398634	-0.5285708995030173	1.6001624927428808	60.49688827163743
8	3.0	wm	109	diff_vonmises	0.08360528297327523	4.790229859365633	1.5781231731801306	139.36173967484825	1.554000906525448	140.1406578331077	0.23516399759484585	-0.27539038385632253	0.5105543814511684	68.72930128207975
9	4.0	ltm	109	diff_vonmises	-0.4932701728895146	-28.262299066257626	53.632808476063154	0.19045362758131773	0.01632011059761945	1.8526356931775407	0.2551279398860277	-0.2988027267935744	0.5539306666796021	18.438398059081322
10	4.0	perception	109	diff_vonmises	-0.1128029220623771	-6.463131350917368	2.159945691414254	3.919380214454332	0.578248252846824	5.468896749267488	0.6879002693688843	-0.5602044498678793	1.2481047192367636	76.95528622255824
11	4.0	wm	109	diff_vonmises	-0.08410505317322392	-4.818864582549103	0.7274932055042765	116.90396282801238	0.7130061037174162	118.55210073758342	-0.15002208855435128	-0.31296785661930215	0.16294576806495087	85.27157903883952
12	5.0	ltm	109	diff_vonmises	0.03789832811639101	2.171414251671188	1.2469914268124362	124.04193208000873	1.2205253660641475	125.1315817571984	0.1860414137562003	-0.3162475436005874	0.5022889573567877	76.20109503537327
13	5.0	perception	109	diff_vonmises	-0.07322866426869151	-4.195693401976479	0.9874577691146404	295.2955157011473	0.9705799106989653	296.5569852127134	0.5204281587254371	-0.4686107369138135	0.9890388956392506	89.23142771706247
14	5.0	wm	109	diff_vonmises	0.0038037370465112312	0.21793807914265045	1.962214520237747	0.8719510182134443	5.3109272047063626e-21	1.8988723468408453	0.14244521246016312	-0.2934311161055678	0.43587632856573094	97.90159441217168
15	6.0	ltm	109	diff_vonmises	-0.38800986390925873	-22.231327611445966	0.8714554006435776	156.96415914442682	0.8562165683651756	158.07020496198624	0.1085139105991928	-0.285297648319073	0.3938115589182658	90.07925196689298
16	6.0	perception	109	diff_vonmises	0.059522157508580295	3.410368412754574	1.5213465151339023	1.5113498263668452	2.0813456819625954e-12	2.701846335008925	0.23023884971580916	-0.3985116450785571	0.6287504947943663	109.78481593395091
17	6.0	wm	109	diff_vonmises	0.1066141463648478	6.108540623095807	0.28242656716161796	4.2472170691499045	1.0309249752658285e-17	5.436092041448598	0.013766944761313016	-0.3655481025244201	0.3793150472857331	163.65441552575894
18	7.0	ltm	109	diff_vonmises	-0.07678062597772686	-4.399205816896279	1.389612643353503	204.2868901210839	1.3749715699221803	205.67540261233464	-0.0350726868038862	-0.34246512376258664	0.30739243695870044	66.28902196372971
19	7.0	perception	109	diff_vonmises	-0.20662239851731834	-11.8385913879125	0.5053697188266473	133.42704778198888	0.48728231649010323	134.95422626798867	0.07761328045255311	-0.4138815416939323	0.49149482214648543	118.45234739195615
20	7.0	wm	109	diff_vonmises	0.721963250187044	41.36544719926516	10.311360730201855	0.21713832304850367	0.025316061457436978	1.4145370526073218	0.04371041351679836	-0.22682064825906403	0.2705310617758624	41.899758713319585
0	1.0	ltm	110	diff_vonmises	-0.03885721187873925	-2.2263542442973674	0.00028754750366565365	4348.12946990948	5.156835276756834e-25	4348.90304032412	0.07588562935666232	-0.3220921312884002	0.3979777606450625	179.94073435351862
1	1.0	perception	110	diff_vonmises	-0.06437344980434574	-3.688326986486266	12.665697665119154	0.8920565855370662	0.08137640915447165	1.8728511176441636	0.9305179088547313	-0.3077235466181392	1.2382414554728705	37.824876847467465
2	1.0	wm	110	diff_vonmises	0.07185795843059978	4.11715774249988	2.251510272175893	0.6498341890228324	2.5858092841018942e-12	1.138859783078416	0.1787091703526196	-0.17726834434728092	0.3559775146999005	91.6159465973031
3	2.0	ltm	110	diff_vonmises	0.00820783768223733	0.4702744581206387	5.563855289574261	0.26746577778460123	3.6678041548034997e-19	0.5441664677208599	0.1588098797376437	-0.08660317439667349	0.2454130541343172	57.82173901805905
4	2.0	perception	110	diff_vonmises	-0.01672336908156657	-0.9581784676133362	7.1000982299394	1.2821076816850039	0.39025686585179153	1.2116577726713544	1.0627885746847592	-0.19973293316082405	1.2625215078455831	49.51960588033822
5	2.0	wm	110	diff_vonmises	0.06060990627494825	3.4726918262380195	1.6882770926336996	19.441219379222023	1.6043779361323274	19.466213762793753	0.2650894307310754	-0.0932528925152678	0.3583423232463432	72.94855223255851
6	3.0	ltm	110	diff_vonmises	-0.23282585390134755	-13.339938790076728	2.0393243956801963	45.358236670656076	2.0158392741990707	45.449448912400754	0.11769102020152644	-0.06544551470047999	0.18313653490200643	63.26180104363178
7	3.0	perception	110	diff_vonmises	-0.03978841162183958	-2.279708059460683	4.885040936497343	1.6512227932646981	0.306713538410916	1.220322813348973	1.1562549264338235	-0.17911436694782706	1.3353692933816506	59.933540857021285
8	3.0	wm	110	diff_vonmises	-0.045773422213881754	-2.6226239067257935	1.8028841249267173	2.462438361916002	1.2186148709997433	2.2627645124642037	0.32714697202390874	-0.06350686847559589	0.39065384049950463	79.8852287477282
9	4.0	ltm	110	diff_vonmises	-0.3157714574810727	-18.09237180436019	24.422846148610887	0.2209469614872283	5.700355491924243e-24	0.526297461772512	0.3495604962589508	-0.08376284257781312	0.43332333883676394	27.37259224687176
10	4.0	perception	110	diff_vonmises	-0.08055925626518161	-4.615705384707741	3.511781451236293	2.0344724388723874	1.0021752136203416e-16	2.2672871670719914	1.0950419720521467	-0.35955307005739245	1.4545950421095393	73.1937777713814
11	4.0	wm	110	diff_vonmises	-0.2756652684851488	-15.794456442539726	0.9401589468560654	110.0954822150187	0.9262111255275567	110.38947040129621	0.19558765968366743	-0.13904679719001223	0.33463445687367965	93.03169674531887
12	5.0	ltm	110	diff_vonmises	0.10510016912324308	6.021796116872998	1.324064848510497	58.91204769227499	1.2999210860645587	59.22840307094078	0.13227192646117913	-0.1178607422377107	0.25013266869888984	76.61668657942562
13	5.0	perception	110	diff_vonmises	-0.0044046570351775165	-0.25236825831827786	1.3705537721393573	4.05223912826199	0.4608250709170471	4.0961010466976635	0.6814817985417292	-0.2869010859265447	0.9683828844682738	98.4665611211885
14	5.0	wm	110	diff_vonmises	0.08992379740519986	5.152254069107415	0.46565034108999925	26.166977193801433	0.4140034196166652	26.371986662822387	0.20263428229822278	-0.18112110947484794	0.3837553917730707	131.57756992893215
15	6.0	ltm	110	diff_vonmises	-0.43320774344733737	-24.820975351918577	0.3823860236265178	61.94876880478487	0.3527482182977376	62.41859189181899	0.23117268898806742	-0.28198373555407574	0.5131564245421432	136.39388205141975
16	6.0	perception	110	diff_vonmises	0.07050683872704945	4.039744285869479	0.7880802406113625	168.6673264516745	0.7708339033818951	168.6902406070718	0.5486749812923151	-0.2519823676782593	0.8006573489705744	105.88326553245307
17	6.0	wm	110	diff_vonmises	0.01579397817988616	0.9049282914291907	0.09093149548520864	30.901627920555875	0.036754819376189206	31.09713573783615	0.2423845183678459	-0.2876505901087665	0.5300351084766124	172.64728592093027
18	7.0	ltm	110	diff_vonmises	0.12092125491873275	6.928277560268933	1.192375337170397	125.09796678255863	1.1747864822077287	125.9078185089105	0.10415957862434055	-0.22243522423001316	0.3265948028543537	77.04305224031043
19	7.0	perception	110	diff_vonmises	-0.09989445065725067	-5.723530419438315	1.557195037547367	1.8675848734107876	2.4320088507329575e-16	2.3442703317210394	0.4544065224350647	-0.336354871190074	0.7907613936251388	108.68093430595377
20	7.0	wm	110	diff_vonmises	0.010233673553737315	0.5863463035437948	0.20783589299816158	56.62997724204469	0.18767502651319404	56.9789399891681	0.1312878725066824	-0.20781587517797195	0.33910374768465434	156.9952030567659
0	1.0	ltm	111	diff_vonmises	-0.5485113038837887	-31.42738272775885	1.0017013672347193	0.9949828548685339	9.296416103091681e-33	1.2825335530209863	0.13618525594955347	-0.15821992618115827	0.29440518213071176	126.13920045169652
1	1.0	perception	111	diff_vonmises	-0.10055165121493995	-5.761185237687555	15.356341662175302	0.7819970554426409	8.890240238298731e-15	1.1926955663301884	1.0222869604611056	-0.1898233949851797	1.2121103554462853	34.56760502825301
2	1.0	wm	111	diff_vonmises	-0.08961220029944045	-5.13440087003891	3.762167393689198	0.3584509340038096	6.999861048502994e-15	0.36716502637844783	0.2080529858374147	-0.05829227837507724	0.26634526421249194	70.64953460429919
3	2.0	ltm	111	diff_vonmises	-0.15840518194199438	-9.0759483782782	10.453332047131568	0.27077186133115866	0.609729530007076	0.1973693732082137	0.29210208897127166	-0.037099731448863596	0.32920182042013524	40.93622461887753
4	2.0	perception	111	diff_vonmises	-0.0017044904358666268	-0.09766010819557183	6.787347897944671	1.4203884428273543	0.8275810264743683	0.9655694335164143	1.1486735635160925	-0.15702387485805444	1.3056974383741469	49.68780939832985
5	2.0	wm	111	diff_vonmises	0.1558844919921635	8.931523482691848	2.9248985526245486	0.384384993624176	0.14213335369009772	0.19974480567755706	0.2116741836941769	-0.026950996766434934	0.23862518046061182	78.79298487150172
6	3.0	ltm	111	diff_vonmises	-0.19815149549688946	-11.353244396177303	3.1153372128006045	45.20875153343991	3.082779651360779	45.22838005859195	0.166571669204977	-0.06892485843586194	0.23549652764083895	52.08635972487892
7	3.0	perception	111	diff_vonmises	-0.02322106807431708	-1.3304691964443467	4.780682930085651	2.0616695127353237	0.9286226222981093	1.5452325473760689	1.2381942003174347	-0.20432799392968617	1.442522194247121	57.44475868341365
8	3.0	wm	111	diff_vonmises	0.09112463777069313	5.221057153919127	1.873581454306624	46.05744311124035	1.8539030477665672	45.74662916026537	0.29914123552731553	-0.02528081032219953	0.32442204584951506	76.27650816482708
9	4.0	ltm	111	diff_vonmises	-0.37909115298211166	-21.72032311662323	22.448709062150343	0.2270902855459719	3.52622423215256e-16	0.3716751481060097	0.36753692970887686	-0.05915393704548374	0.4266908667543606	28.55911610267637
10	4.0	perception	111	diff_vonmises	-0.08020939385527799	-4.595659745209988	3.3645030380856156	2.021910561144787	0.05271506230670473	2.260619098022108	1.0337355184072732	-0.34194355324067066	1.375679071647944	73.73887709562041
11	4.0	wm	111	diff_vonmises	-0.353327469302662	-20.244172777080685	1.2157854180195165	88.51915499815915	1.1992574572758083	88.688045504277	0.20593501800449587	-0.10865565830100099	0.31459067630549686	83.05088227839614
12	5.0	ltm	111	diff_vonmises	0.09862532818354273	5.650815058009648	2.150915384175216	67.28368668687521	2.1283376115365007	67.2283536612306	0.25862181751222835	-0.07118704079814187	0.3298088583103702	64.97212987412416
13	5.0	perception	111	diff_vonmises	-0.04899773754316749	-2.8073635669132004	1.1473797690001672	8.112471586131514	0.7632116919563005	7.678719829410899	0.7189200444553112	-0.19672143570951023	0.9156414801648214	99.02265731036054
14	5.0	wm	111	diff_vonmises	0.24804693235136768	14.212042344900409	0.5782177137274765	35.14300910659295	0.5446147372816976	34.92154173313339	0.27907080748861723	-0.10703371731420797	0.3861045248028252	124.33990775448288
15	6.0	ltm	111	diff_vonmises	-0.4589627286882617	-26.296627307645267	0.5717537821586287	51.81403906684961	0.5475277891106272	51.772240163580896	0.2472201774339613	-0.1306214157208645	0.3778415931548258	122.0637084518827
16	6.0	perception	111	diff_vonmises	-0.020771412377980813	-1.1901142637840976	0.8717842497834825	135.21528300087078	0.8571329903488915	134.95496938396172	0.4597343205030384	-0.140941184449197	0.6006755049522354	103.50084006865428
17	6.0	wm	111	diff_vonmises	0.060765925824619156	3.4816310879556944	0.0002400894171924201	5338.128082579862	3.808662472109811e-29	5337.923146351238	0.2365990886447662	-0.1713413780847759	0.4079404667295421	179.81312383234527
18	7.0	ltm	111	diff_vonmises	0.1787045634009455	10.239017262602214	1.6983377418069305	142.8731117519823	1.6794460164289988	143.54038306853505	0.14341265071345788	-0.22633589954967448	0.36974855026313236	65.03673355375315
19	7.0	perception	111	diff_vonmises	-0.20233494036204075	-11.592938130776147	2.5599624338193276	1.2900739602381968	1.766195755829659e-13	1.4863214199177452	0.5343559538517361	-0.23194747558305615	0.7663034294347922	85.95095022499086
20	7.0	wm	111	diff_vonmises	-0.13383235232118687	-7.668028950311874	0.0007464836293395102	937.8430321606016	5.232716608563138e-18	938.0297663490752	0.08172115176279249	-0.14111890552428008	0.22284005728707257	179.4462163966624
0	1.0	ltm	112	diff_vonmises	-0.1664421722893997	-9.536434005171905	1.8910531327454225	0.6421099404441871	1.2945462897166926e-43	2.9346917722616315	-0.14688672810792985	-0.4597777144941348	0.31289098638620494	99.57363561028068
1	1.0	perception	112	diff_vonmises	-0.10884152016883014	-6.236159741461995	11.18605037904155	0.7971295164766612	0.07932372674564829	3.1558185350603116	0.5082222360747456	-0.5178552002237108	1.0260774362984564	40.00151797381662
2	1.0	wm	112	diff_vonmises	-0.16425910391413395	-9.411353400880696	3.951044819232862	0.5808237008062389	0.10835785153276536	2.667873757916893	-0.028281557679927682	-0.41534384507335975	0.38706228739343207	64.25253560553932
3	2.0	ltm	112	diff_vonmises	-0.036328310681952594	-2.081458878915909	2.842720541475242	0.5777757650354377	7.0233094386146485e-15	2.095375426633426	0.033437251209117724	-0.3322436207907485	0.3656808719998662	81.53781907945816
4	2.0	perception	112	diff_vonmises	0.009123698998368233	0.5227494461542364	5.1965333841162265	1.6223613741090308	0.37800010148756374	3.0297819663126995	0.7564912797075898	-0.48352982715889437	1.2400211068664841	55.700879995094226
5	2.0	wm	112	diff_vonmises	0.3228251599737535	18.49651918713171	3.0634606190169453	0.5935301501839788	4.08353276054082e-12	1.8728356938001403	0.09527908519484829	-0.2972120622672633	0.3924911474621116	78.47419568853365
6	3.0	ltm	112	diff_vonmises	-0.1458272574648435	-8.355286390703162	0.9953318840032478	53.983354323220325	0.9404635402392275	55.34286298095565	0.11252414244907882	-0.34332968678466536	0.4558538292337442	84.39902229352145
7	3.0	perception	112	diff_vonmises	-0.06778746464542006	-3.883935628074851	2.9381040839329655	2.9305664867252244	0.38972383521003684	4.260566194905347	0.9323859773874448	-0.55373618999971	1.4861221673871547	71.84453051807267
8	3.0	wm	112	diff_vonmises	0.1639261394742606	9.392275943748016	0.5914399909210827	141.37651376140127	0.5753232248169203	142.05684604460384	0.2530192641247524	-0.29445899071091297	0.5474782548356654	115.62643468087307
9	4.0	ltm	112	diff_vonmises	-0.28541990413931223	-16.353355896211127	5.310350505594144	0.5050922876084933	0.06614439379712601	2.622655253246895	0.006726403909958989	-0.41616302252232534	0.42288942643228433	57.085584190913096
10	4.0	perception	112	diff_vonmises	-0.10572965745742142	-6.057863141674138	0.8996803081884259	383.2717574111132	0.8832676680944368	385.1730610907626	0.5910163440645562	-0.6441452565743333	1.2351616006388895	92.60835621671255
11	4.0	wm	112	diff_vonmises	-0.48318545648953465	-27.684487378952408	0.9131876440211872	242.853113313986	0.9003977188825797	244.92403134686373	-0.07712435665855821	-0.4394045844227996	0.3622802277642414	81.40954073943333
12	5.0	ltm	112	diff_vonmises	-0.22927862349148412	-13.13669745863109	0.8391280686655008	167.64624789685698	0.8248102223871233	168.36666895072685	0.23604700027753722	-0.2531292472684328	0.48917624754597	96.16164252704785
13	5.0	perception	112	diff_vonmises	-0.09598715295849966	-5.499658751998704	1.69364353611589	4.124547790774221	0.4924338335182675	4.88211533983954	0.7255895197788635	-0.4215752157198275	1.147164735498691	88.06904345050745
14	5.0	wm	112	diff_vonmises	-0.12613886988509893	-7.227224876966008	0.43555825062324693	158.40030759318668	0.42357991529042854	158.99004717471217	0.2130893744707194	-0.2859691936107094	0.4990585680814288	130.89795864224527
15	6.0	ltm	112	diff_vonmises	-0.4120712757109841	-23.609944956811102	0.6586796540396966	141.07885797444675	0.6470923587919132	141.90537287453816	0.0838815900402139	-0.22552614607983124	0.30940773612004513	104.46755064011626
16	6.0	perception	112	diff_vonmises	-0.022843813032497457	-1.3088540747480508	0.34330903289709697	198.0703414624985	0.3328806479925952	198.85781227406167	0.20330763157770804	-0.3532624451234483	0.5565700767011563	140.44983960477896
17	6.0	wm	112	diff_vonmises	0.21032919030833724	12.050974913071622	0.0002470906517868738	3653.9555994993157	5.434296513415515e-29	3654.785032245619	0.01169485392244951	-0.2756937442572962	0.2873885981797457	178.5061778508537
18	7.0	ltm	112	diff_vonmises	-0.3074700107060718	-17.61673394030015	0.8475124928762712	66.46442078250644	0.8099048183622171	67.80608681531375	0.06723084667982349	-0.3225766200900848	0.3898074667699083	90.35800189341057
19	7.0	perception	112	diff_vonmises	-0.18097046430318334	-10.368843821095327	0.6839738257574286	294.65466620949155	0.66960481748348	296.2483087601706	0.3617717042853599	-0.5261593180687214	0.8879310223540813	105.46952840981206
20	7.0	wm	112	diff_vonmises	0.2756853362105201	15.79560623850793	1.1342065603331575	116.35280697576928	1.1108649891755524	117.56316561230426	0.06821752774048662	-0.30216732413162006	0.3703848518721067	77.236177750938
0	1.0	ltm	113	diff_vonmises	-0.05165380005969462	-2.959544739233101	4.7095254936771775	0.41876670820685813	1.245686082537016e-18	3.7337081116731774	-0.24254401406274761	-0.5942095574181752	0.35166554335542755	62.960342762446146
1	1.0	perception	113	diff_vonmises	-0.03777040464917376	-2.164084776898959	9.649964218531537	0.8305415481292298	2.6415947632094005e-15	4.222823484999533	0.3431409015036243	-0.6720832272277392	1.0152241287313635	43.70043479860402
2	1.0	wm	113	diff_vonmises	-0.16055729108606123	-9.199255149284742	5.402913452338947	0.5159461325422047	0.0884444177286387	3.977131386508632	-0.22397418215341458	-0.6381095133800059	0.4141353312265913	55.179648780304746
3	2.0	ltm	113	diff_vonmises	0.014930636152721749	0.855462436996401	1.693726089689349	1.0786439828009018	0.17720262285803734	2.837791515953778	-0.031987411390173026	-0.37062514327515905	0.338637731884986	89.87061793232377
4	2.0	perception	113	diff_vonmises	0.011547671220201281	0.6616328241222189	5.6268793615406425	1.7664414954867123	0.3572488778101445	3.4676458378412676	0.8663558922100573	-0.5640088234081065	1.4303647156181638	53.83688306449892
5	2.0	wm	113	diff_vonmises	-0.004449188355431668	-0.2549197150249862	2.110846733422291	1.6013009370655515	0.3593231176254402	3.5215155588208744	0.07589011864972506	-0.4401503590269882	0.5160404776767132	77.50217882506425
6	3.0	ltm	113	diff_vonmises	-0.13146083172558656	-7.532150829155626	0.9280051547207033	168.08283318150507	0.9094032769452076	169.72671832611985	0.061420343455822035	-0.3885078608045447	0.4499282042603667	85.06488309310114
7	3.0	perception	113	diff_vonmises	-0.02719165913486197	-1.5579673063859423	3.077322396379201	3.505189264172064	0.5755095475810442	4.787254336782351	1.0799112682332006	-0.5983309951203357	1.6782422633535363	68.20092098029048
8	3.0	wm	113	diff_vonmises	-0.017122715775541072	-0.9810593477405777	1.5587631660556056	2.575990420901775	0.3955467363811612	4.056491054833835	0.2196910348732638	-0.40154524177707274	0.6212362766503365	88.57187129579762
9	4.0	ltm	113	diff_vonmises	-0.3499940222351001	-20.05318032887913	0.4395101825447123	181.90709085527843	0.42539408006812207	184.78682376685867	-0.19637541773557388	-0.5931557631944706	0.39678034545889673	116.81313982645244
10	4.0	perception	113	diff_vonmises	-0.05473212620905417	-3.135919835556162	1.522672177685874	6.305138208703443	0.48677756494634383	8.156124815909763	0.7637346980039739	-0.6809221428196783	1.4446568408236522	89.6002171578088
11	4.0	wm	113	diff_vonmises	-0.11007683639489223	-6.30693814757938	0.6271883101089993	11.328193892843785	0.3830377861084866	14.449485208147397	-0.18602502451565162	-0.6406784192908392	0.4546533947751876	109.27322959236753
12	5.0	ltm	113	diff_vonmises	-0.07058482548728347	-4.044212598088787	0.7437859822344388	65.83334303620663	0.7047035352788711	66.87427439842293	0.19370308370853806	-0.31592957989612813	0.5096326636046662	101.07883653601742
13	5.0	perception	113	diff_vonmises	-0.08888525131403006	-5.092749761253577	1.0140834939512267	332.63974854191974	0.9968861850865662	333.6233008514772	0.7461357551980825	-0.49028213899822504	1.2364178941963075	89.94648145107323
14	5.0	wm	113	diff_vonmises	0.05502202550775958	3.152529841855784	0.3160228799807523	168.05198630825106	0.3033265611926548	169.32125112339403	0.11537867018510184	-0.4262832007619366	0.5416618709470384	142.2488372586041
15	6.0	ltm	113	diff_vonmises	-0.4902155791765824	-28.087283738379412	0.6595337223890879	148.3371403136335	0.6483069077495653	149.17247012408097	0.08712571344419473	-0.22895871035793114	0.31608442380212587	104.46869318710249
16	6.0	perception	113	diff_vonmises	-0.07969951511992902	-4.566445845611025	0.2974520201999313	219.4219494578031	0.28643486749804803	220.20889869332717	0.26808781871078224	-0.41408202123054494	0.6821698399413272	145.9995117547364
17	6.0	wm	113	diff_vonmises	0.08247252234325414	4.725327456066845	0.3413434989252277	4.580289412651146	3.792829013838328e-16	5.569907494380401	0.10983377444083964	-0.3830801674674086	0.4929139419082482	160.52651611107433
18	7.0	ltm	113	diff_vonmises	-0.59069441256286	-33.84429682181131	3.1529470916286653	0.44482894186899935	4.2393237222512747e-17	1.787847231254133	0.015137383380250224	-0.2839976379966582	0.29913502137690845	77.27214084900763
19	7.0	perception	113	diff_vonmises	0.05566333169793106	3.189273979928224	0.5865408541333987	299.097943118344	0.5735850812294299	300.8983609157058	0.2628027168752425	-0.5555112077030486	0.8183139245782911	112.50204244268434
20	7.0	wm	113	diff_vonmises	0.08241900033810692	4.722260871060832	0.8587016937237938	174.07979142191869	0.8442295531959274	175.89734063291831	-0.08653806610004011	-0.37633888924559855	0.28980082314555844	83.24347576440937
0	1.0	ltm	114	diff_vonmises	-0.10475656994290351	-6.002109333995387	3.4530472966482217	0.3301956110965769	6.940591695678883e-17	2.855995339973412	-0.22044323517191058	-0.45431128416872696	0.23386804899681637	73.82468559785806
1	1.0	perception	114	diff_vonmises	-0.06360025170309093	-3.6440259985568364	14.15834382017474	0.6405234292939948	0.008895154356440227	3.401126009787052	0.40633929335556906	-0.5430741360083474	0.9494134293639165	35.94623037221868
2	1.0	wm	114	diff_vonmises	-0.06977311483386706	-3.9977050034622206	3.8125664606415595	0.47028994415467623	0.017568718416747835	2.863178588176165	-0.11152303371299638	-0.4508120297640435	0.3392889960510471	68.70504272203269
3	2.0	ltm	114	diff_vonmises	-0.04839906976785819	-2.7730624300574913	4.830988094735384	0.32241528018286597	1.045972217038755e-34	1.4634795628766464	0.04156163361099677	-0.23290253210560702	0.2744641657166038	62.14500619313611
4	2.0	perception	114	diff_vonmises	0.004437180203598472	0.2542316986051918	7.162787758442593	1.4688302906296278	0.4628131173518707	2.5861557679067073	0.9186191842393427	-0.4508827582101051	1.369501942449448	47.939313719511006
5	2.0	wm	114	diff_vonmises	0.03268439238718604	1.8726777397352776	3.119450501595565	0.8570628393209931	0.3434183896384021	2.008187287327782	0.13634828689610812	-0.28660672799077647	0.4229550148868846	67.82099265562968
6	3.0	ltm	114	diff_vonmises	-0.23302553147300864	-13.351379472196328	1.4498897416822978	104.70533983007859	1.4299483913327962	105.41481639232909	0.07118622302643729	-0.20144159455473698	0.27262781758117427	68.84184517266561
7	3.0	perception	114	diff_vonmises	-0.03222402506878102	-1.8463006353649147	4.520356412212929	2.266467782829285	0.6844894824328852	2.747454598750919	1.0882803508119765	-0.4007811632854839	1.4890615140974603	58.14469666869937
8	3.0	wm	114	diff_vonmises	0.059578914866747414	3.413620369833862	2.333283224263275	1.3927554570524463	0.6198084898985613	1.995868408856475	0.25050692350268466	-0.21277910684854678	0.46328603035123145	73.84777750319213
9	4.0	ltm	114	diff_vonmises	-0.39301739749826314	-22.518238151865916	0.568653568894404	20.746444961668193	0.48587759407674663	22.316087570604946	-0.060957617533548	-0.3364305445890483	0.2754729270555003	108.50663275710296
10	4.0	perception	114	diff_vonmises	-0.04592854314717473	-2.6315116815176114	2.693402230485546	2.675502415584713	0.3158423770774733	3.8548707569011675	0.8260904983510201	-0.496855687422607	1.322946185773627	75.85740942862594
11	4.0	wm	114	diff_vonmises	-0.029670800188569397	-1.7000116255809936	0.6817716032808748	164.20500874535807	0.6683515993320939	165.84495414568795	-0.03729060684331387	-0.3516898150434784	0.31439920820016454	96.28999905763615
12	5.0	ltm	114	diff_vonmises	0.05138200845103318	2.9439722271497297	0.9849115014267722	129.41899158392	0.9638891972516215	130.60716057754362	0.11787782963035198	-0.3068328902807398	0.42471071991109177	84.58494211861492
13	5.0	perception	114	diff_vonmises	-0.05370721857999857	-3.0771969540205166	0.9609809722356488	383.2510707463711	0.9480484219966181	384.4280748400806	0.5503565282024283	-0.4638014983976646	1.014158026600093	90.83629594771588
14	5.0	wm	114	diff_vonmises	0.11562812494140723	6.625003552154004	0.9846416204979312	1.6902483800171604	5.770524146102109e-13	2.786818007483619	0.1291136025249141	-0.3636153358064122	0.4927289383313263	129.0927446478726
15	6.0	ltm	114	diff_vonmises	-0.48741201966226305	-27.92665161059517	0.739242640940337	183.04157915905566	0.7256771208906859	184.12877503393463	0.1591303471954646	-0.30960230994786997	0.46873265714333456	99.59145143500128
16	6.0	perception	114	diff_vonmises	0.0003047407919800511	0.017460361225931094	0.6977116155391173	243.33317389777943	0.6829840802293766	244.40292369899637	0.38181909332543285	-0.41738630761883044	0.7992054009442633	106.13168598902395
17	6.0	wm	114	diff_vonmises	0.07813519569431455	4.476816944712986	0.5224985555202564	3.6500174341338307	5.655864739537621e-14	4.812136849405272	0.15008203872194903	-0.4437280524810091	0.5938100912029581	150.88836046833723
18	7.0	ltm	114	diff_vonmises	-0.07944089532459464	-4.551628022839827	1.142009409832491	151.35352990442803	1.125671010906647	152.86984066167335	-0.09295698122145524	-0.33205382443238207	0.23909684321092683	70.98581760875877
19	7.0	perception	114	diff_vonmises	-0.015397050186058091	-0.8821859926122476	1.0849875839393384	2.0483323125592583	1.453398423083373e-17	3.621751362056337	0.15631290928019825	-0.4927555152057983	0.6490684244859966	125.12331603438373
20	7.0	wm	114	diff_vonmises	0.3457007005668205	19.80719111719464	0.6671876009640418	115.54334542978044	0.6516594396505541	116.92594260226757	-0.03948726967759342	-0.2936575498461611	0.2541702801685677	97.01042052566402
0	1.0	ltm	115	diff_vonmises	-0.27666997349976596	-15.85202179953292	17.336998312232325	0.13890837199225026	8.109891933645602e-23	2.958447426260051	-0.24183186898035675	-0.4708515317667824	0.22901966278642566	32.51830549319624
1	1.0	perception	115	diff_vonmises	-0.08552409558534337	-4.900169723713611	13.654807927776327	0.630042203701371	4.158416082449507e-16	3.718188272741457	0.32821465245326376	-0.5917680429518501	0.9199826954051139	36.67385389239513
2	1.0	wm	115	diff_vonmises	-0.11751861293195856	-6.733320535232763	4.890144392070394	0.47229323164146325	0.14135690290383607	3.252838878838905	-0.18864797568269714	-0.524445416854433	0.3357974411717359	56.301149747384756
3	2.0	ltm	115	diff_vonmises	-0.14903854698313773	-8.53927972689602	4.334790201663817	0.38563434127602597	2.2839368031176787e-21	1.7935946005453989	0.02422845552010755	-0.2854062486127764	0.30963470413288396	65.70058866346653
4	2.0	perception	115	diff_vonmises	0.019611926452037142	1.123680613822707	6.743531009674177	1.7421826413469126	0.49736619822148825	3.4112683356413176	0.9287463117419408	-0.5957896988957853	1.5245360106377261	48.734232722488514
5	2.0	wm	115	diff_vonmises	0.033007014702952725	1.8911626368054457	2.9427493648562417	0.7240700466991106	0.16077963752720628	2.411475322804152	0.02120045141684368	-0.3569399057303445	0.3781403571471882	72.26000726140168
6	3.0	ltm	115	diff_vonmises	-0.160973820909134	-9.223120550188144	1.3220102492427046	160.02761719686808	1.302769813121204	161.3436358945533	0.034731515757485454	-0.3338524559068077	0.36858397166429313	70.1779086343025
7	3.0	perception	115	diff_vonmises	-0.009055889169141892	-0.5188642291300641	3.604863015328187	3.7147064679230515	0.9655822941602156	4.843015923280843	1.073741738928996	-0.6095059471174684	1.6832476860464645	60.283612557895026
8	3.0	wm	115	diff_vonmises	0.11326053168506961	6.489350450962223	1.189231682709258	139.96375634574378	1.1650304663257656	141.19322361474437	0.1695611521241105	-0.3408363472907503	0.5103974994148608	77.4746054556083
9	4.0	ltm	115	diff_vonmises	-0.6675438181044294	-38.24744341743252	0.8738372432302498	166.70385971050777	0.8535897914208824	169.38892436833268	-0.1989799613628236	-0.5370366547220833	0.3380566933592597	80.01698765256215
10	4.0	perception	115	diff_vonmises	-0.04020580899686314	-2.303623167429372	1.8707406261980801	4.6256488410790055	0.5545153623520029	6.385294383156599	0.65075587991823	-0.6008544108003322	1.2516102907185622	81.19797685088699
11	4.0	wm	115	diff_vonmises	0.12423106803202097	7.117915882637403	2.41806068709638	0.4282258756904494	2.6636809900146487e-21	3.40889220996513	-0.2950692710223273	-0.5405776406019291	0.24550836957960187	88.4375336676737
12	5.0	ltm	115	diff_vonmises	-0.0071271151333222645	-0.4083536172431848	1.5007988228966758	3.5780660193979497	0.679309769880102	4.716352932907608	0.22682727664190638	-0.3299893708585224	0.5568166475004288	82.84711959392456
13	5.0	perception	115	diff_vonmises	-0.11752427503883932	-6.733644950060182	1.066225289878384	324.79961633670337	1.0493106420695604	325.93574582585205	0.6346857140176496	-0.477518490820362	1.1122042048380116	86.73331688921414
14	5.0	wm	115	diff_vonmises	0.1520573521559316	8.712244522469371	0.9918015104969745	1.6884959779805606	2.8583925501813187e-15	2.7717540193088084	0.1332115679349028	-0.36212152660531627	0.49533309454021907	128.70793349664984
15	6.0	ltm	115	diff_vonmises	-0.4460759814994777	-25.558271082075862	0.8353278938463636	128.24833673435975	0.8224481654479346	128.9436770592582	0.10120662501404354	-0.19291300894555974	0.2941196339596033	93.34634087355647
16	6.0	perception	115	diff_vonmises	-0.058368519214716745	-3.3442698074315196	0.39218654710154127	132.94214669615639	0.37514885141828397	133.83937708628736	0.21333506986040618	-0.3762062366957313	0.5895413065561375	135.12599094400343
17	6.0	wm	115	diff_vonmises	0.1553930427210907	8.903365513614595	0.5240995016072804	2.6903208904986387	8.964137959285532e-16	3.652831871987329	0.09457861878586638	-0.3444008808254415	0.4389794996113079	150.48409512144707
18	7.0	ltm	115	diff_vonmises	-0.1312375164260006	-7.51935580498865	1.2363191406819845	118.25964175819419	1.2153383985218331	119.68202822376165	-0.08680264778487867	-0.32131948957292167	0.234516841788043	68.32966432794115
19	7.0	perception	115	diff_vonmises	-0.052190408493918906	-2.9902901377652764	0.6013735302613819	58.164312600761065	0.5500874804907628	59.92592625115251	0.11193346572517271	-0.4654402609138053	0.577373726638978	110.20598172990456
20	7.0	wm	115	diff_vonmises	0.26754923616639115	15.329442044283137	0.7809610289441093	121.20540831887953	0.7655817878196715	122.91920777394307	-0.15316906644319772	-0.32935616817413305	0.17618710173093532	82.53365211468258
0	1.0	ltm	116	diff_vonmises	-0.8120091858294188	-46.524699273879875	4.5350540577002665	0.43871448388409323	3.806722950917855e-48	0.7662399822846931	0.2390456074306645	-0.12190933368545148	0.360954941116116	64.18054343215051
1	1.0	perception	116	diff_vonmises	-0.08012901775978175	-4.5910545341643125	11.643534608542202	1.0135648728376847	0.00035806666587799796	1.3252949675732173	1.1529261916348958	-0.21091675628742987	1.3638429479223257	39.750695179597585
2	1.0	wm	116	diff_vonmises	-0.02489100297660683	-1.4261494184071406	4.200320545687187	0.32963523491291374	7.34692088695528e-15	0.3879131181175797	0.19850496595909203	-0.06167979394817708	0.26018475990726914	66.7689012403059
3	2.0	ltm	116	diff_vonmises	-0.1770045086026201	-10.141611297717205	2.6725393714211325	47.27207287879334	2.6419642094238456	47.259736034790656	0.20076759140046008	-0.06676326355843809	0.26753085495889817	57.287389605402524
4	2.0	perception	116	diff_vonmises	-0.01184008404402161	-0.6783868448026262	7.152117825866028	1.4290951998617623	0.6072641466022952	0.7815087590037372	1.2873397611987807	-0.1264816721146062	1.413821433313387	49.39546626244612
5	2.0	wm	116	diff_vonmises	0.21780466054504932	12.479287807510886	1.8792376818359133	0.5083207513599495	7.474431180736323e-11	0.35674274599028793	0.1957299389301011	-0.050888311759302314	0.2466182506894034	99.81635665096431
6	3.0	ltm	116	diff_vonmises	-0.11323339522674196	-6.487795646429116	2.66023392456878	37.88563101034897	2.63884789982265	37.89179164937922	0.10474543645277379	-0.03910763360131142	0.1438530700540852	56.866317186350756
7	3.0	perception	116	diff_vonmises	-0.027018394303726066	-1.5480399628238082	4.994833770383406	1.721512366953411	0.6729656714939515	0.9928400370775219	1.2143296386488789	-0.13519140534082266	1.3495210439897016	58.19275815524037
8	3.0	wm	116	diff_vonmises	0.05031523733038068	2.8828507442299003	1.635754233046022	38.101766960037374	1.6157394316129579	37.76874784529295	0.2807360602505362	-0.020843050523039475	0.3015791107735757	82.63455424651465
9	4.0	ltm	116	diff_vonmises	-0.33720688640935953	-19.32053141400366	15.153023692854886	0.26900582031770615	0.4948829566315396	0.4305993805136543	0.30827023917697716	-0.08710180786990455	0.3953720470468817	33.93955701076379
10	4.0	perception	116	diff_vonmises	-0.0807599295904922	-4.627203119308894	3.486021529576039	1.9185907559006399	4.654422000091492e-15	1.8660123319831088	1.0703773604262437	-0.29570267350114654	1.3660800339273902	73.47136179802672
11	4.0	wm	116	diff_vonmises	-0.4190991193907716	-24.012610738740612	1.311921890763055	85.69392727082729	1.2920966722068796	85.86727275887938	0.24005777139601037	-0.12043570393417102	0.3604934753301814	80.15202092276458
12	5.0	ltm	116	diff_vonmises	0.1178474777578958	6.752163101789271	2.1731609034450163	38.33130113767899	2.141044524867693	38.29685395700138	0.20331430879674883	-0.05855169881214106	0.2618660076088899	64.46815481415732
13	5.0	perception	116	diff_vonmises	-0.09231758420627038	-5.289407949862879	2.341014290114097	1.826340466452607	5.148104402198136e-14	1.0673817771349725	0.8655032595192809	-0.16029065563257058	1.0257939151518514	89.87762905054893
14	5.0	wm	116	diff_vonmises	0.24854116144861013	14.240359586284962	0.542513496625382	54.652813275516586	0.5232622489917625	54.38876849920931	0.263886120606756	-0.09196740652359203	0.355853527130348	127.15264852722575
15	6.0	ltm	116	diff_vonmises	-0.3952069255954664	-22.643688870960972	0.26242584862446083	62.73220028971855	0.24788237611830796	62.57409568747133	0.19280719236987842	-0.10536080198778741	0.29816799435766583	149.7037083893503
16	6.0	perception	116	diff_vonmises	0.10951875999278596	6.274962725092846	0.31725341362921916	113.48402118065152	0.3034630983529186	113.03843770616686	0.3747000081710503	-0.15446639529515238	0.5291664034662027	146.8474301307583
17	6.0	wm	116	diff_vonmises	0.08918944957387064	5.110179037677666	0.0002542326584161872	4367.491152311129	7.036766270856916e-34	4367.211889405623	0.22117608135204136	-0.13226147396744636	0.35343755531948773	179.6601140551987
18	7.0	ltm	116	diff_vonmises	0.1309239608314298	7.501390392777028	1.419512109349109	74.79032051948829	1.3984827456899482	75.15513408961841	0.12871947831709107	-0.1302965595766583	0.2590160378937494	73.23863865895132
19	7.0	perception	116	diff_vonmises	-0.16765819568615306	-9.606107013595036	2.842793769115074	1.230929195248878	7.549895282035876e-15	1.216680363037307	0.588043742688677	-0.19098687969630787	0.7790306223849849	81.53283160335224
20	7.0	wm	116	diff_vonmises	-0.04315673105628264	-2.4726985471061624	0.18426571976642397	42.70597321502807	0.16519073572946386	42.815636525654256	0.11943954224966813	-0.13213390395235614	0.25157344620202426	159.9629788022549
0	1.0	ltm	117	diff_vonmises	-0.007635482592870651	-0.4374809271170949	1.8971899741818288	0.8274304730679943	6.658717017207712e-22	3.387062679942653	-0.1256601193314737	-0.5297663691813095	0.4041062498498358	99.46875454854242
1	1.0	perception	117	diff_vonmises	-0.06041081824304466	-3.461284922258378	10.67198013243174	0.7343342370778277	0.009202543395518287	3.4291654899167074	0.3941792691646573	-0.5467313979475024	0.9409106671121596	41.432150502821884
2	1.0	wm	117	diff_vonmises	-0.04652152929191558	-2.665487284920996	2.6559284536551946	0.8595033352784727	0.09121173247993214	3.29999679490247	-0.04939886780040792	-0.4933823404440429	0.44398347264363497	77.78221487058087
3	2.0	ltm	117	diff_vonmises	0.15449778210410708	8.852070858697155	2.3298857506711643	0.5137967310298533	4.6901137984191114e-20	1.7547391676940134	0.011188119922894924	-0.27652507918718694	0.28771319911008186	90.07062149932415
4	2.0	perception	117	diff_vonmises	0.021755871767671513	1.2465196319153995	5.468342109024401	1.5768521969418399	0.44240769087338416	2.5569572225511346	0.8303619107355362	-0.41193746548353666	1.2422993762190728	54.36158708618552
5	2.0	wm	117	diff_vonmises	0.1559965061268824	8.937941419857049	2.3650540899494845	1.2614541045486694	0.45441524198109245	2.229801051118362	0.18825421782493468	-0.2697250872959358	0.4579793051208705	74.64715487731533
6	3.0	ltm	117	diff_vonmises	-0.23057687767581111	-13.211081944128228	1.1626809860111282	109.71124944817448	1.142657313143971	110.60213026332016	0.08024222307615503	-0.23280956643677797	0.313051789512933	77.17486151621699
7	3.0	perception	117	diff_vonmises	-0.042505733691968056	-2.4353991456567963	4.548967720254723	1.8436901878872136	0.19033284440396328	2.521367765850835	1.0385715939258193	-0.38161163992517033	1.4201832338509897	61.81295326254374
8	3.0	wm	117	diff_vonmises	0.09261258512156242	5.306310257261609	1.943997745675835	1.0462494731932601	1.8146723270820133e-15	1.527231026889096	0.287466469653535	-0.23219707127749128	0.5196635409310263	98.31691146474347
9	4.0	ltm	117	diff_vonmises	-0.3448534899270794	-19.7586495231789	1.292567327654976	1.1421910572529577	3.07992412362999e-16	2.700272293790919	0.022670093473750264	-0.3956539117338454	0.41832400520759566	116.76718854567683
10	4.0	perception	117	diff_vonmises	-0.022803116182911563	-1.3065223170273004	1.9633207591515744	3.829261469395789	0.37649501204728414	5.083012726394357	0.8152769996870359	-0.5468846296349124	1.3621616293219483	85.0997862024528
11	4.0	wm	117	diff_vonmises	-0.17040970181257514	-9.76375670194341	0.683572007594799	227.69267027056654	0.6722990883761304	229.28094246072652	0.04511641196049254	-0.375597647010931	0.42071405897142355	99.4047482551962
12	5.0	ltm	117	diff_vonmises	-0.11455520346857348	-6.563529680011669	0.78869106202731	157.7499566838823	0.7741433017536007	158.73367852745963	0.14439098959750396	-0.27622041391131447	0.4206114035088184	96.29792577491936
13	5.0	perception	117	diff_vonmises	-0.04417456681325213	-2.5310162402180176	0.9374388755328308	326.29128020966505	0.922468177854616	327.2373466204593	0.6194089379937822	-0.44404410940371974	1.063453047397502	93.15084935776414
14	5.0	wm	117	diff_vonmises	0.02593316334790326	1.485860809258213	0.329274655737807	158.2751178046299	0.31633156863970197	159.09028862732674	0.1951847223383254	-0.35894428725806904	0.5541290095963944	142.08010808394675
15	6.0	ltm	117	diff_vonmises	-0.5243518185895643	-30.043146185191414	0.6509446853279716	200.54202181371025	0.6385882030653833	201.59708480650914	0.1829003037361332	-0.32669890715620653	0.5095992108923397	107.09216796390754
16	6.0	perception	117	diff_vonmises	-0.037988166288107125	-2.176561599749693	0.7271580298649039	313.01266763783394	0.715217226637777	313.94430913229286	0.4451669861306442	-0.4093754300506056	0.8545424161812498	104.84348922942125
17	6.0	wm	117	diff_vonmises	0.07953091637341866	4.556785849004784	0.4842229591705885	3.9515842050200236	2.9027910992670758e-12	4.959211092544118	0.17407260673543112	-0.4235126273764595	0.5975852341118906	152.8788402219188
18	7.0	ltm	117	diff_vonmises	-0.1240287350168597	-7.106323054812506	0.8688546387286875	97.25233709391594	0.8443459723428568	98.92079395376183	-0.06601656722963867	-0.34984850570980264	0.28383193848016397	83.65841035674129
19	7.0	perception	117	diff_vonmises	-0.014816490358589809	-0.8489223647434717	0.5239997340485741	182.91841366239814	0.5026934083121953	184.57025813089757	0.3214810730613067	-0.5838499667520445	0.9053310398133512	120.47731998475254
20	7.0	wm	117	diff_vonmises	0.19447614535083838	11.142662344575786	0.6727733376828782	112.5824176442338	0.652703164167611	114.02541912862974	0.032190131193384985	-0.3385919065215859	0.37078203771497087	100.27945425772958
0	1.0	ltm	118	diff_vonmises	-0.09311865224817423	-5.335305767766778	0.00028531243833915325	3712.0327411967214	1.273013567451253e-30	3714.3413280914706	-0.19885461377793945	-0.5359673735543993	0.3371127597764598	179.73647275493772
1	1.0	perception	118	diff_vonmises	-0.0931863272196539	-5.339183258011232	8.440886075917017	1.083793588911542	0.24926601730442138	3.4535925673093892	0.5418520380566969	-0.5948740063435868	1.1367260444002838	44.746773852686545
2	1.0	wm	118	diff_vonmises	-0.009621761862762111	-0.5512863462162022	2.0816284926848305	1.0574589626086297	0.18591130776413653	2.9962263278753443	-0.0105427240110878	-0.4098924870457941	0.3993497630347063	82.47607999712676
3	2.0	ltm	118	diff_vonmises	-0.009102229499478403	-0.5215193344795882	2.8398295098284776	0.42098556813154625	4.393781399464578e-27	1.8217210362164376	-0.022763797285811793	-0.2890234085028487	0.2662596112170369	81.5867352071181
4	2.0	perception	118	diff_vonmises	-0.017008435767264594	-0.9745115855836154	6.6936332078150125	1.3007432996488542	0.28197172846044904	2.5226629896293944	0.7936376207430408	-0.4175460753644877	1.2111836961075284	50.379276034726956
5	2.0	wm	118	diff_vonmises	0.4557579274161923	26.113005720577533	3.5305046649886793	0.5644683397828094	1.7499255329562903e-14	1.5046353421623533	0.16569433537500478	-0.2391225521111543	0.40481688748615907	72.97067548346098
6	3.0	ltm	118	diff_vonmises	-0.22606854167168022	-12.952773318464653	2.7326592032625463	0.42952742339128347	8.53034128727414e-11	1.1397613889053728	0.08523469776628323	-0.18027053283851574	0.26550523060479897	83.16754650082044
7	3.0	perception	118	diff_vonmises	-0.09919953352207588	-5.683714600481478	3.440304277468587	1.9755966684121866	0.24648804558411164	2.5697300018703673	0.8822588061255321	-0.3614976711612944	1.2437564772868264	69.7536110158513
8	3.0	wm	118	diff_vonmises	0.08288063006764325	4.748710306261029	0.8847269181400859	103.26867244270413	0.868927739060617	103.29132347259629	0.30387237290192814	-0.13046442262874436	0.4343367955306725	99.94178511661207
9	4.0	ltm	118	diff_vonmises	-0.20212923517546277	-11.581152091761279	6.205139698479107	0.4489495247061056	0.19664175578906745	1.8947632412976307	0.07273769656874524	-0.3125684265477685	0.38530612311651374	51.3160772235168
10	4.0	perception	118	diff_vonmises	-0.10739530118555253	-6.153297497468486	2.429705259944085	2.304089087623624	0.21077842561034374	3.5702163147120127	0.641500102952534	-0.47202753248139395	1.113527635433928	81.17719191831031
11	4.0	wm	118	diff_vonmises	-0.5087350687337419	-29.148372328741253	1.0133213689476808	149.8438943863817	0.9979630067116023	151.13678461209804	-0.0061571210654207675	-0.29208953754411127	0.2859324164786905	79.16109384653205
12	5.0	ltm	118	diff_vonmises	-0.38297532251918776	-21.942869638010972	0.8048548013624457	151.10182035049337	0.7910037187282982	152.07461647297015	0.10597342526952502	-0.2570460699669255	0.3630194952364505	94.2392861525066
13	5.0	perception	118	diff_vonmises	-0.08556025730502083	-4.9022416376310645	2.6685386895329595	1.9900537673732983	0.12084456375401186	2.966319504932532	0.6876337829898932	-0.42066884315316966	1.1083026261430629	80.33480326695559
14	5.0	wm	118	diff_vonmises	-0.28264122007943926	-16.194149026980128	0.43743929829700207	162.8212034914114	0.4265321213125871	163.37999490782678	0.1977215929639371	-0.26772048261812564	0.46544207558206274	130.19504656501408
15	6.0	ltm	118	diff_vonmises	-0.3786312066989733	-21.693970135796675	1.3113985162510744	1.0599934049072743	1.3505786658433595e-15	2.3173724751646896	0.05467530330062509	-0.33807448708747956	0.39274979038810465	116.00691778212669
16	6.0	perception	118	diff_vonmises	0.2512556207620112	14.395886648602822	0.2202964662605461	196.89355650163594	0.20851704260023934	197.94569509087984	0.19991790464059278	-0.4603550190462933	0.6602729236868861	153.4672147241017
17	6.0	wm	118	diff_vonmises	0.3785216406255957	21.687692462214315	0.0002525041454643195	3220.2088532144166	2.652425660474316e-25	3221.3814487533728	-0.05720668650440075	-0.31602572854831124	0.2588190420439105	175.55276667329832
18	7.0	ltm	118	diff_vonmises	-0.3006061236090025	-17.22346217858378	0.5653508784575739	40.44897423836201	0.5152773302522659	41.684818649642544	0.07226279233329613	-0.3304505664335826	0.40271335876687875	113.77143945416475
19	7.0	perception	118	diff_vonmises	-0.24048086229377902	-13.778538463100276	0.6142770389610581	218.49273453088685	0.5969402608133212	219.87010299382817	0.3523531560406923	-0.4985435522142083	0.8508967082549006	112.1737786416741
20	7.0	wm	118	diff_vonmises	0.24609082013955771	14.099965370909697	1.556754228502669	1.8689496512559605	0.3449536232930812	2.5983550602640233	0.2610857728129248	-0.25797913842451836	0.5190649112374431	92.75605410519401
0	1.0	ltm	119	diff_vonmises	-0.001501598001757238	-0.08603522802596772	0.00033857540865652645	3028.4738629514113	1.9392080795309472e-32	3031.038321024173	-0.24494036017682674	-0.5713243707808147	0.3263840106039879	179.97337808541886
1	1.0	perception	119	diff_vonmises	-0.04578503997665497	-2.623289555500083	8.464941669060023	1.027149687114044	0.11723334760178061	3.72774310094493	0.5085505682749355	-0.612439517745349	1.1209900860202846	45.53853478017024
2	1.0	wm	119	diff_vonmises	0.011896055179268698	0.6815937546268404	2.7569084816099343	0.7194441673616768	0.06943131004697531	3.1226453348916285	-0.0832026490244806	-0.47369172412031485	0.39048907509583425	77.24855187688891
3	2.0	ltm	119	diff_vonmises	0.06296044817009577	3.607367956398655	2.5843753934516913	0.40438887713997484	5.121704348313586e-20	1.6901464010263096	-0.02599783020476945	-0.26761192474041284	0.2416140945356434	85.55934695827384
4	2.0	perception	119	diff_vonmises	-0.006017634898004106	-0.3447850823062729	6.642181459220065	1.4509760849841538	0.33049846858349186	2.529368918915376	0.9161110715122418	-0.4204957740286458	1.3366068455408877	50.432196659528984
5	2.0	wm	119	diff_vonmises	0.21447912427567928	12.288748614658303	2.700364353553807	0.8101653737398214	0.1827425783524716	1.8916426081069673	0.14101806405869488	-0.26829881766294694	0.4093168817216418	76.16141416406049
6	3.0	ltm	119	diff_vonmises	-0.20721969549013347	-11.872813983570747	1.384221608694589	1.6929520634762008	0.6605355077538753	2.319027250112437	0.056140547474930136	-0.1583867789401419	0.21452732641507202	83.19373843983887
7	3.0	perception	119	diff_vonmises	-0.059772214958242635	-3.424695649256031	4.1140576400336935	1.865571083867572	0.29868862255081624	2.222644805620898	0.9899241149028314	-0.3222192176486115	1.3121433325514429	63.99747971137532
8	3.0	wm	119	diff_vonmises	0.02632568766341618	1.5083507958933648	1.026237916180367	110.44011616836086	1.0088748757715884	110.71451437081681	0.26792495838611785	-0.1586827526222141	0.42660771100833195	90.07864516408827
9	4.0	ltm	119	diff_vonmises	-0.22193604641269477	-12.715998781266965	5.007454824757194	0.3766643887687288	7.21269927517902e-17	1.8855510612791824	0.02676406450188301	-0.30008015029632495	0.32684421479820797	61.01477609952289
10	4.0	perception	119	diff_vonmises	-0.06251907824766448	-3.5820793226393253	3.0637423202142298	1.9972128628317927	0.0526183356579263	2.9948096200175818	0.8216840979773536	-0.4518700619648286	1.2735541599421822	76.89978629633254
11	4.0	wm	119	diff_vonmises	-0.2448842391843059	-14.030833374532905	0.7403066141290151	197.6555152161556	0.7285790814717062	199.17969571525157	0.00032988599641470273	-0.3392025855601126	0.3395324715565273	93.67438705712904
12	5.0	ltm	119	diff_vonmises	-0.1608910831546319	-9.218380026048782	0.7484004942713778	133.86025132000896	0.733758563451912	134.87631519072605	0.07841466803675701	-0.25812368387521545	0.33653835191197246	96.9135109577105
13	5.0	perception	119	diff_vonmises	-0.07273242668896943	-4.167261083022616	1.9127119398100672	3.206338676989891	0.38456962628916835	4.082647444779811	0.6898254508519354	-0.4264929104908044	1.1163183613427399	86.17499255982673
14	5.0	wm	119	diff_vonmises	-0.07145707653829886	-4.0941889019878195	0.37781700349202874	140.98131959550176	0.3647735598825089	141.8168495690397	0.14986620055259436	-0.3200599363615524	0.46992613691414675	135.97199637198423
15	6.0	ltm	119	diff_vonmises	-0.4623310576533389	-26.489618341355854	0.5076650353670445	161.42661977087496	0.4959539335375742	162.44205771133028	0.10363863243821214	-0.30550900633872935	0.4091476387769415	119.18260128959439
16	6.0	perception	119	diff_vonmises	0.15236179951073497	8.729688070983526	0.2944410843865873	233.85682023720608	0.2831100597294477	234.653483612803	0.30760755060835265	-0.4473362832046561	0.7549438338130088	146.20208769007127
17	6.0	wm	119	diff_vonmises	0.10261364887894045	5.879329001200619	0.4268075000017454	3.4025697847492973	2.9941367170900956e-16	4.43441436326933	0.0875262437164801	-0.3679198783982764	0.4554461221147565	155.8290089239418
18	7.0	ltm	119	diff_vonmises	-0.35872035393134166	-20.553162305705005	1.4400656851613638	0.7457576015024883	6.963392935847424e-16	1.914155099238008	0.010498709398174266	-0.2869573769869312	0.29745608638510546	111.87734770120386
19	7.0	perception	119	diff_vonmises	-0.0858387016481408	-4.9181953233211315	0.635402052986888	197.70414203687807	0.6172452046073069	199.0026516385284	0.3319605557822456	-0.4623334993070429	0.7942940550892885	110.24717860526516
20	7.0	wm	119	diff_vonmises	0.14996948887547204	8.592618768298697	0.8183905686522	4.234719588204235	0.3766538118291267	5.343705585104737	0.10404009508420131	-0.3104095341068045	0.4144496291910058	110.61768809501032
0	1.0	ltm	120	diff_vonmises	-0.4117957362839348	-23.594157710551723	0.13830141484513292	5.904485275533012	2.0262350309050822e-11	6.682103729379503	0.010474768271525825	-0.24903707721536605	0.2595118454868919	167.93545108227755
1	1.0	perception	120	diff_vonmises	-0.09903334831876734	-5.674192889714376	17.343246828115287	0.7067199066508411	0.05925025470793436	1.7138483473008574	0.8759669552077985	-0.2812719741597673	1.1572389293675658	32.38522490997644
2	1.0	wm	120	diff_vonmises	-0.11811654396839345	-6.767579460060365	3.68155405050899	0.37028337609211703	2.200873708386965e-12	0.9013588928864803	0.1285576447618791	-0.1432831954009337	0.2718408401628128	71.43940236340143
3	2.0	ltm	120	diff_vonmises	-0.13391349424972845	-7.672678040358859	14.248988088662731	0.25994626155997175	5.932678546569542e-23	0.5564519721838448	0.2992578066622851	-0.08856208196612969	0.38781988862841477	35.900339019079524
4	2.0	perception	120	diff_vonmises	-0.012257293428873781	-0.702291181727905	7.341593141185157	1.3171641654874557	0.5306083493501192	1.5066881440571167	1.017293894237025	-0.2598473325026376	1.2771412267396627	47.94415169652359
5	2.0	wm	120	diff_vonmises	0.04913326056826122	2.8151284642779166	3.719904368601438	0.4252183989726053	0.22310914512456606	0.6778060482480482	0.1809853891686811	-0.0990421579789699	0.280027547147651	67.02007991931421
6	3.0	ltm	120	diff_vonmises	-0.21527513471656007	-12.33435665336912	2.4883003744831194	69.02005888358555	2.4593792400715357	69.18479575806842	0.18194159239273233	-0.11849662116778958	0.3004382135605219	56.48972247280406
7	3.0	perception	120	diff_vonmises	-0.03325448789184656	-1.9053418060717064	4.170206366866569	2.4762761333634535	0.9064688715333614	2.3567222035241993	1.184114884539201	-0.3015100785631361	1.4856249631023373	59.79968619102783
8	3.0	wm	120	diff_vonmises	0.034705070569947066	1.9884540713616494	1.7259399112792162	76.86674772253139	1.7029513813467965	76.85282758789386	0.301348355928198	-0.09558864212146823	0.3969369980496662	72.01444912706444
9	4.0	ltm	120	diff_vonmises	-0.3810659063762663	-21.833468151687427	24.329814981889182	0.2155784544474428	7.363887829647048e-14	0.732432763117685	0.30537966315821313	-0.1165702947326308	0.42194995789084394	27.425731495846748
10	4.0	perception	120	diff_vonmises	-0.10217520414263784	-5.854207968260753	2.8998695265947867	2.444157669028072	0.24969186339296162	3.142637830620353	0.9379020611892259	-0.42086265677849954	1.3587647179677256	75.27790292386044
11	4.0	wm	120	diff_vonmises	-0.31271142528738666	-17.91704487448782	1.0169830659861705	108.54623770819828	1.00284521916454	109.0580566049693	0.114884212866599	-0.15457281616640905	0.26945702903300806	85.64317798751492
12	5.0	ltm	120	diff_vonmises	0.06775630713805897	3.8821504344029125	1.6727701883112354	96.22549800997339	1.6516141247740386	96.46253799378194	0.2348870829631835	-0.13726276400236515	0.37214984696554865	69.81285433175205
13	5.0	perception	120	diff_vonmises	-0.03444504935304231	-1.973555953049151	0.9331781823051357	110.53185266585898	0.9002627678373997	110.70165382975004	0.6375124611860699	-0.29099191523545276	0.9285043764215226	97.12417263664793
14	5.0	wm	120	diff_vonmises	0.08932343958283863	5.117856099688452	1.4771220331646384	0.9688075049557582	6.138094158113842e-17	1.1917996477573196	0.22607315641472928	-0.16801238664916118	0.39408554306389043	111.13910292361481
15	6.0	ltm	120	diff_vonmises	-0.4603593912134495	-26.376650175742608	1.676647490998685	0.9362853755422856	4.81029284581175e-06	1.3715405042434552	0.21563972630094366	-0.20311129039569792	0.4187510166966416	104.69201209662523
16	6.0	perception	120	diff_vonmises	0.01494565769113545	0.8563231077492998	0.8293537994922121	142.6424164693375	0.8114267932502792	142.88766711050417	0.41323499378844986	-0.22943224002727192	0.6426672338157218	101.48884205723627
17	6.0	wm	120	diff_vonmises	0.04384952886855308	2.5123929378051555	0.000284322119781716	4480.191126510849	4.210079748845893e-32	4480.491814799056	0.1548853799082508	-0.2505686179498525	0.4054539978581033	179.8781891443624
18	7.0	ltm	120	diff_vonmises	0.1098359731140895	6.29313769814971	1.5572619812689248	166.80927283828876	1.5399252762387405	167.71709519865382	0.10116991487034	-0.26916378511378625	0.37033369998412624	66.45878306151428
19	7.0	perception	120	diff_vonmises	-0.2036357826013699	-11.667470900902057	1.5125322421305534	1.927534911356841	0.1593092732276392	2.5883270722715905	0.35908000220269237	-0.3083165393758695	0.6673965415785619	102.23707714143562
20	7.0	wm	120	diff_vonmises	0.671546600687041	38.47678596572464	10.95017746244308	0.23470577603761222	1.5806430136807814e-18	0.6900697101725406	0.1962065048049096	-0.10982800535756784	0.3060345101624774	41.002718201816236
0	1.0	ltm	121	diff_vonmises	-0.9316105741330257	-53.377354047581875	0.00020194642008358429	2523.302075123871	1.1514637243017234e-31	2525.2435185460035	-0.22788710826102943	-0.39008533816519275	0.16219822990416333	156.7171925208907
1	1.0	perception	121	diff_vonmises	-0.14371139072337732	-8.234056156405051	16.938048748002885	0.6096611278324084	0.1507933648720618	2.733267364129887	0.4903093638447992	-0.474862310592852	0.9651716744376512	32.37223690198644
2	1.0	wm	121	diff_vonmises	-0.13245496778549573	-7.589110629650185	3.045656804115049	0.5238305937964824	0.13248165679064822	2.0037369045575275	-0.016463752568607992	-0.30128520054634994	0.28482144797774195	71.59711217210543
3	2.0	ltm	121	diff_vonmises	-0.08765117081032235	-5.022042156811747	21.784759406858846	0.2523589083544807	7.398393285935173e-31	1.442899367112222	0.23750105206978853	-0.22964456666007751	0.46714561872986604	28.99119862727838
4	2.0	perception	121	diff_vonmises	-0.0031915583888053674	-0.1828628257481206	7.603928090674007	1.3407237718951226	0.49966334513154126	2.7352492497709657	0.774253120512988	-0.4932758548359443	1.2675289753489323	46.143388607245896
5	2.0	wm	121	diff_vonmises	0.43591905499436595	24.976322060508398	4.243803436124139	0.3646172836675042	9.213740132467418e-15	1.3657788705662584	0.07213659901918335	-0.21731081828293658	0.2894474173021199	66.40679692996494
6	3.0	ltm	121	diff_vonmises	-0.3222285154292173	-18.462333972860282	12.704328185903604	0.29326166851911273	0.20831711799497393	1.0803697602674003	0.20308730433090508	-0.19023806545583274	0.3933253697867378	37.054776208788724
7	3.0	perception	121	diff_vonmises	-0.06484404834475915	-3.715290296696971	4.291271019380242	2.2475910390550213	0.6634701435464845	3.205528264492166	0.9054299206299258	-0.4702640718656856	1.3756939924956113	58.71306159755528
8	3.0	wm	121	diff_vonmises	0.25227804978154367	14.454467516273732	1.4875158346339492	102.43340155465972	1.4665797999047405	102.7073553792756	0.2598435754817814	-0.15132138721540933	0.4111649626971907	74.23581151590008
9	4.0	ltm	121	diff_vonmises	-0.4289100034563944	-24.574732988992952	7.50180263045989	0.44677260005863684	0.377607139021195	2.057080774537642	0.01836995028334726	-0.37287736408247474	0.391247314365822	45.02798616895072
10	4.0	perception	121	diff_vonmises	-0.119378835366209	-6.839903429670865	1.1820655558371949	88.01517959051678	1.1171511154448515	89.64702547834696	0.46933117867634166	-0.5297572583474821	0.9990884370238238	80.85934786409294
11	4.0	wm	121	diff_vonmises	-0.5492026498265685	-31.46699393246363	1.0462986519706095	124.59918587800054	1.031205548077638	126.06622618849288	-0.15549354161088758	-0.2986202928534176	0.14312675124253005	69.5218751150522
12	5.0	ltm	121	diff_vonmises	-0.1715487387172912	-9.829018709293285	1.3216778239242901	132.00435147417963	1.296891940478428	133.0320622896298	0.18586943378942777	-0.30595457826339256	0.49182401205282034	74.00640065957845
13	5.0	perception	121	diff_vonmises	-0.10492014442946744	-6.011481461711519	1.0761350423029084	70.85377715764119	1.0059975119734716	72.14075918800977	0.4951956693024293	-0.4613723350034933	0.9565680043059226	86.20394090282915
14	5.0	wm	121	diff_vonmises	-0.07866004796098315	-4.506888764460971	1.6475711805393571	0.9901205208669916	2.5680968137961776e-15	1.546823863214809	0.2078214629046417	-0.22935588642099758	0.4371773493256393	106.05407727005917
15	6.0	ltm	121	diff_vonmises	-0.3611227962617785	-20.69081211176261	0.9305558147614953	87.89144801171629	0.9023939244420675	89.03712744337105	0.10074436706458201	-0.29082626182718485	0.39157062889176686	87.01596920303528
16	6.0	perception	121	diff_vonmises	0.12553165684142736	7.1924341322983345	1.354238926928469	1.393900543135534	1.9276878409761783e-14	2.7611416893627134	0.12825040555801293	-0.4016183020283866	0.5298687075863995	115.11886164724928
17	6.0	wm	121	diff_vonmises	0.4464155022918743	25.57772419053713	0.00029406106236597423	2340.420608529976	3.955774473587264e-26	2341.623784118964	-0.08195160578441119	-0.301014975816031	0.2190633700316198	173.9288349886503
18	7.0	ltm	121	diff_vonmises	-0.07360690339368914	-4.217364907485564	1.2837997504808918	231.29716294702328	1.269329918657927	232.89856069219334	-0.016764982101193482	-0.38675695983957326	0.3699919777383798	69.71495937964548
19	7.0	perception	121	diff_vonmises	-0.47096636717015	-26.98438513145829	0.7386407113947532	242.88909963807797	0.7242852248518836	244.60645956015807	0.16870089542581468	-0.4528896708221488	0.6215905662479635	98.30364455454587
20	7.0	wm	121	diff_vonmises	0.7377312521671274	42.26888716407787	13.250071319757865	0.4258124431991155	0.34528373048543176	1.5068061996531776	0.2833837769782974	-0.28569142888552884	0.5690752058638262	35.82040684110774
0	1.0	ltm	122	diff_vonmises	0.0642126642634272	3.6791146535849055	5.9388384844000575	0.3674377506739828	4.152272416337476e-12	3.8319926828298674	-0.2609025122997042	-0.6098781537142712	0.34897564141456705	55.924362811064384
1	1.0	perception	122	diff_vonmises	-0.07422528822996727	-4.252795748719189	11.037236596189265	0.7562276408276944	0.10321000810929887	4.151086573790799	0.25978149024226094	-0.6905021050363973	0.9502835952786582	39.90556663351896
2	1.0	wm	122	diff_vonmises	-0.12459286509805227	-7.138645327561213	3.396919001615923	0.6381559001089657	0.06962326866814218	3.8405688145027987	-0.2062075120015336	-0.5957216031781228	0.38951409117658925	69.2783878291819
3	2.0	ltm	122	diff_vonmises	-0.03081171304414458	-1.7653811169976705	2.0705344667016985	0.6545445522290223	5.382336785301896e-30	2.626697539309748	-0.07325057871316115	-0.41256735232434205	0.3393167736111809	95.42626281850553
4	2.0	perception	122	diff_vonmises	-0.008769040105703273	-0.5024289884377509	6.816143151799867	1.377103647668848	0.30378177789633043	3.262885082002263	0.7179320780932648	-0.5496436286929017	1.2675757067861664	49.43694655282678
5	2.0	wm	122	diff_vonmises	0.12445152100326412	7.130546907470754	3.1849193832207208	0.8006830776201395	0.16096991970118946	2.5542846585048955	0.06805851660610523	-0.38155639563510063	0.44961491224120587	70.19806072671756
6	3.0	ltm	122	diff_vonmises	-0.24733757674549822	-14.171399262510144	2.2298885431475512	1.0261456950741994	0.2194539207328482	2.4851899546663585	0.07843398472646601	-0.33518334138764033	0.41361732611410634	80.39954579020092
7	3.0	perception	122	diff_vonmises	-0.07007648092082369	-4.015086599892235	3.27151661516098	2.8502168454642796	0.48060487167912436	4.179192095235508	0.944553911178104	-0.556277381312294	1.500831292490398	67.40715094984242
8	3.0	wm	122	diff_vonmises	-0.0016980174190906504	-0.097289231653591	2.1571645301142235	1.4583491594210973	0.2925704584111035	2.490283874779772	0.2675456873975469	-0.3077178456532234	0.5752635330507703	82.02119353283638
9	4.0	ltm	122	diff_vonmises	-0.13069176422834622	-7.4880865074030645	0.6661528650487241	68.30175311406896	0.6263908677916101	70.80757148154997	-0.16196898687300276	-0.49573154962618027	0.3337625627531775	94.2274104847816
10	4.0	perception	122	diff_vonmises	-0.09806380259797105	-5.618642011867779	1.5763039036559146	6.197632264732023	0.580732020864581	8.213635633562054	0.6152619546818734	-0.6552864077715037	1.270548362453377	85.15398505530595
11	4.0	wm	122	diff_vonmises	-0.20456880915283368	-11.720929384474575	0.5931070943162761	183.57231339031705	0.5805485404493054	185.9599540271424	-0.1895102427505151	-0.4591317526551393	0.2696215099046242	96.95453854366046
12	5.0	ltm	122	diff_vonmises	-0.12217879166186749	-7.00032910823318	1.169313365196872	2.8043265435607054	0.33408744011893887	4.359020866673923	0.10482434857313694	-0.3910137122441989	0.49583806081733584	98.9697445663167
13	5.0	perception	122	diff_vonmises	-0.06547000504324786	-3.751154973678317	0.9761714000655318	336.4700420984834	0.958522491259912	338.15169508144413	0.5648861054859822	-0.5777968517827077	1.1426829572686898	89.05634573317599
14	5.0	wm	122	diff_vonmises	-0.16081593704425717	-9.214074471077486	0.4610578302405709	157.98734000630017	0.4462295505195295	159.36804115763334	0.10756818882420305	-0.40883440321922215	0.5164025920434252	124.44796384159976
15	6.0	ltm	122	diff_vonmises	-0.4041446720219775	-23.155784019558194	0.7118426296932175	222.6477798236767	0.6995993572967965	224.37822280195644	0.027415120441439456	-0.3975148246006768	0.42492994504211623	96.62613393895556
16	6.0	perception	122	diff_vonmises	0.06445864481632839	3.693208301108438	0.7435756352820234	4.7267523869602455	0.16550925777976389	6.398942067909949	0.19076862840105702	-0.5443140593785949	0.7350826877796519	128.19621607640266
17	6.0	wm	122	diff_vonmises	0.12545167192001472	7.187851333876704	0.6727809785496224	2.052865024672708	1.3293951249890095e-17	3.80275313424032	-0.03171289215590811	-0.45588663713962413	0.424173744983716	143.18084697821172
18	7.0	ltm	122	diff_vonmises	-0.4255393232594075	-24.381607239617278	0.8881419194320598	96.28811915352772	0.8592531053251329	98.03886701027042	-0.021050241938027625	-0.3832981979232333	0.36224795598520565	84.75459423137876
19	7.0	perception	122	diff_vonmises	-0.08615722936065186	-4.936445616905972	0.4167690840559463	273.08366157090427	0.4047793793468825	275.26341830802414	0.10270513889824429	-0.6203502764624176	0.7230554153606619	128.72321811706405
20	7.0	wm	122	diff_vonmises	0.2985413863481777	17.105161447735114	0.8573222103698017	160.98378135413864	0.8400151447219003	162.8403840535944	-0.04626913616312578	-0.3975266607936625	0.3512575246305367	85.17902274399898
0	1.0	ltm	123	diff_vonmises	-0.52872936552905	-30.29396114944436	0.14908864198775604	27.039386219627133	0.11516639168166543	30.052537477579254	-0.38137493382055787	-0.5617269003486904	0.18035196652813257	154.73660063188487
1	1.0	perception	123	diff_vonmises	-0.07103473499737945	-4.069990514180085	9.646301321619443	0.8055171109853727	0.03623976237518827	3.9954775528535205	0.32532361894628226	-0.6420188420191054	0.9673424609653877	43.26417576347521
2	1.0	wm	123	diff_vonmises	-0.09902936710327721	-5.673964782869459	4.062988026250408	0.5796780610141312	0.12154386800003118	3.4721518907727615	-0.1722551894930464	-0.5467065164280644	0.37445132693501804	62.01234693184506
3	2.0	ltm	123	diff_vonmises	-0.06872999212716636	-3.937938474854008	2.688003287464162	0.44437862035618175	1.4328966308338992e-17	1.9865243602701144	-0.0429358686269089	-0.3149011378069143	0.2719652691800054	83.87799732234302
4	2.0	perception	123	diff_vonmises	0.016987811798596653	0.9733299192221323	6.272613946660744	1.7091024637871404	0.4399427550118134	3.335465683372419	0.8849582522211998	-0.564813672551331	1.4497719247725307	50.70399110185673
5	2.0	wm	123	diff_vonmises	0.22972119166335475	13.1620547470261	2.9287844412355715	0.6616271532966537	0.0856984144309191	2.2052940202075297	0.04573938361858293	-0.33196912343948576	0.3777085070580687	75.43104829416367
6	3.0	ltm	123	diff_vonmises	-0.1622375199733113	-9.295525173140133	1.042364788660314	112.04955403246929	1.021834153155242	113.23928328535892	0.02243493800684604	-0.27853242421498514	0.3009673622218312	79.24127134010556
7	3.0	perception	123	diff_vonmises	-0.0433733114421023	-2.485107689138944	3.9723841319841933	2.3898868818071266	0.5305516065247463	3.4014026325825797	0.9715748275226421	-0.48544154347194923	1.4570163709945914	61.93075270019037
8	3.0	wm	123	diff_vonmises	0.15061846191186085	8.629802184301568	0.9671911502227025	160.8379213130071	0.9519367165336771	161.60350328616104	0.21096786124267908	-0.24616627501091948	0.45713413625359856	88.71177538373115
9	4.0	ltm	123	diff_vonmises	-0.5850206071697572	-33.519211719007956	0.8691508938950672	227.5712539240867	0.8547793572592175	230.13317037997027	-0.18087866075003944	-0.5146066929333131	0.3337280321832736	80.4915638087321
10	4.0	perception	123	diff_vonmises	-0.038712386325313076	-2.218056351320401	2.1157312096190433	3.0656199811302454	0.3507339251080119	4.66735339470145	0.6128438250970891	-0.5440472610027659	1.1568910860998551	82.04472398487115
11	4.0	wm	123	diff_vonmises	-0.20577437432916995	-11.790003181006588	0.6141785499940047	158.4241807772585	0.5985176476920679	161.18260691717433	-0.26186884039579184	-0.5137950473706674	0.25192620697487556	92.41721532543683
12	5.0	ltm	123	diff_vonmises	-0.1501542298328124	-8.603203645457507	0.8752300186269295	104.04883996244536	0.8492166416387336	105.17749165816645	0.16294794953591918	-0.3110414111408506	0.4739893606767698	91.4146340507692
13	5.0	perception	123	diff_vonmises	-0.12062443560324652	-6.91127106621361	1.108721670553771	138.45539375224436	1.0679424725684616	139.53318468442495	0.6764223755198273	-0.4778080964747726	1.1542304719946	85.82737627496724
14	5.0	wm	123	diff_vonmises	0.028033352954111978	1.6061928098712148	0.41901405088382726	45.96087777637428	0.37678949480988594	46.85884884007239	0.15472896885824916	-0.3330823823943785	0.48781135125262765	132.87053786265295
15	6.0	ltm	123	diff_vonmises	-0.45863399619289746	-26.27779232307209	0.715891292201903	132.21907407464684	0.7038198776687734	133.0006932380142	0.08134850048256936	-0.2095073963370293	0.29085589681959867	100.05298229108708
16	6.0	perception	123	diff_vonmises	0.0811077199769498	4.647130040608138	0.1410640407287922	162.6919786260289	0.12866292499438967	163.59355366279658	0.1786627449407696	-0.423754814157391	0.6024175590981606	163.9792764512465
17	6.0	wm	123	diff_vonmises	0.20080554659262775	11.505310322575179	0.43147598754509836	2.8193024675799263	6.206448468727129e-16	3.8293861277879278	0.050254173338527	-0.3311112128786445	0.3813653862171715	155.00498788431733
18	7.0	ltm	123	diff_vonmises	-1.061939012255595	-60.844623502537	0.0001748219409046278	4803.491781365102	3.386269283303407e-34	4804.86261304189	-0.08451800846637525	-0.35181958413272696	0.2673015756663517	150.27965431010165
19	7.0	perception	123	diff_vonmises	-0.10744125931743792	-6.155930704459825	0.6763209179464524	177.00165019484095	0.6554006910004149	178.73964286021808	0.2247079080990062	-0.49467686417430556	0.7193847722733118	104.22416375927759
20	7.0	wm	123	diff_vonmises	0.24798106537269018	14.20826844501291	0.8037937593024981	129.37657308168767	0.7853439467503079	131.08163575497605	-0.05712046376773827	-0.35830609547326375	0.3011856317055255	87.50327753832039
0	1.0	ltm	124	diff_vonmises	-0.22088019175987295	-12.655502765881023	0.28254685203038266	4.186846660697349	1.4523314011575881e-12	5.332002753558783	0.01792547211050599	-0.356148872684517	0.374074344795023	162.94989945978313
1	1.0	perception	124	diff_vonmises	-0.1323839253580708	-7.585040198392373	12.447001558917611	0.7794991021166909	0.16467839145089666	2.089720522223888	0.6958516740582754	-0.35772430994602095	1.0535759840042964	37.79713351649767
2	1.0	wm	124	diff_vonmises	-0.09558459919527854	-5.476594120339025	2.6623624230908747	0.7148629768471793	0.1192301970926851	1.5419309795961427	0.16155724973780755	-0.22263169819654963	0.3841889479343572	79.1218332867615
3	2.0	ltm	124	diff_vonmises	0.032287818116567064	1.8499557077653315	4.026596256175062	0.4131070143179965	1.8705002621580092e-14	1.0791087907450878	0.14702113032876235	-0.1716441005585336	0.3186652308872959	68.22745760617838
4	2.0	perception	124	diff_vonmises	0.015411035354917935	0.8829872837636944	4.993257627738873	1.4908614166342533	0.514525582817149	2.0072971891113482	0.7911049675965208	-0.3102407886956363	1.1013457562921571	56.598153603815575
5	2.0	wm	124	diff_vonmises	0.5426777871452568	31.093146838922056	2.7098095451678725	0.5907559606931188	3.9601798720446126e-27	0.8276111828608841	0.233218207160707	-0.13010215568499567	0.3633203628457027	83.39664587361361
6	3.0	ltm	124	diff_vonmises	-0.20165145290682443	-11.553777184242117	1.5079521320170923	58.584681851412746	1.4713150809370377	59.08051388923404	0.1639726942783284	-0.17653714055152303	0.3405098348298514	70.88815384162913
7	3.0	perception	124	diff_vonmises	-0.07338985465365515	-4.204928930732984	4.26309386088733	1.6947601687499476	0.0466748026063214	2.2509607171056447	0.9737538380162849	-0.34800419888409195	1.321758036900377	65.48259690021303
8	3.0	wm	124	diff_vonmises	0.2833364711221354	16.233983977428686	0.49808260809421656	76.26241539852842	0.4796131865663373	75.94261220189698	0.3404784633278659	-0.13063573886806612	0.47111420219593203	130.23992575631542
9	4.0	ltm	124	diff_vonmises	-0.3059989625644741	-17.53244909032604	13.12314949642273	0.34341714487368846	2.508450609063464e-22	1.149463089478391	0.30825086024613946	-0.18294273259020413	0.49119359283634356	37.426086535877346
10	4.0	perception	124	diff_vonmises	-0.08976384486214416	-5.143089463467939	1.330940993422634	8.405848557982674	0.6857390445364547	9.593906544634471	0.6842177294010372	-0.509705622452521	1.1939233518535581	89.49568745681808
11	4.0	wm	124	diff_vonmises	-0.49126204192255185	-28.147241637141136	1.193802405157609	163.5408530123147	1.1806869872861352	164.26126762239497	0.12638865770339436	-0.20852122113304716	0.3349098788364415	77.85399029995102
12	5.0	ltm	124	diff_vonmises	-0.27504279451929065	-15.758791311439284	1.1709606310064515	131.82382646033312	1.1565756614718221	132.13398354173648	0.237007382356218	-0.15130973461037733	0.3883171169665953	83.47406448467082
13	5.0	perception	124	diff_vonmises	-0.05642809605705816	-3.2330917500282346	1.3056696340130713	5.78079399580865	0.6216376341711889	6.13161503325713	0.6501784634327155	-0.32646810526717673	0.9766465686998922	94.29628693896925
14	5.0	wm	124	diff_vonmises	-0.1267279058359696	-7.260974150932372	0.48287821039471523	88.20382757925606	0.46527669974008795	88.1474453172622	0.3024877080480053	-0.17372815472400838	0.47621586277201366	130.2254824358651
15	6.0	ltm	124	diff_vonmises	-0.44600188565240706	-25.55402570275927	1.5692359057666716	1.050168941554374	3.0136334202520034e-15	1.7480328133878154	0.18928036731131848	-0.2579409835934499	0.4472213509047684	107.73338877177763
16	6.0	perception	124	diff_vonmises	-0.0014464695608819931	-0.08287660103267969	0.7809821737256272	222.2011530748237	0.7686662385549999	222.77324317302453	0.35230277831401224	-0.27856829976987996	0.6308710780838922	101.93854970434708
17	6.0	wm	124	diff_vonmises	0.2772699048923551	15.886395336325682	0.00017444317345929167	5316.612044709854	7.708204354316317e-31	5317.121825032882	0.06647981153116689	-0.22873505365464553	0.2952148651858124	177.51983335316118
18	7.0	ltm	124	diff_vonmises	0.02317873998746024	1.3280439757125864	1.1552998280924125	169.10625355609426	1.1361980803096543	170.4037217061861	0.12469967698048379	-0.341009081888874	0.4657087588693578	77.58425758081191
19	7.0	perception	124	diff_vonmises	-0.288171981207129	-16.511038297091766	0.8085270929213028	147.29078750711452	0.7792705822981337	148.25262716396708	0.5346186317647224	-0.43799601470931293	0.9726146464740353	100.37741658034976
20	7.0	wm	124	diff_vonmises	0.44595565777514434	25.551377040496266	1.521944867048108	68.2211213563877	1.490666423564777	68.3723064543944	0.3075133444770195	-0.13749279520794122	0.4450061396849607	74.96749195818239
0	1.0	ltm	125	diff_vonmises	-0.3255968776286121	-18.655326910757005	0.8313577389355877	1.3347312650777519	5.830111262952423e-18	2.7283202519110312	-0.02095637261905814	-0.3558577859822575	0.33490141336319934	134.88447184541164
1	1.0	perception	125	diff_vonmises	-0.09044329081644316	-5.182018849056511	11.0326418957919	0.8115671419673158	5.690482694385207e-16	2.424077672371899	0.6768253096731249	-0.38580394371896864	1.0626292533920936	40.84176526818686
2	1.0	wm	125	diff_vonmises	-0.09888394087895203	-5.665632473985103	3.9239467550519738	0.5090315288269256	0.04383586262856962	1.7676917197885194	0.09345933659948058	-0.27527677801564365	0.36873611461512423	67.28172735540412
3	2.0	ltm	125	diff_vonmises	0.03617519654422935	2.072686085040582	2.5323369594286333	0.5535848541473013	0.20690764230592887	1.210269645763906	0.09434856113438228	-0.167128884902982	0.2614774460373643	77.8006513396534
4	2.0	perception	125	diff_vonmises	0.031019282819267264	1.7772739890666798	5.0175517076643095	1.8253314940223602	0.6590657720445585	2.162508697529872	0.9872088599497434	-0.3300757376778433	1.3172845976275867	55.927119906933
5	2.0	wm	125	diff_vonmises	0.2783891787871958	15.950525006619227	2.4229624523735933	0.7412163223210804	0.21293850321796354	1.2409451029981118	0.1872401973468973	-0.16497846360914148	0.3522186609560388	80.75610274011049
6	3.0	ltm	125	diff_vonmises	-0.17405307096752606	-9.972506377730243	1.5687716528431634	133.95741679955466	1.5542735223566302	134.48189696929725	0.10320835953921659	-0.1688403373264542	0.2720486968656708	67.59013134551998
7	3.0	perception	125	diff_vonmises	-0.02761557687668986	-1.5822560038533968	5.01921005967054	1.7440511070396663	0.23580825324638863	2.0000890004293344	1.1177925267895783	-0.30495728158231217	1.4227498083718904	58.92131228231719
8	3.0	wm	125	diff_vonmises	0.2507298820502945	14.365764039294811	0.7061173029472768	100.12703583529816	0.690327118476471	100.22875072170208	0.27255412447545524	-0.155069564010212	0.42762368848566723	110.45301594740084
9	4.0	ltm	125	diff_vonmises	-0.37968762562824154	-21.754498481841473	5.328514602814576	0.4484454800872653	4.506561621134158e-33	1.441172210268942	0.1728550915556525	-0.22936021389414196	0.40221530544979445	59.10537005990807
10	4.0	perception	125	diff_vonmises	-0.026830530157143997	-1.5372761401028285	2.2871480911109963	2.843143961076185	0.23785972175836717	3.6491450893266615	0.8631872754830193	-0.45700909148026764	1.320196366963287	83.72597494676234
11	4.0	wm	125	diff_vonmises	-0.284350435286417	-16.292079844619533	0.8902832308752093	192.1896043011092	0.8774513593419335	193.27946172779573	0.12298806277420482	-0.2867575489015586	0.4097456116757634	89.42625748599356
12	5.0	ltm	125	diff_vonmises	-0.10467600191954393	-5.997493126293171	1.1367568049748575	111.62162801671137	1.1201810200894176	111.9659971832169	0.21972598287327116	-0.15331201078480916	0.3730379936580803	84.28708003625846
13	5.0	perception	125	diff_vonmises	-0.08064350848632403	-4.620532681393804	1.0160328090827968	185.97126525055054	0.9944435673787694	186.05724638645057	0.7298417040376393	-0.2955288598358212	1.0253705638734605	93.37180815116395
14	5.0	wm	125	diff_vonmises	0.1446811801531774	8.289620997748996	0.39038404718272757	81.29009378038961	0.36980597447000424	81.43271971616817	0.2737508714375565	-0.22359869329071458	0.4973495647282711	137.92212138307235
15	6.0	ltm	125	diff_vonmises	-0.5267131484054506	-30.178440417680104	0.6414705318977526	99.75285540340835	0.626753177573754	99.96538224121244	0.2211835043751833	-0.16271548009135106	0.38389898446653437	113.60902481098606
16	6.0	perception	125	diff_vonmises	-0.07601566865940745	-4.3553769910489315	0.6888274527839617	163.396262103369	0.6742135834721645	163.52670202203038	0.4182270603996585	-0.2365477004934462	0.6547747608931047	111.93223684262415
17	6.0	wm	125	diff_vonmises	0.15058806288870297	8.6280604485733	0.0004286308689898665	3364.1047386851906	1.548159018955332e-31	3364.294434283369	0.19932368340835183	-0.2596564875163949	0.45898017092474674	179.16992265296045
18	7.0	ltm	125	diff_vonmises	0.07017064219273003	4.020481643366051	1.2136058400399192	108.15730448543168	1.1906156930977378	109.26048057138276	0.04283355988769699	-0.27493241339796093	0.3177659732856579	73.91923431183346
19	7.0	perception	125	diff_vonmises	-0.1244207055146392	-7.128781310028914	2.170662826506227	1.7684831900205973	2.852817903137113e-17	2.607327478971532	0.5434622655614831	-0.40249085529218814	0.9459531208536713	93.25848838484897
20	7.0	wm	125	diff_vonmises	-0.28437907210687474	-16.293720613570436	0.00030983811266756185	3151.766821235019	6.76537543780848e-27	3152.5325072686746	0.033568045221215925	-0.2772694030740013	0.3108374482952172	177.6822632512642
0	1.0	ltm	126	diff_vonmises	-0.4980379128113441	-28.535470441594487	0.3021073728451727	2.345931441616531	4.5671150424763307e-14	4.475807337712822	-0.21862623841136825	-0.44252150325952466	0.22389526484815642	157.83468629480095
1	1.0	perception	126	diff_vonmises	-0.09975155449965865	-5.715343072699657	12.31750496043281	0.7744462255559394	0.06955543004705887	3.0749372903774708	0.5487278089870615	-0.5039003536508438	1.0526281626379053	38.21236895220315
2	1.0	wm	126	diff_vonmises	-0.13636925375391257	-7.813382695447748	4.514921886179795	0.43855759637131714	0.07564084685366997	2.376021743735637	-0.047234397870065614	-0.3742956972699644	0.3270612993998988	61.13595163002688
3	2.0	ltm	126	diff_vonmises	-0.10383022121210649	-5.949033461363417	3.884037625336388	0.4343370225322707	6.046863588247367e-19	1.7223626477308127	0.05448981130394298	-0.27398351696065487	0.32847332826459785	69.50175324624584
4	2.0	perception	126	diff_vonmises	-0.0010241773269865661	-0.05868103830932031	6.505277058925467	1.502749560149395	0.3837792174306168	2.8041260306788653	0.8656656925828373	-0.4714761022638967	1.3371417948467341	50.40776385433094
5	2.0	wm	126	diff_vonmises	0.21913396440665592	12.555451308471387	3.2532246999977144	0.4995008063527635	1.7485374292848136e-13	1.7521056151708028	0.06362314924366841	-0.2783445823837398	0.34196773162740823	76.1152735286349
6	3.0	ltm	126	diff_vonmises	-0.16831826898950097	-9.643926428046129	1.2010574248273407	126.39554999948551	1.1809493618340163	127.38711499019323	0.09763956575261545	-0.26365005969479505	0.3612896254474105	76.07527157301709
7	3.0	perception	126	diff_vonmises	-0.05121629994321101	-2.9344778290221085	3.469902522892804	2.771810097725848	0.5824128628822688	3.653357329489723	1.0124749069809909	-0.4808977615664315	1.4933726685474222	65.25407146100181
8	3.0	wm	126	diff_vonmises	0.07911433896026815	4.532917721390782	1.0274686454583337	179.53175703387183	1.0140163015097767	180.1471333749175	0.24407742060341775	-0.22369724478386743	0.4677746653872852	87.19495675678951
9	4.0	ltm	126	diff_vonmises	-0.3468281593720507	-19.871789748309194	5.3845725048462265	0.4504011142293573	0.154104118829271	2.3220122362672675	-0.02234399883784116	-0.37552438481314926	0.3531803859753081	54.745310002979096
10	4.0	perception	126	diff_vonmises	-0.10140360638373992	-5.8099986731941495	1.8385802871899544	4.107157569479293	0.4568360723155823	5.660815827180416	0.6621742006325768	-0.5616615363817549	1.2238357370143316	84.35913801055625
11	4.0	wm	126	diff_vonmises	-0.4024795368319021	-23.060378800848156	0.8442531472363807	184.4363124848567	0.8307535955991799	186.32251845357663	-0.10857083613953478	-0.3840208932633935	0.2754500571238587	83.03276886153284
12	5.0	ltm	126	diff_vonmises	-0.1122095349863673	-6.429132775844398	0.9946845218717731	115.61395357636233	0.9735535656443273	116.38674030953484	0.2025423320496813	-0.24409680059502392	0.44663913264470523	87.3724287148404
13	5.0	perception	126	diff_vonmises	-0.09893920202572451	-5.668798704466219	1.649428073431002	4.420124719703337	0.5573726098022372	5.193626284303423	0.6908682371500932	-0.41148967019864163	1.1023579073487348	87.24673821755559
14	5.0	wm	126	diff_vonmises	-0.044098219576484125	-2.526641865773725	0.8894773597125089	2.19466515920991	0.14482648988488087	2.8722504249934597	0.1782380593717804	-0.274608009738971	0.45284606911075137	124.20867014017308
15	6.0	ltm	126	diff_vonmises	-0.41004696920469863	-23.49396073756007	0.697146782526811	127.56375297436178	0.684703339719429	128.3094859939631	0.09237338255263694	-0.208045831789736	0.30041921434237295	102.07999741330462
16	6.0	perception	126	diff_vonmises	0.041699461600127594	2.3892031576551536	0.3061884560042134	138.69413419113823	0.2917602083574611	139.42866562395764	0.2046907116781327	-0.3506315179381545	0.5553222296162872	145.00201980329933
17	6.0	wm	126	diff_vonmises	0.172133048681345	9.86249720416101	0.0006924050331217769	1412.7753053040344	5.31794654160341e-23	1413.5871491443504	0.026504926315936927	-0.2848689479836821	0.31137387429961905	178.93454218487045
18	7.0	ltm	126	diff_vonmises	-0.22463805423827096	-12.870812425883802	1.0038683837390012	112.36414700655381	0.9832995907921241	113.53376167653872	0.04148145300759154	-0.27801271933039295	0.3194941723379845	81.55117346493172
19	7.0	perception	126	diff_vonmises	-0.18358789105153617	-10.518811326960595	0.6840858847734739	228.18421068019222	0.6687388488079232	229.57686945877617	0.2786538242462342	-0.4417384403388631	0.7203922645850973	105.00969961330419
20	7.0	wm	126	diff_vonmises	0.33399715897024823	19.13662757835525	0.9704190700569486	100.0523473605351	0.9490057639259623	101.20252453205798	0.024676020521901876	-0.2669996868648017	0.29167570738670356	82.43538553251946
0	1.0	ltm	127	diff_vonmises	-0.27925232191159277	-15.999979464762907	30.59416989056229	0.06958143921787227	5.65974190086628e-19	2.9458838648725334	-0.3159481528184679	-0.4688519788691208	0.1529038260506529	24.445130159497978
1	1.0	perception	127	diff_vonmises	-0.10279015439888772	-5.88944202255436	13.186700593808768	0.6805801168398278	0.09434580027160507	3.7458221583956215	0.3225521202094549	-0.6245100389929105	0.9470621592023654	36.688275147618214
2	1.0	wm	127	diff_vonmises	-0.07655540934390366	-4.386301854302066	4.095780372810591	0.46110530989002935	0.11141259388405328	2.966996941159496	-0.1671364228193249	-0.467802680003357	0.3006662571840321	61.890049118230024
3	2.0	ltm	127	diff_vonmises	-0.09200479423868138	-5.271486404845995	27.01060927075477	0.21445295236971318	3.592576861145993e-36	1.7820794757944778	0.15878742200638357	-0.2836267575553048	0.4424141795616884	26.028093643478996
4	2.0	perception	127	diff_vonmises	-0.005650583286469067	-0.3237545741018398	8.041984499404398	1.4719261680364968	0.44037710615879777	3.3441835887702793	0.8494538939900877	-0.6034063085981605	1.4528602025882482	45.126539945352874
5	2.0	wm	127	diff_vonmises	0.21364398783098718	12.240898821059885	4.0813592498197515	0.41254161629572395	0.010387789608592006	2.007840573029047	-0.002210363932205306	-0.31719771353719334	0.31498734960498803	67.05593740474745
6	3.0	ltm	127	diff_vonmises	-0.18287149822024343	-10.477765041254093	1.836324269426515	1.9517449956086241	0.8217030474149178	2.991970208638847	0.03514738853570398	-0.2573580241067715	0.2925054126424755	71.08146841457213
7	3.0	perception	127	diff_vonmises	-0.04791853801369197	-2.745529988621749	3.7806043123442468	2.9345286450362367	0.8680027259673577	3.932351245285925	0.9424144052329833	-0.5230217674450718	1.465436172678055	60.00917464498747
8	3.0	wm	127	diff_vonmises	0.1370685210656645	7.853447761162593	1.3848344072929422	162.80723425194267	1.3674990807822303	163.5340098031842	0.20828061084729654	-0.2430221400955972	0.45130275094289374	73.49091457740127
9	4.0	ltm	127	diff_vonmises	-0.4876550102180952	-27.94057394390589	1.0363718430575466	87.41028473757186	1.0007930050849094	89.78186082795406	-0.22341570538325328	-0.48440482475741753	0.26098911937416425	71.60833099108535
10	4.0	perception	127	diff_vonmises	-0.09054407556762421	-5.187793389938461	2.24180682281658	3.077993523617775	0.4974874132056047	4.759159114198123	0.5285703659067291	-0.53380806445031	1.0623784303570392	76.52893486266709
11	4.0	wm	127	diff_vonmises	-0.2862689684453895	-16.40200369748456	0.6423099972728091	114.61924951425902	0.6273259550099783	117.00970110329305	-0.3211267175701735	-0.4214130772113087	0.10028635964113519	79.19646005357852
12	5.0	ltm	127	diff_vonmises	-0.08184246373898547	-4.689227757196347	1.7058804969374615	2.4883324092178176	0.5831380250565487	3.9716557173878155	0.12342667781663064	-0.37053654258304275	0.4939632203996734	79.19353291002153
13	5.0	perception	127	diff_vonmises	-0.11825417916244264	-6.775465375791848	1.0945711108756206	167.92137165925783	1.0599943135059704	169.47866047137077	0.5401356465623266	-0.5363449881330595	1.0764806346953861	84.31998193927149
14	5.0	wm	127	diff_vonmises	-0.02945493984629202	-1.6876437390042505	1.5209898533149693	1.0627951118999512	1.4488869781588155e-15	2.1258112640872255	0.12590285309941734	-0.31616959965620156	0.4420724527556189	109.81026084958951
15	6.0	ltm	127	diff_vonmises	-0.3549418907612745	-20.336672313014535	0.8654042364370084	163.54254382558588	0.851946863852182	164.71542500960095	0.052071929977053344	-0.2793729146188113	0.33144484459586465	88.4423588383735
16	6.0	perception	127	diff_vonmises	0.24819814592688208	14.220706244582468	0.09274612038772281	19.470993300639467	4.828914008252514e-12	20.874717133284072	0.07044947005501623	-0.5039575875533493	0.5744070576083655	172.8640084534104
17	6.0	wm	127	diff_vonmises	0.25123697915988724	14.394818563477758	0.8556912334849985	1.212875744270195	1.1092804060456974e-23	2.6227203563794728	-0.0362489515100301	-0.3485707474694573	0.3123217959594272	134.1503358258607
18	7.0	ltm	127	diff_vonmises	-0.3187213995949347	-18.261391037292384	1.027146572908384	142.25262806189735	1.0103276070567946	143.71776411681324	-0.051676629005029895	-0.31944513712846145	0.26776850812343156	76.81396809876703
19	7.0	perception	127	diff_vonmises	-0.26120817961119075	-14.96612626601639	0.5542924302939685	172.8213722360811	0.5384975428584373	174.61569497795028	0.05787175650245757	-0.4510850806158633	0.5089568371183208	111.77312778464722
20	7.0	wm	127	diff_vonmises	0.6898234372702498	39.5239715647928	10.616311565882995	0.2694194331386488	0.03795287506176019	1.8531823015113698	0.039526102698310694	-0.298908685966853	0.3384347886651637	41.13720147981414
0	1.0	ltm	128	diff_vonmises	-0.12662406751825464	-7.255024653575567	7.069543886780075	0.21872588929350398	0.0007748328367682164	3.4699171619470146	-0.32509575717754136	-0.5521234654313752	0.2270277082538339	51.095346419727406
1	1.0	perception	128	diff_vonmises	-0.0476276113554995	-2.7288611189594754	11.675034127846335	0.6502822782000124	8.444382041140314e-18	4.113244725540375	0.22178154450465792	-0.6546432301530268	0.8764247746576848	39.692187752524575
2	1.0	wm	128	diff_vonmises	-0.07868621879031011	-4.508388242527763	4.0453584492208	0.5403119674122161	0.08060069923449605	3.7621925769915014	-0.2300526879498726	-0.5917176366808291	0.3616649487309565	63.21150178875692
3	2.0	ltm	128	diff_vonmises	0.0013457578383478477	0.07710624438398056	2.494603229694846	0.42029000258902594	5.101415024825098e-40	1.7854339298484547	-0.03677284343634238	-0.28247565300896066	0.24570280957261828	87.08795852432954
4	2.0	perception	128	diff_vonmises	0.017162690721310315	0.9833497434194196	6.865037286105799	1.645442605739742	0.4869279675015224	3.1265611847323487	0.9224021628096968	-0.5457754934844756	1.4681776562941724	48.5071167214594
5	2.0	wm	128	diff_vonmises	0.04332780809881	2.48250053961456	2.870944014752239	0.9349948791692959	0.30128342015276505	2.4247560125099703	0.08715507353984797	-0.34399819596238834	0.4311532695022363	70.18881678069653
6	3.0	ltm	128	diff_vonmises	-0.21607555690358343	-12.380217466514189	1.2776472079183547	122.6000306071778	1.2590820327737864	123.59862637192981	0.02647646491326583	-0.2500675006818369	0.27654396559510275	71.4467577607785
7	3.0	perception	128	diff_vonmises	-0.022305613979414662	-1.2780175404684693	4.484769993877381	2.441748721370025	0.7250456459021304	3.2188588327724785	1.0660574966901213	-0.4742401201377088	1.54029761682783	57.58224970866894
8	3.0	wm	128	diff_vonmises	0.09612418175571748	5.507509923751039	2.0445402086776423	1.7559601169574273	0.6233919415269031	2.630389457853031	0.20777582259352456	-0.26195059518620056	0.4697264177797251	75.99209286948565
9	4.0	ltm	128	diff_vonmises	-0.5053466443104786	-28.954229910089218	0.543664858301511	149.71182274353254	0.5286728904442867	152.0050664809731	-0.15644988745702193	-0.4553792773210432	0.2989293898640213	103.65207371437837
10	4.0	perception	128	diff_vonmises	-0.013236502849539209	-0.7583957487914844	2.399304178136144	3.102035056600034	0.40200360318097855	4.524204542438513	0.7502815845255386	-0.5383804916610753	1.2886620761866139	77.4834040871292
11	4.0	wm	128	diff_vonmises	0.13299209018155925	7.619885476026579	2.486244230605273	0.6071290762785244	5.3574578361610856e-21	3.1364269597206085	-0.1425374572438799	-0.49670753119300093	0.35417007394912103	87.22298531461249
12	5.0	ltm	128	diff_vonmises	0.019532233704027235	1.1191145557039397	0.922772514170964	95.2822899135235	0.8903927024627937	96.71990687469797	0.12608390622097332	-0.364798609031455	0.4908825152524283	87.50510787647818
13	5.0	perception	128	diff_vonmises	-0.08804702956229402	-5.044723192583039	1.0163144091889085	396.32639229017684	1.0024378478931288	397.70319527041323	0.5684263900251096	-0.5092902178095073	1.077716607834617	87.83646326095652
14	5.0	wm	128	diff_vonmises	0.1655312260568117	9.48424063068127	0.847898230989735	2.0855788307504013	2.756182840580518e-16	3.378859663880903	0.1145641501325666	-0.4180837028725248	0.5326478530050913	134.8697337903757
15	6.0	ltm	128	diff_vonmises	-0.5023335490814524	-28.781592270195016	0.7727286335416833	188.6568720235832	0.7605338378650831	189.69284197104258	0.13253886821993888	-0.2837665221229386	0.4163053903428775	96.77703034351202
16	6.0	perception	128	diff_vonmises	-0.028460996445862842	-1.630694977084777	0.5623167720228446	178.93210088087778	0.5439477229676231	180.11660991858108	0.3168375425383232	-0.45524731656820805	0.7720848591065312	117.4662233401388
17	6.0	wm	128	diff_vonmises	0.11879349777996362	6.80636605638863	0.6946629581329606	2.9215343748537563	6.08029914464151e-17	4.217638680503795	0.1571134697923463	-0.46479039039701275	0.6219038601893591	142.14418016331297
18	7.0	ltm	128	diff_vonmises	-0.165288947504762	-9.470359092182282	1.0520174468436851	107.17931381673803	1.0309800834316873	108.82486624017285	-0.1470689274290251	-0.34017134718608233	0.19310241975705722	71.40164707524883
19	7.0	perception	128	diff_vonmises	0.024307765371615653	1.392732365187828	1.3169211044005231	1.7208252349544089	6.774791456103641e-14	3.5828647466227257	0.11900124123310063	-0.5207393089807297	0.6397405502138304	116.4830185599305
20	7.0	wm	128	diff_vonmises	0.29413329614144557	16.852596483176413	0.637485505996197	150.4643883205387	0.6247526861210609	152.26703438532903	-0.12354664967045892	-0.3539683148156243	0.23042166514516538	94.88064074833636
0	1.0	ltm	129	diff_vonmises	-0.07210682095638743	-4.131416514906478	7.058216083122266	0.18579162964991142	1.3473681741286484e-20	3.3448915906842442	-0.33918931450876044	-0.532355887789001	0.19316657328024056	51.214113672951186
1	1.0	perception	129	diff_vonmises	-0.08155584804593846	-4.672805887642536	11.320157997379788	0.7319700086358361	0.0837332200712623	3.9999765754581547	0.2799953187673653	-0.6595918929497933	0.9395872117171585	39.57531396897551
2	1.0	wm	129	diff_vonmises	-0.08777452785321936	-5.029109994742959	3.6385431921701157	0.5627369659406447	0.09306500525869359	3.442954139158844	-0.18937926188897136	-0.5364217894615241	0.3470425275725527	66.02648111223132
3	2.0	ltm	129	diff_vonmises	-0.10349875743010858	-5.930041985593492	3.21347178980782	0.4194228082921911	1.7623161756295757e-34	2.0634436350120193	-0.04278942987226508	-0.32794529761966934	0.28515586774740426	76.5963176982628
4	2.0	perception	129	diff_vonmises	-0.0012150185061846218	-0.06961543243466874	7.37687894690364	1.4698112865080872	0.3977035683584214	3.2371435538870994	0.8263188331309059	-0.5659055118660075	1.3922243449969134	47.215525729217006
5	2.0	wm	129	diff_vonmises	0.1843725589280461	10.563769484604107	3.428095019549216	0.5895647655067032	0.08867308425627418	2.168244100990358	0.03991896135860806	-0.3318113905877745	0.37173035194638254	69.8788829390235
6	3.0	ltm	129	diff_vonmises	-0.2228812686862843	-12.770156028245404	1.7650480357668226	1.6012001878102007	0.6195476385356479	2.703893550023357	0.03764150129116439	-0.26099818219092	0.2986396834820844	75.9753846257995
7	3.0	perception	129	diff_vonmises	-0.05396520250845356	-3.0919783443031923	3.94978575530263	2.474800522958039	0.6213233900952346	3.468788599862484	0.9545005154379823	-0.4892924694159247	1.443792984853907	61.1987648974459
8	3.0	wm	129	diff_vonmises	0.09573632991796552	5.485287650371459	1.1840931663497365	212.58396033933903	1.1713480714520832	213.3320280723904	0.22241301718747764	-0.24578047763597866	0.4681934948234563	79.95108613027088
9	4.0	ltm	129	diff_vonmises	-0.38671814454818215	-22.157317543740945	0.7855800709511401	126.68234273078221	0.7647657904899736	129.04192660630278	-0.19707000046666678	-0.45743348249649785	0.26036348202983106	83.28199044701172
10	4.0	perception	129	diff_vonmises	-0.07087090288209887	-4.0606036254258076	2.2538770065842013	3.0132325034807717	0.4063219295052066	4.681712697324491	0.5963274815925994	-0.5480015500414572	1.1443290316340566	78.54954134928826
11	4.0	wm	129	diff_vonmises	-0.12786702878211434	-7.326241088092974	0.6003358254372612	132.5149028155729	0.5851814789523643	134.89564526446952	-0.24573851694912463	-0.4361074743127773	0.19036895736365267	91.66772376845032
12	5.0	ltm	129	diff_vonmises	-0.09969922962379806	-5.712345078149299	1.3250370380835852	3.2584427208888496	0.5389760951873607	4.746227902039188	0.1041494151534923	-0.3647111816107322	0.4688605967642245	87.19923001406099
13	5.0	perception	129	diff_vonmises	-0.09870502546332866	-5.655381375780055	1.049963010283838	245.44319284918956	1.026356623493562	246.97293335064083	0.561788566586344	-0.5389793848190827	1.1007679514054267	86.16345061991319
14	5.0	wm	129	diff_vonmises	-0.043690477442146346	-2.503279962346514	1.1823233796856607	1.4123728858487945	3.651203580784948e-20	2.5659735814213183	0.12245417108336631	-0.358493133602243	0.4809473046856093	121.3512989060656
15	6.0	ltm	129	diff_vonmises	-0.4058564171075295	-23.253859788562583	0.7701198402689217	195.74941329382864	0.7582929843884788	197.04974559417886	0.057564308854281876	-0.3113612000037591	0.368925508858041	94.04030640585077
16	6.0	perception	129	diff_vonmises	0.13880618137068793	7.95300836286785	0.5808186390887798	3.6758621430525324	9.4681851019332e-17	5.098848311029624	0.1513079168325423	-0.510171425152711	0.6614793419852533	147.6799571004296
17	6.0	wm	129	diff_vonmises	0.1821089608874561	10.434074870364217	0.7244623589745539	1.780774524640775	3.3655576046276796e-16	3.2680300785394443	-0.005092860583812531	-0.39917733534805566	0.39408447476424313	140.47282033088499
18	7.0	ltm	129	diff_vonmises	-0.3917817733069219	-22.447442100637797	0.8808924346721297	95.51963610611614	0.8570141208282176	97.08910661796905	-0.05869812022683263	-0.3307713846613698	0.27207326443453717	83.21567564749407
19	7.0	perception	129	diff_vonmises	-0.15216434850020863	-8.718374961419773	0.5127808062824856	197.10203386273318	0.4974026567178819	199.00814496319873	0.09756441304885755	-0.5139016815103474	0.611466094559205	117.47396649900432
20	7.0	wm	129	diff_vonmises	0.3679488166875821	21.081914273031252	0.824294270969032	88.18896035818614	0.796958759924779	89.89736576948818	-0.057429034027371983	-0.35944353648087635	0.30201450245350436	86.58443443309383
0	1.0	ltm	130	diff_vonmises	-0.08857463662580174	-5.074952850563323	0.0007227975378962255	1283.6438910290728	3.889446992544087e-26	1286.1525713260123	-0.2515760327012231	-0.5469083408615347	0.29533230816031164	179.73417822764827
1	1.0	perception	130	diff_vonmises	-0.11497014485020284	-6.587304069924358	10.28648053349937	0.817768383056167	0.181521890186681	3.383588983459287	0.3923324817889865	-0.5800999110143824	0.9724323928033689	40.959445654411155
2	1.0	wm	130	diff_vonmises	-0.033230692189814275	-1.9039784127747055	1.9739468283055266	1.251197987555012	0.2267179944442732	3.322210236901704	-0.014482454826041824	-0.4390030007170709	0.42452054589102906	82.5233206412397
3	2.0	ltm	130	diff_vonmises	0.008406877716271138	0.4816786120249162	2.2667621241111133	0.48758213798248934	1.2797152842550133e-40	1.9150256187149746	-0.03362912713309385	-0.30187235861025374	0.2682432314771599	91.32468501505727
4	2.0	perception	130	diff_vonmises	0.002317825035235685	0.13280159216876608	6.4094709412727235	1.3300367925067724	0.38767714218303995	2.6110716736846795	0.7249340781506315	-0.439430341884093	1.1643644200347245	50.59358755752345
5	2.0	wm	130	diff_vonmises	0.45682454769888114	26.174118561118654	3.7216786584640604	0.5374328639867306	3.7979530771934545e-11	1.4556628334665969	0.16549985863079653	-0.2314434537569719	0.3969433123877684	71.02834566939441
6	3.0	ltm	130	diff_vonmises	-0.2748461450963125	-15.747524129458954	3.193572182224475	0.46915566114728613	0.14413786068640536	1.298653352502547	0.08086147650642561	-0.19319100192626246	0.2740524784326881	71.29534254131593
7	3.0	perception	130	diff_vonmises	-0.09413044608778295	-5.393277284513695	4.37622069600039	1.6452978734833692	0.17602481161638278	2.475280740422901	0.8619768192939211	-0.3742473622089568	1.236224181502878	62.9190431448026
8	3.0	wm	130	diff_vonmises	0.18972720979107494	10.870568379821743	0.8771536597388783	95.31657971465009	0.8595654838873831	95.41408178491312	0.28899526738807424	-0.14030610125939091	0.42930136864746515	99.48529384715778
9	4.0	ltm	130	diff_vonmises	-0.2880038258183861	-16.501403703014418	8.161920850169082	0.33566946250446783	0.0319420391474925	1.8870555095548143	0.06623223622869084	-0.30190580335303896	0.3681380395817298	46.98204053390327
10	4.0	perception	130	diff_vonmises	-0.07586779607552781	-4.3469045160869335	1.964661878939296	3.2373888194505023	0.4268979690383772	4.701467826948399	0.5559638729539031	-0.501158862155024	1.0571227351089272	82.64027617382911
11	4.0	wm	130	diff_vonmises	-0.4286680001700451	-24.56086722205684	0.9093426717165969	154.90540432448617	0.8961420114797022	156.28522179735	-0.05489496173779429	-0.2915194641532004	0.2366245024154061	81.40635263778188
12	5.0	ltm	130	diff_vonmises	-0.3522530373846868	-20.18261236280656	0.9630510403836579	34.42270220137709	0.8872723913916616	35.608788341590135	0.11619670247913305	-0.30529424275529715	0.4214909452344302	86.89880846312104
13	5.0	perception	130	diff_vonmises	-0.0746833795509196	-4.27904244804133	1.4554101537554436	5.836364722059554	0.6302524284813404	7.14386527386227	0.5442160899803581	-0.4799563956947705	1.0241724856751286	87.27268731586338
14	5.0	wm	130	diff_vonmises	-0.20421229721370865	-11.700502755016686	0.44854201434407626	170.92349515827797	0.4373158327292189	171.52718165321284	0.213192629039888	-0.286404735211935	0.499597364251823	129.29731042027208
15	6.0	ltm	130	diff_vonmises	-0.41773026431456195	-23.934181120108743	0.7334547555445673	20.4299597819066	0.6096424221029763	21.926207051327548	0.08119706599384724	-0.37212595342990484	0.4533230194237521	101.23163704141402
16	6.0	perception	130	diff_vonmises	0.14669337205302088	8.404911101180437	0.5111904074783427	110.08163894411798	0.4836349381767305	111.55756860681979	0.20702622359499046	-0.47959434815711255	0.686620571752103	121.09095282021435
17	6.0	wm	130	diff_vonmises	0.4247181092331411	24.334555141835263	0.0002836941065684094	3350.6373274580737	1.1448938627462573e-25	3352.0632229799344	-0.07564447558047505	-0.3782107077264527	0.30256623214597766	174.4735195220227
18	7.0	ltm	130	diff_vonmises	-0.23534798812325236	-13.484446436357384	0.7477997764814814	133.62220578801893	0.7287721345543142	135.35845472510684	-0.01837326774631265	-0.37896818312194647	0.3605949153756338	92.71006623602486
19	7.0	perception	130	diff_vonmises	-0.27578339393088513	-15.80122453203352	0.5558320636538796	109.37603692018551	0.5211633735362733	111.19593987209726	0.25638373705348627	-0.5741584073092767	0.830542144362763	116.63324099369918
20	7.0	wm	130	diff_vonmises	0.4194381935391303	24.03203825638356	1.1025087600698866	76.30937708474802	1.0623665374428994	77.3533428114926	0.20566723239095452	-0.30593365969951236	0.5116008920904669	82.1368752295823
0	1.0	ltm	131	diff_vonmises	-0.02886661323104974	-1.653935106975651	4.878566428229262	0.39503037319960316	1.1008614103974054e-11	2.720395864511718	-0.09491444394472415	-0.4329448790685883	0.33803043512386416	61.83699227561792
1	1.0	perception	131	diff_vonmises	-0.10488927832013857	-6.009712963916986	16.173668040280955	0.6320646913377678	0.051132833951477524	3.0257686346338426	0.49952422131858243	-0.4946851788675659	0.9942094001861483	33.44040672712691
2	1.0	wm	131	diff_vonmises	-0.19970510084804666	-11.442259425827551	4.263895240008423	0.5020088154219319	0.07908323625603444	2.619796154687749	-0.05099353031460485	-0.41103871147865595	0.3600451811640511	62.71639837541625
3	2.0	ltm	131	diff_vonmises	-0.056932833950289946	-3.2620111010707404	3.424170472499666	0.5814935858163085	4.399774888058146e-18	2.1067837560935665	0.0750222750275159	-0.33486957217822744	0.40989184720574334	74.14744198703278
4	2.0	perception	131	diff_vonmises	-0.0014092879029602874	-0.08074624895846678	6.002795784737204	1.441375943786945	0.3428434996554093	2.962303867381061	0.7316463088597892	-0.4885228072304495	1.2201691160902386	52.320508512719584
5	2.0	wm	131	diff_vonmises	0.11029415682463928	6.319389691005856	3.2423936647169707	0.6494489887449694	0.11102624463285522	2.067759806414749	0.07787022582232317	-0.3119905424014182	0.3898607682237414	71.32494241871157
6	3.0	ltm	131	diff_vonmises	-0.19650157889705727	-11.258711138458343	1.1603198371918884	73.8756986871864	1.112280057753059	75.28831065673009	0.14886414638318257	-0.3746498184100062	0.5235139647931888	78.16715422357694
7	3.0	perception	131	diff_vonmises	-0.05275958299636467	-3.022901434561877	3.0697307457015195	3.3040834539866704	0.525722282251185	4.779559912222597	0.9901873439352256	-0.6111589838943552	1.6013463278295808	68.52914158434476
8	3.0	wm	131	diff_vonmises	0.012337422521248068	0.7068822405371655	2.3374022274089916	1.0916005244975229	0.0942243697902115	2.182811228059821	0.23739430854238303	-0.31297348745624937	0.5503677959986324	85.1830434072507
9	4.0	ltm	131	diff_vonmises	-0.2590828115088001	-14.844351643837676	3.760057344283398	0.5443189755305347	0.03950354812233445	2.663806590954468	-0.03632323940155102	-0.416016918637243	0.37969367923569197	68.25876120716765
10	4.0	perception	131	diff_vonmises	-0.12321753620625159	-7.059844786618629	0.9651448630258662	516.7768574104579	0.9515197275221993	518.8970163736567	0.6313849290298492	-0.6992843086275045	1.3306692376573537	89.05147933443703
11	4.0	wm	131	diff_vonmises	-0.34988110307185466	-20.046710537399015	0.7369063659762917	234.2589864698297	0.7262156387586298	236.28986411483965	-0.11016921156564763	-0.4103749443290283	0.3002057327633807	89.42045941413457
12	5.0	ltm	131	diff_vonmises	-0.09408252858242448	-5.390531813691859	0.9182284398720596	90.44751636862264	0.8877996891028181	91.30996357085891	0.24774435046904486	-0.2835713424665425	0.5313156929355873	91.70931760987068
13	5.0	perception	131	diff_vonmises	-0.06587017954477772	-3.77408328368473	0.9525876874709723	314.7928639118689	0.9362266108860742	315.84089191354497	0.6329827330548454	-0.4690183224466935	1.102001055501539	92.17226472151324
14	5.0	wm	131	diff_vonmises	-0.1020596660104382	-5.8475881209128895	0.6386453990423966	7.020336336878794	0.35460150400188023	7.912087125051535	0.17566206722961386	-0.32208626435084475	0.4977483315804586	122.78813245447657
15	6.0	ltm	131	diff_vonmises	-0.4044089388936587	-23.170925395970652	0.7598432252892069	161.45487308604086	0.7463959046642119	162.5568473801616	0.09116420874857312	-0.2817918252183027	0.3729560339668758	96.29133626069883
16	6.0	perception	131	diff_vonmises	-0.05231865308686031	-2.9976380116861923	0.5505883330297293	200.52172483716842	0.537257680790227	201.58840702948808	0.23209892151909628	-0.3823165140364395	0.6144154355555358	117.67168698696335
17	6.0	wm	131	diff_vonmises	0.0956043324434801	5.477724752177059	0.013070720673478562	84.21715898892379	1.110708301574594e-16	85.27935369954143	0.00670467547555198	-0.34366698201471735	0.35037165749026933	178.89210798416408
18	7.0	ltm	131	diff_vonmises	-0.2154392912932288	-12.343762132391554	1.1520953113896468	182.19154382647596	1.1344992717690514	183.7175670757096	0.036893005671501555	-0.36849546610300976	0.4053884717745113	75.33403871332149
19	7.0	perception	131	diff_vonmises	-0.11939623738909273	-6.840900492137093	0.5045933973844996	234.30267604437455	0.48987561802458823	236.1137229425266	0.20080830976399966	-0.5563252425805771	0.7571335523445768	120.42907173649323
20	7.0	wm	131	diff_vonmises	0.33359734875086344	19.1137201401783	1.079103456684962	120.41528651566493	1.058444186087899	121.84995609620141	-0.03863126950088969	-0.3200542563068858	0.2814229868059961	75.47101197145494
0	1.0	ltm	132	diff_vonmises	-0.0970508424368603	-5.560603669821241	0.6542608702161306	1.807755398991563	2.3418102499604486e-24	4.279542879807608	-0.18244994137286447	-0.5463575796922071	0.36390763831934264	144.22838081741514
1	1.0	perception	132	diff_vonmises	-0.09566340759892382	-5.481109509258063	9.591754209719213	0.7551795416124765	0.03871610028970143	3.3387560721119813	0.3678115494315358	-0.5366581345130623	0.9044696839445981	43.412314162759685
2	1.0	wm	132	diff_vonmises	-0.032026906003274604	-1.8350065448498343	1.7866191794234785	1.828922807739108	0.337630055850543	4.050782878711821	0.0026622381530541084	-0.48286060949987986	0.48552284765293396	81.98814603600488
3	2.0	ltm	132	diff_vonmises	0.16079076752784577	9.212632364014729	2.074711180807719	0.49981690348824703	3.1280582054992797e-19	1.7235262052778224	-0.010693271755529588	-0.27014946722444083	0.25945619546891124	95.2964492203705
4	2.0	perception	132	diff_vonmises	0.045819666221418996	2.6252734931854484	4.708387915184137	1.7962412007736102	0.5806208671464876	2.750801500727145	0.787794067065533	-0.42405515430927015	1.211849221374803	56.94654553428026
5	2.0	wm	132	diff_vonmises	0.44314131797356154	25.390127247749888	3.4311932025640086	0.5929342021864625	0.00023134636218696489	1.3653489971875405	0.20150821467634647	-0.21681340282183179	0.41832161749817826	74.03813735963519
6	3.0	ltm	132	diff_vonmises	-0.20430737393771467	-11.705950250032162	1.1050594562915985	96.2522990788368	1.0849035063275274	97.13548683186401	0.04751064184306841	-0.21860537943335068	0.2661160212764191	78.16635738017496
7	3.0	perception	132	diff_vonmises	-0.06070262436496184	-3.4780041814803124	5.232746909454842	1.4389673762733648	0.014970833706024238	2.2396296850690907	0.9163185336227173	-0.3534750996493291	1.2697936332720463	59.42560968575947
8	3.0	wm	132	diff_vonmises	0.34864981398427136	19.976162869319978	0.5358364304443042	102.15669474174219	0.5191651206528249	102.2892371621268	0.28642300610609794	-0.19920414188743685	0.4856271479935348	123.68984570013376
9	4.0	ltm	132	diff_vonmises	-0.3636419393575978	-20.835148379142577	3.3637875248024507	0.5841431801349607	1.5734728269001626e-17	2.1906554769979354	0.05947480654386783	-0.3481649276234016	0.40763973416726945	74.8097471930958
10	4.0	perception	132	diff_vonmises	0.010088763362121398	0.5780435611557707	1.5459147009338108	5.171548847241362	0.5456675587639142	6.478647160998996	0.6273250370726644	-0.5088000139512124	1.136125051023877	87.99311163317782
11	4.0	wm	132	diff_vonmises	-0.30295252454016874	-17.35790104898517	0.821139779955132	198.714305663947	0.8081507281929056	200.34207504244736	-0.003957961718988656	-0.36009532147119216	0.3561373597522035	88.5273479505506
12	5.0	ltm	132	diff_vonmises	-0.3302889185311363	-18.924161051774394	0.9244346353534644	164.33141374409078	0.9090946579873633	165.22976720455523	0.18822494403278967	-0.2681064262156134	0.4563313702484031	89.82855316537807
13	5.0	perception	132	diff_vonmises	-0.08690862803250993	-4.979497589535175	1.0231188234501034	217.33560135131864	1.000755751053375	218.19971309668173	0.6230644797626184	-0.41794797857329513	1.0410124583359135	89.50944983623532
14	5.0	wm	132	diff_vonmises	-0.0283877612090623	-1.6264989071044649	0.34490315750464196	126.82012458034659	0.3296477641083697	127.19078490540191	0.2698166071550432	-0.29046327763248136	0.5602798847875246	141.8502197224426
15	6.0	ltm	132	diff_vonmises	-0.5282861878387487	-30.268568938215736	0.6718901521949763	182.48471545601578	0.6598131340521186	183.34641221226832	0.180692755819571	-0.2789963579033401	0.4596891137229111	106.04988098050836
16	6.0	perception	132	diff_vonmises	-0.04071504370986594	-2.3328001672659884	0.6798320174012108	223.54056543925066	0.665383822995718	224.46858020971138	0.35676734418086653	-0.3792015275693892	0.7359688717502557	107.82990563116287
17	6.0	wm	132	diff_vonmises	0.3269519895150581	18.732969102618373	0.0002772974221357288	5080.0226797466485	1.353020625124137e-31	5080.904940959228	0.08379481086330998	-0.3645961936196045	0.44839100448291447	176.62047770847022
18	7.0	ltm	132	diff_vonmises	-0.26467976386471714	-15.165033391967528	2.3845430600230992	0.5360987856354601	1.8475301609771173e-17	2.3504037711825534	-0.06681295706271645	-0.37147021685347487	0.3046572597907584	89.01690708688136
19	7.0	perception	132	diff_vonmises	-0.15635821094733057	-8.958665579498268	1.7541974521712118	2.2298412361181024	1.982749622566059e-16	3.935714851637889	0.43593052985138747	-0.5945773649865947	1.0305078948379822	103.07173305858065
20	7.0	wm	132	diff_vonmises	-0.4357231922462914	-24.965099951679893	0.0001894789440999257	8139.406131717739	2.30348715530988e-29	8140.626318475411	0.051268913939338745	-0.43964316753431376	0.4909120814736525	174.63458876654892
0	1.0	ltm	133	diff_vonmises	-0.3940350085909318	-22.576542972661528	0.0005817721436842455	1480.24215265013	7.303436102904812e-22	1480.902197870738	0.032025177151410844	-0.24208423216205688	0.2741094093134677	175.57879634136367
1	1.0	perception	133	diff_vonmises	-0.09240321749466873	-5.294314375873931	14.478776665354594	0.8425227569743362	0.1391007680548217	1.6697882953873502	0.9633733937477158	-0.28380178264977973	1.2471751763974956	35.27899218751051
2	1.0	wm	133	diff_vonmises	-0.08159166173331582	-4.67485786077806	3.629919387640829	0.3556896390949798	1.8005543932718354e-14	0.755845866966161	0.13895729307713106	-0.12011427173983627	0.25907156481696736	71.9621245821846
3	2.0	ltm	133	diff_vonmises	-0.1486953415969273	-8.519615506760005	16.058841677520586	0.23894606097961482	4.663729463138817e-19	0.47186843686856783	0.3036288211824978	-0.07510019421667424	0.37872901539917203	33.81051387549843
4	2.0	perception	133	diff_vonmises	-0.025609467607760304	-1.4673144095016581	7.907433936124882	1.2564486271966897	0.4219566107051556	1.3274372001002877	1.077142783392598	-0.22728969607332616	1.304432479465924	46.82631011243734
5	2.0	wm	133	diff_vonmises	0.08266289034760023	4.736234739270204	3.4600769949059074	0.35722449442865273	1.3071576913489534e-11	0.5270626080054966	0.16965875639885097	-0.08363418184540773	0.2532929382442587	73.75116954512339
6	3.0	ltm	133	diff_vonmises	-0.19907723852700152	-11.406285564716377	2.43267730065829	63.88983772414532	2.4088709590143824	63.97684882352174	0.16432632205206232	-0.08511214060870209	0.24943846266076442	58.08350033739998
7	3.0	perception	133	diff_vonmises	-0.04163079211230747	-2.3852686858217353	4.0351218344423545	2.387187618570526	0.8936623099954586	2.0704614107682437	1.1783417264620137	-0.25258779564205724	1.430929522104071	61.24447012641167
8	3.0	wm	133	diff_vonmises	-0.014421088119469861	-0.8262674852318762	1.7972399640257866	86.71269958454423	1.7798865848078298	86.5774228584729	0.31178591274785816	-0.06907082927251995	0.3808567420203781	72.48894444284991
9	4.0	ltm	133	diff_vonmises	-0.3518146652494757	-20.157495489602823	22.448127290450742	0.2144130868645908	0.10473287573663023	0.6410693120255736	0.2899546451705525	-0.10901109308440028	0.3989657382549528	28.388941265014296
10	4.0	perception	133	diff_vonmises	-0.11562675403827409	-6.624925005190353	3.330999632722208	2.0677008416102347	0.11402024599820514	2.5853453393774175	0.9770046277823483	-0.3782962893703573	1.3553009171527055	72.89799114331106
11	4.0	wm	133	diff_vonmises	-0.38544257380629116	-22.084232723760216	1.11625962285662	96.89208185790795	1.100777937538261	97.2987276875853	0.13388666466715193	-0.13753661862128652	0.27142328328843845	82.88714362531232
12	5.0	ltm	133	diff_vonmises	0.08576222552101445	4.913813564003286	1.7396758229284048	102.58177610030498	1.7223334291277983	102.76573136953634	0.2090297380582058	-0.11632766994629229	0.3253574080044981	68.61639114315017
13	5.0	perception	133	diff_vonmises	-0.050780627135957844	-2.909515615917886	2.1033722182803447	1.974271282136712	0.0904037384277306	1.9541612548263265	0.7101743088456368	-0.26791299700081384	0.9780873058464506	92.10530036886814
14	5.0	wm	133	diff_vonmises	0.039266860050142835	2.2498253556040444	1.5929760782916769	0.8296604976255263	2.0078139515725846e-15	0.9808797484583904	0.21661437600671277	-0.14070331395464175	0.3573176899613545	107.63690417061494
15	6.0	ltm	133	diff_vonmises	-0.4062765442792912	-23.277931302363296	1.167055960630206	1.1117804284221153	1.5667962989545629e-12	1.479744010961378	0.17922090803268204	-0.1953216366841801	0.3745425447168621	120.94940581492355
16	6.0	perception	133	diff_vonmises	0.08889686185256825	5.093414996109689	0.6133346396735325	100.96706015614224	0.5924800514409518	101.06643103656485	0.3723949521256813	-0.224225688918267	0.5966206410439483	118.25072993506036
17	6.0	wm	133	diff_vonmises	0.0451775845994451	2.5884849261434297	0.00022266831354466774	5008.008559539706	1.810825640067447e-29	5008.240781843669	0.14052360002960995	-0.21442249788970003	0.35494609791931	179.87640614059524
18	7.0	ltm	133	diff_vonmises	0.08357885614602292	4.788715713698155	1.4381065388891638	143.29807461283252	1.4219179151960253	143.97132039314513	0.12926699754849835	-0.20839141737886635	0.3376584149273647	70.77949859717432
19	7.0	perception	133	diff_vonmises	-0.2153703272024112	-12.339810781049747	1.1825839646257867	3.6870265586207887	0.46388451768079453	4.148919439403126	0.39021705021618347	-0.2672146838108099	0.6574317340269934	100.71223470483852
20	7.0	wm	133	diff_vonmises	0.34986772254532755	20.04594388970135	0.8430833435469537	26.287557832691	0.8003387499621902	26.589968672535573	0.12268606369950952	-0.11654216908706294	0.23922823278657246	97.56203280111592
0	1.0	ltm	134	diff_vonmises	-0.06809939891791666	-3.9018081453743902	3.791948527227838	0.30386737176777323	2.029448950711765e-23	2.6065037962008955	-0.18794579672145517	-0.41472257029135634	0.22677677356990117	70.36323606200918
1	1.0	perception	134	diff_vonmises	-0.10300383175347289	-5.90168483314961	14.499123438366116	0.6481356225227585	0.09908620031782629	3.123034207537483	0.4283096390737092	-0.5233101774247955	0.9516198164985047	35.07550605719757
2	1.0	wm	134	diff_vonmises	-0.09964713868169627	-5.7093604870160055	3.270606070294731	0.5336302595102365	0.04169844411107752	2.522368962807088	-0.051360641371860416	-0.391061391006415	0.3397007496345546	72.84242874091285
3	2.0	ltm	134	diff_vonmises	-0.06754415854618658	-3.869995215458981	8.597894819957972	0.2985312996483376	1.1764492174884109e-33	1.516771908046877	0.10243301674981325	-0.24140173500463627	0.34383475175444955	46.331303434249946
4	2.0	perception	134	diff_vonmises	-0.0024725514974166286	-0.14166676543072468	7.281726760726698	1.3450824174181322	0.4374530502698507	2.586234904571521	0.8133093023702677	-0.4522692794809596	1.2655785818512273	47.539686446904625
5	2.0	wm	134	diff_vonmises	0.18557744398999484	10.632804313452128	3.6384647288694008	0.5493559413350876	0.13850003276990888	1.6019411118472395	0.10949676067861319	-0.24323581364530003	0.35273257432391325	67.3166536014597
6	3.0	ltm	134	diff_vonmises	-0.23423150600882806	-13.42047672329903	2.165494979743131	1.619896080882163	0.9175713035767163	2.39002081391829	0.09731473259219703	-0.2190562400664744	0.3163709726586714	68.03335558245703
7	3.0	perception	134	diff_vonmises	-0.05441934086214189	-3.117998555284553	4.381022127606693	2.1587903784169686	0.5601922524532467	2.8808572278170286	1.0004682166544676	-0.42318512681937615	1.4236533434738439	59.48938623712749
8	3.0	wm	134	diff_vonmises	0.10484638960233882	6.007255621398332	1.3052094335403965	39.2281176911052	1.2446121022774652	39.67296971736451	0.2616155217858669	-0.1899879719621005	0.4516034937479674	78.86165929652194
9	4.0	ltm	134	diff_vonmises	-0.40011324311173285	-22.92480015759415	18.743667272074322	0.2231633313082054	7.075296638818737e-29	1.7464312494244902	0.10484948937317584	-0.2779531661160624	0.38280265548923825	31.26686590847757
10	4.0	perception	134	diff_vonmises	-0.08039945137768224	-4.606549239108465	2.1924789677948113	3.350202832150331	0.4709589200066341	4.79233354631636	0.6699812938753273	-0.5261199609127303	1.1961012547880576	78.6829414786275
11	4.0	wm	134	diff_vonmises	-0.1905222219613082	-10.916119221837645	0.7473043952683627	145.0994649881096	0.7349219535371713	146.54297410030753	-0.0774519979943804	-0.2921715856861624	0.214719587691782	88.87714958256471
12	5.0	ltm	134	diff_vonmises	-0.07154713234734075	-4.099348719766556	1.0555207911867468	124.9512608686673	1.0331353847637166	126.11219341749083	0.12295637000072901	-0.30412747187882516	0.42708384187955417	81.73485291187376
13	5.0	perception	134	diff_vonmises	-0.05853662898090826	-3.3539017875292245	0.9656408144783798	322.6905322619955	0.9502597553052587	323.9939620237918	0.5088973398172385	-0.475175143634992	0.9840724834522305	90.04693248844379
14	5.0	wm	134	diff_vonmises	-0.04074846697109776	-2.334715179072135	1.3380174921069827	1.2613735043660501	1.033619272976779e-16	2.139976380043262	0.16944037307739218	-0.30547814580290067	0.47491851888029285	115.7543442246068
15	6.0	ltm	134	diff_vonmises	-0.4264837590198789	-24.435719422713515	0.7853479004493676	158.9150432156916	0.7683197451977556	160.23884491472876	0.12277509823341148	-0.3424070671879633	0.4651821654213748	95.0731268252445
16	6.0	perception	134	diff_vonmises	0.041522959807117135	2.3790903498391627	0.7090331618458283	110.74951173737159	0.6777542390352727	112.10296209571777	0.2806367496482629	-0.43014293798209025	0.7107796876303532	103.80848803403768
17	6.0	wm	134	diff_vonmises	0.14069260208373258	8.061092308111368	0.4534407095061086	2.9192524804720748	2.2216735317762658e-13	4.240656002508913	0.020063433093166938	-0.39429922437981807	0.414362657472985	154.23584755874734
18	7.0	ltm	134	diff_vonmises	-0.10972132649572822	-6.2865689307821615	1.1543825152473415	204.205266716293	1.1399759006850803	205.8437652131593	-0.055475996808169725	-0.37084883672949687	0.31537283992132714	72.38655151206683
19	7.0	perception	134	diff_vonmises	-0.18785035599457203	-10.763032578519022	0.47847158344550217	108.794299281697	0.45151963231535464	110.50247908973067	0.13879772250529143	-0.5054278003372978	0.6442255228425893	123.19967122524103
20	7.0	wm	134	diff_vonmises	0.6698106298346505	38.37732216252493	8.186296103797575	0.35262230052266214	0.05984255778968604	1.6512838843278563	0.11713205604734328	-0.26619732830969745	0.3833293843570407	46.64175797808227
0	1.0	ltm	135	diff_vonmises	-0.3656318054172199	-20.94915930615525	0.0002830282139899048	3365.671620412752	3.930734582110763e-32	3365.974349013958	0.10343773339434392	-0.19977778537736413	0.30321551877170805	176.1967567786483
1	1.0	perception	135	diff_vonmises	-0.11117970513420011	-6.370127871698636	12.902990470740852	0.9029093175678194	0.3015388195895427	1.317311099317299	1.0034455780951361	-0.23846840147716228	1.2419139795722984	37.0989425737975
2	1.0	wm	135	diff_vonmises	-0.03980555120818901	-2.280690085421105	2.8087250293864514	0.44657680596163	4.263138367592636e-13	0.42284071749626156	0.21434265600209793	-0.06627367156086877	0.2806163275629667	82.039249413714
3	2.0	ltm	135	diff_vonmises	-0.15519075686101372	-8.89177538757701	19.76052486003711	0.20224161179829497	1.0053603502410658e-19	0.16299532784325052	0.33038142133441484	-0.025941512127137356	0.3563229334615522	30.44627482707719
4	2.0	perception	135	diff_vonmises	-0.019176258923506703	-1.0987187031670174	7.734173372137137	1.2150786347494988	0.5680693924182002	0.9431011688362502	1.0800885787359171	-0.16126503447912854	1.2413536132150456	47.25770253586032
5	2.0	wm	135	diff_vonmises	0.5162065472220838	29.576456512846033	1.8144639112898946	0.4849366126030589	4.3000476983094106e-33	0.2237072614826104	0.2002105972614081	-0.02934388153663075	0.22955447879803886	100.94177875401675
6	3.0	ltm	135	diff_vonmises	-0.207926187022735	-11.913292966650543	3.1784534742866386	29.985494513923896	3.1401506271620048	29.963769608330253	0.15318391006150023	-0.04826601322565205	0.20144992328715228	52.672436989255004
7	3.0	perception	135	diff_vonmises	-0.05330606909518589	-3.0542127815869025	4.995915132543475	1.6428667648325876	0.5427796242402846	1.1810786059849692	1.1230754537614962	-0.16930550075223255	1.2923809545137288	58.20567685792449
8	3.0	wm	135	diff_vonmises	0.09908712962273508	5.677274331448437	2.1824149948847213	3.449869240328735	2.0938140940460888	2.95546476288271	0.3082907982960408	5.6293017566932946e-05	0.30823450527847385	84.5026942980827
9	4.0	ltm	135	diff_vonmises	-0.3379906543659538	-19.365438010034104	18.44263567739696	0.25264307494170246	0.5633303909552909	0.40408925403877405	0.3251648018548522	-0.086814584387384	0.4119793862422362	30.811528828148084
10	4.0	perception	135	diff_vonmises	-0.10410213479771242	-5.964612962210905	3.4910836044623355	1.7955075332560528	0.0713439596394052	2.135514218572958	0.9162216170134855	-0.32073914513498675	1.2369607621484722	72.01475767521745
11	4.0	wm	135	diff_vonmises	-0.49247053148342534	-28.216482988564806	1.470062838736743	82.34326948040776	1.4548006489189595	82.4750678252703	0.1655052004717632	-0.08595081102174085	0.25145601149350405	75.25554958945814
12	5.0	ltm	135	diff_vonmises	0.02360237744749564	1.3523166142162568	2.0562046268500334	61.03893828432819	2.034221264182085	61.07160975722682	0.1898930800319505	-0.07258160422332693	0.2624746842552774	64.80308981021702
13	5.0	perception	135	diff_vonmises	-0.0589105875063842	-3.375328032751931	2.238060679622818	1.6952375673581854	8.399638315038705e-15	1.4747268804964593	0.7009450012756702	-0.22406367518294934	0.9250086764586195	91.89325870688171
14	5.0	wm	135	diff_vonmises	0.030365319708619457	1.7398046628693136	1.6109345121646967	0.8093130221592237	6.864009212416101e-14	0.541940736481317	0.2798194325825173	-0.07165294639093875	0.35147237897345607	107.11432728935662
15	6.0	ltm	135	diff_vonmises	-0.40257948889493594	-23.066105632213624	0.9968576290439465	1.3500358597101365	3.704205972261147e-23	1.5735472335888794	0.21008064185178166	-0.18772041448954851	0.3978010563413302	127.45202704621326
16	6.0	perception	135	diff_vonmises	0.11287287029842462	6.467139089627276	0.6964839647213583	119.0732933601271	0.6795501073764993	119.03660110321984	0.3943791429166197	-0.18785679331655025	0.5822359362331699	112.7511325942778
17	6.0	wm	135	diff_vonmises	0.14648454227870866	8.392946036475678	0.00022712663222263716	4154.47522482352	1.073856644806035e-29	4154.497346453118	0.14666155311829243	-0.1536860334871335	0.30034758660542593	179.22029053324553
18	7.0	ltm	135	diff_vonmises	0.14261785519139286	8.171401185674748	1.481739542053006	129.31568226871065	1.4619800084212	129.97465515424534	0.16855832033463258	-0.2186746082916784	0.387232928626311	70.54699226860245
19	7.0	perception	135	diff_vonmises	-0.2804642781946166	-16.069419444734535	2.06339163469265	1.595687532957211	0.12137658016221509	1.8406149858541434	0.5093094143383774	-0.24507795847528402	0.7543873728136614	91.47670020704281
20	7.0	wm	135	diff_vonmises	-0.15997431173218607	-9.165852892764432	0.00024523553762882943	4140.197033273847	5.914321037677416e-28	4140.155352326393	0.16823670313010552	-0.15494943155749752	0.32318613468760304	179.25474800040547
0	1.0	ltm	136	diff_vonmises	0.0002849460133651585	0.01632620395490193	6.5459835081101545	0.22886614657536228	6.782002354392812e-20	3.4034018212305073	-0.31289062357025477	-0.5416677514997967	0.22877712792954197	53.21481145888899
1	1.0	perception	136	diff_vonmises	-0.08669922870968723	-4.967499892104536	10.187168581759886	0.9040927784984087	0.16373360711396204	4.0587539227842235	0.38057283246808904	-0.6905262756538446	1.0710991081219337	41.17467604953771
2	1.0	wm	136	diff_vonmises	-0.13416705805548795	-7.687206176266153	4.339277684971992	0.4688391318294207	0.07612571959094554	3.3035057515077013	-0.18978941723418957	-0.5216138206749983	0.3318244034408087	61.475142293267055
3	2.0	ltm	136	diff_vonmises	-0.16718475335680344	-9.57898076628046	2.4275711498048254	0.6278287121405105	3.981362884749256e-31	2.7242210536624354	-0.06992970144707655	-0.4307407377556254	0.3608110363085488	88.26494829551001
4	2.0	perception	136	diff_vonmises	-0.028910791983553123	-1.6564663630382477	7.757880319174674	1.3256354635580738	0.24435909788050214	3.504755563284786	0.745817420486931	-0.5931627177029303	1.3389801381898612	46.841546897340834
5	2.0	wm	136	diff_vonmises	0.1770540682309451	10.144450855254464	3.4402115268807054	0.5334714325980154	1.1770366526323307e-20	2.5372937154286217	-0.026390011504790978	-0.4034349372262074	0.3770449257214164	73.96426100378665
6	3.0	ltm	136	diff_vonmises	-0.22430018998540588	-12.851454230146292	2.5818233879741266	0.7581983663515564	0.021416986081851722	2.266160204386389	0.08692606415004162	-0.3504021214548593	0.43732818560490094	83.98375797214103
7	3.0	perception	136	diff_vonmises	-0.08881507163587814	-5.088728761887886	2.3913244289342734	4.777160437297646	0.7658340894082908	6.180771695346723	0.9062278733267839	-0.604320546810631	1.5105484201374149	71.97492051328726
8	3.0	wm	136	diff_vonmises	-0.03004127926459433	-1.7212385130351286	1.0853005549865569	257.1861987129226	1.0725319234720634	258.222120569814	0.2481755427820076	-0.3184376117128167	0.5666131544948243	82.9534104257304
9	4.0	ltm	136	diff_vonmises	-0.20113765506889242	-11.524338736605666	3.0084199641987674	0.7644405176152981	0.276463792838012	3.4980538934036733	-0.21877023346064406	-0.5328148252198572	0.3140445917592132	64.76592624111237
10	4.0	perception	136	diff_vonmises	-0.16459235874997824	-9.4304474964769	1.261387854232398	13.245299440178524	0.7902012829918632	15.35758970404669	0.5366851546839992	-0.6574969227529426	1.1941820774369418	85.72746749095202
11	4.0	wm	136	diff_vonmises	-0.4995036615140291	-28.619451656085115	0.7462689885834091	169.4998691332217	0.7315579259812143	172.09189683840805	-0.2772926712412982	-0.48291552210212885	0.20562285086083065	81.29821424784238
12	5.0	ltm	136	diff_vonmises	-0.17264229485099786	-9.891674860415321	1.641013457196377	1.4431431468300744	0.17141735593822496	2.815078153317608	0.13224314820014882	-0.35391544864680186	0.4861585968469507	94.7563606249818
13	5.0	perception	136	diff_vonmises	-0.09756280861072801	-5.589937170837322	2.1152333466735085	3.1894936102732045	0.3577017129754592	4.701732457577829	0.6651684273275524	-0.5423452066993281	1.2075136340268804	82.1947625513829
14	5.0	wm	136	diff_vonmises	-0.24624834260765102	-14.108990743509928	0.5312589942525755	171.65677474380558	0.5185266094348266	172.8754184542467	0.10508946806344	-0.34921945607623783	0.4543089241396778	116.54540968696571
15	6.0	ltm	136	diff_vonmises	-0.31834412987638755	-18.239775074681543	0.7079587464234581	133.75944328492898	0.6931181661781195	135.12585294254936	-0.008667855193380092	-0.3014580737665167	0.2927902185731366	95.61789013372683
16	6.0	perception	136	diff_vonmises	0.14904678099230137	8.539751500869569	0.008986308006028459	200.08197642968105	7.705807000458076e-15	201.41708896289828	0.07430218489129459	-0.4979961221007514	0.572298306992046	178.70169670590002
17	6.0	wm	136	diff_vonmises	0.2021905353338651	11.584664332121216	0.4609509609385621	1.6930016328515964	5.41352751689383e-19	3.1083341315655613	-0.08930019683224288	-0.33344759503632615	0.24414739820408327	153.45436118475578
18	7.0	ltm	136	diff_vonmises	-0.48769517727575334	-27.94287534678516	0.8159531611094142	117.52191190967878	0.7952015764819794	118.81570428267356	0.07404308701294582	-0.31503925221452356	0.3890823392274694	92.00017231867022
19	7.0	perception	136	diff_vonmises	-0.2055558023177423	-11.777479927232099	0.5334491460202022	292.24121301228723	0.5225333200807473	294.09883584387484	0.13249966808409397	-0.5149144536369441	0.6474141217210381	115.67694706796651
20	7.0	wm	136	diff_vonmises	0.282870201403384	16.20726869042948	0.9770525146232029	101.65950884931492	0.9507604809026482	103.18868361370969	-0.0011824662999870839	-0.344595166019797	0.3434126997198099	81.14731572572816
0	1.0	ltm	137	diff_vonmises	-0.49325089846426856	-28.26119472303849	0.4249797891196213	1.4320154148526953	2.2610214773488868e-20	3.669436034503046	-0.2506284957994844	-0.4415101092307002	0.19088161343121585	151.90743705958138
1	1.0	perception	137	diff_vonmises	-0.09809464135191324	-5.620408942314109	13.265772571324293	0.6567379304607482	0.0009343491179207531	3.147408218348753	0.44327971975619784	-0.5009985202991171	0.9442782400553149	37.20704987592444
2	1.0	wm	137	diff_vonmises	-0.09269515296894325	-5.31104104644001	3.759194887133142	0.5289719281919149	0.09945524886457802	2.596470095130017	-0.06225234937158297	-0.4032221418054792	0.34096979243389625	65.72599281359467
3	2.0	ltm	137	diff_vonmises	-0.08621574245853257	-4.939798170460772	4.228262515447163	0.336098542616325	1.424751062827811e-22	1.4167028156379091	0.04085708533506324	-0.22541865765008798	0.2662757429851512	66.53774600700547
4	2.0	perception	137	diff_vonmises	0.01862352263192713	1.0670492464757955	6.511870472157338	1.615948892586583	0.5397369683722039	2.7018121342895745	0.9241415243337824	-0.4656133051848383	1.3897548295186206	49.64847166052269
5	2.0	wm	137	diff_vonmises	0.20930215612411066	11.992130188899777	3.0991011454551853	0.591493756048089	0.13443933547782128	1.6492738173029666	0.0957186388805436	-0.24491229674464557	0.3406309356251892	72.4941695417321
6	3.0	ltm	137	diff_vonmises	-0.1817710969259918	-10.414716691322742	1.4673154705611364	117.20757626578809	1.4483805852516938	117.99158365696492	0.05910433064477871	-0.21843260832075018	0.2775369389655289	67.81355771373492
7	3.0	perception	137	diff_vonmises	-0.03315342895741552	-1.8995515556467184	4.720692911831042	2.1094969269047654	0.6060740030080696	2.7441686484014625	1.0419791261809574	-0.41381606709324326	1.4557951932742008	57.38936250510949
8	3.0	wm	137	diff_vonmises	0.178724621642929	10.24016651521232	1.1498655024358586	129.81088446615996	1.1330626306734992	130.29530944857868	0.2285881418335478	-0.18754666709732426	0.41613480893087207	82.84121476088043
9	4.0	ltm	137	diff_vonmises	-0.5060241085362625	-28.99304575099773	1.4492301114150228	2.08502487033069	0.5046730752946921	3.784922530277549	-0.05267314712656623	-0.3585625245271211	0.3058893774005549	81.0757288592162
10	4.0	perception	137	diff_vonmises	-0.03391242131454456	-1.9430386143928986	2.333421367713222	2.8833899144978106	0.38333934370337774	4.154517035866251	0.6961073076682247	-0.4913427372235853	1.18745004489181	78.82725248927488
11	4.0	wm	137	diff_vonmises	-0.15104015491820794	-8.653963413815438	0.7017927259029607	171.58279668271015	0.689358829415644	173.40034632220213	-0.10696330396640263	-0.36367347516897297	0.25671017120257034	91.31227694801085
12	5.0	ltm	137	diff_vonmises	-0.07385190074472427	-4.231402221691762	1.1071772701231084	124.03899768110574	1.0851455736761808	124.9595704287444	0.1825316569465798	-0.2704386212064822	0.452970278153062	81.61590517919367
13	5.0	perception	137	diff_vonmises	-0.09846012079150725	-5.641349371701652	1.0452197360883204	264.7790652539995	1.026828671086236	265.67261505624396	0.6082079002576393	-0.41666185927314814	1.0248697595307874	88.27490871884467
14	5.0	wm	137	diff_vonmises	0.10719533007763161	6.141839996960063	1.0445611608500132	1.5913446842688699	4.441636052374621e-14	2.274446840887534	0.19517532108878927	-0.2930143893604444	0.48818971044923365	126.64103722064566
15	6.0	ltm	137	diff_vonmises	-0.47917295717987335	-27.45458810320966	0.7713260795164627	148.15806510815267	0.7586572827329164	148.85401925467755	0.1525521796780822	-0.21801965354526232	0.3705718332233445	98.86414035933858
16	6.0	perception	137	diff_vonmises	-0.015458257476016677	-0.8856929120023079	0.57058645731563	140.99286366678675	0.5517821201053311	141.80064650272217	0.2925452617268647	-0.3517538055768288	0.6442990673036935	117.68850594591498
17	6.0	wm	137	diff_vonmises	0.16959208331363151	9.716910612702119	0.29147593945019007	4.800009386694236	2.5912740510306922e-11	5.636020457685084	0.10408543353223842	-0.3381422585226931	0.4422276920549315	162.74987543009308
18	7.0	ltm	137	diff_vonmises	-0.03376127237475625	-1.9343784180651513	1.1778335152335309	134.50034214434484	1.1591178155853195	135.9238778378567	-0.06182000690905198	-0.3210464522591856	0.2592264453501336	71.136644983872
19	7.0	perception	137	diff_vonmises	-0.1373012039496075	-7.8667795083774585	1.786030564913551	1.5012626482893818	3.947899240050792e-14	2.999735517380759	0.24566214186705349	-0.4571053868491226	0.7027675287161761	102.2429968063648
20	7.0	wm	137	diff_vonmises	0.4154901948290077	23.80583459277044	0.8682555540348813	62.465947832616926	0.834912631725543	63.81881561607913	-0.02240352461999251	-0.29346850035094096	0.27106497573094845	85.60396608037425
0	1.0	ltm	138	diff_vonmises	2.4017103178243406	137.6078648243583	0.39504262104034266	0.9129892874912497	0.39530800196954213	2.1933589948033725	-0.13200110975779483	-0.2911347767864638	0.159133667028669	181.81528158203727
1	1.0	perception	138	diff_vonmises	-0.10330292937410727	-5.918821864474365	16.448682332879983	0.6616417627554122	0.044852925025614374	2.2723070698107306	0.6840955200554104	-0.36993294604918403	1.0540284661045944	33.237816716435844
2	1.0	wm	138	diff_vonmises	-0.04875364077149997	-2.793377852103883	4.450335278081136	0.3022541366590573	7.965612861203969e-10	1.3479842416639995	0.03168963620908438	-0.2145047928976487	0.2461944291067331	64.81464914331502
3	2.0	ltm	138	diff_vonmises	-0.16205088572161402	-9.284831818205298	123.7716482487515	0.3795620186281089	8.132483249098876e-57	0.6957386936194874	1.569616062356062	-0.11073025218983912	1.680346314545901	12.158904196246823
4	2.0	perception	138	diff_vonmises	-0.00308742922614068	-0.1768966642032028	8.055904369293089	1.4868710423091904	0.7327739906603506	1.977062561289803	1.0808172809965035	-0.3698809919667549	1.4506982729632585	44.89652811796583
5	2.0	wm	138	diff_vonmises	0.11389368644040807	6.525627546221754	4.217461613932495	0.3462008286999211	0.08577470504144051	0.949601666330174	0.10955188150715453	-0.14694778354483673	0.2564996650519913	64.2910418801244
6	3.0	ltm	138	diff_vonmises	1.2872689539051192	73.75507815698384	1.9573503255787974	27.86598671008584	1.9821828142994837	28.035412983460343	0.02236568199486344	-0.19560471080334452	0.21797039279820796	14.675144426193071
7	3.0	perception	138	diff_vonmises	-0.027876864541534565	-1.597226684287827	4.074207262459681	3.364384407267923	1.6583512045635072	3.2776260139686215	1.1036075647534518	-0.3311949734237627	1.4348025381772145	55.61688512232027
8	3.0	wm	138	diff_vonmises	0.15594555264622645	8.935022000463961	1.9487360716255997	101.60525675900367	1.9296928377812668	101.74512815459542	0.2355129855545144	-0.11672290660673212	0.3522358921612465	65.28332361361049
9	4.0	ltm	138	diff_vonmises	-0.47916715423786516	-27.45425561912383	39.55579685279085	0.18314590013300638	0.11360770790385231	0.9968258487290897	0.28032605247714126	-0.173225387667273	0.4535514401444143	21.39939486691364
10	4.0	perception	138	diff_vonmises	-0.06629842664022106	-3.7986200348423695	3.418062449922027	1.939581460469751	0.3133331211305476	2.639064412188751	0.8065812444701582	-0.3657593796918926	1.1723406241620509	68.87279775789617
11	4.0	wm	138	diff_vonmises	-0.11343060299597368	-6.499094819293283	0.8983286436765879	107.95900211968149	0.8852594909157528	108.84136189932146	-0.013470065940282439	-0.1927016310793661	0.17923156513908367	83.6499729072695
12	5.0	ltm	138	diff_vonmises	0.029144243313102645	1.669842138943153	1.6890141509522913	124.7812807433741	1.6659870093390996	125.4330386810089	0.18257159217999686	-0.23286997533964637	0.41544156751964323	66.01658433279971
13	5.0	perception	138	diff_vonmises	-0.08183059660795607	-4.688547820673433	1.0407928160660949	188.00248246265343	1.0191788606881702	188.61185033898434	0.556122764897097	-0.33675306771708513	0.8928758326141821	89.35173121865142
14	5.0	wm	138	diff_vonmises	0.18029708542321454	10.330262053259869	1.7719585604296755	0.8721209223348695	6.855718547168868e-26	1.345146031923326	0.20394397710871043	-0.20200488556275212	0.4059488626714626	102.57195612639981
15	6.0	ltm	138	diff_vonmises	-0.45728912758727097	-26.20073702797005	0.8178965694133139	102.10732922766684	0.8003601217549896	102.58584447724783	0.19659128759262146	-0.18642783461468326	0.3830191222073047	98.37585115065777
16	6.0	perception	138	diff_vonmises	0.05581047975112749	3.1977049423399464	0.9939854719899487	4.156877973691326	0.41001918006653004	4.666287447102772	0.34222701857972226	-0.2788688231660014	0.6210958417457237	108.39340286069543
17	6.0	wm	138	diff_vonmises	0.1312268728175836	7.518745971147566	0.06692696868688264	19.852415792547415	1.5302432979827827e-08	20.38694015059017	0.1298398783643715	-0.2929135898678221	0.4227534682321936	175.57940273768946
18	7.0	ltm	138	diff_vonmises	0.12398027218378163	7.103546339013886	1.5789893830724466	159.93440906152034	1.5623075564697828	160.97763668722112	-0.0034137562671503474	-0.2804944213842262	0.27708066511707585	62.95793575213267
19	7.0	perception	138	diff_vonmises	-0.22030626800131758	-12.622619356753516	2.117470089133015	0.9945870654797255	1.543166766369064e-17	1.9038305555279835	0.22802491077462222	-0.29531367884634613	0.5233385896209684	94.35005054489
20	7.0	wm	138	diff_vonmises	0.7129081885328651	40.84663038324996	13.233724780335061	0.2166184068437567	1.5327664980161343e-12	0.9262699519253711	0.1638621384394029	-0.14742044148519248	0.3112825799245954	37.25813714622632
0	1.0	ltm	139	diff_vonmises	0.03739081749913154	2.142336035244141	2.0456965119469506	0.8272087041784494	2.849347889931179e-23	3.593601874381407	-0.1393360716518297	-0.5647080411509036	0.42537196949907385	95.9761845547626
1	1.0	perception	139	diff_vonmises	-0.04785254227581389	-2.7417487113754833	10.489719978094179	0.7283136864015682	0.009044700891003333	3.6136142117263774	0.34887043683581564	-0.5760834778740557	0.9249539147098713	41.78046826917563
2	1.0	wm	139	diff_vonmises	-0.02309708527087476	-1.3233655050749016	2.437689371251311	0.95721007480371	0.09718725413004858	3.6178499952970142	-0.07727080893921845	-0.5345933958858285	0.4573225869466101	80.33634908387592
3	2.0	ltm	139	diff_vonmises	0.18462788313157524	10.578398483873865	2.122710862549328	0.5422142166048689	5.98911955633243e-24	1.8460961686027284	-0.0038898089991981633	-0.28966031051029645	0.2857705015110983	94.2478073781759
4	2.0	perception	139	diff_vonmises	0.019951831139941034	1.1431557178763114	5.592274348538999	1.5413310753927902	0.42299233892263116	2.5707160804314446	0.8207866424580144	-0.41660189031374206	1.2373885327717564	53.89734438299382
5	2.0	wm	139	diff_vonmises	0.1250948798759803	7.1674086555896865	2.3302223643947833	1.4428715269329588	0.5253894740994658	2.464519979283895	0.19595576503190204	-0.2872411985841043	0.48319696361600634	73.64121308413047
6	3.0	ltm	139	diff_vonmises	-0.24323975849190463	-13.93661157136756	1.135165967656104	100.95045127679126	1.113888916817146	101.848231433352	0.07491151971441212	-0.23156241218787166	0.3064739319022838	77.99972733696845
7	3.0	perception	139	diff_vonmises	-0.04264118944125767	-2.4431601884018734	4.588192411429228	1.8262434814243076	0.186415695006175	2.4967391313907155	1.0375341886626115	-0.37856838267846443	1.416102571341076	61.602123294875526
8	3.0	wm	139	diff_vonmises	0.06359447143555415	3.6436948136225222	2.139439383232713	0.9934200283425273	1.6077255286644678e-15	1.5170221941929731	0.2922655552776952	-0.23404475324474136	0.5263103085224365	93.92803520232644
9	4.0	ltm	139	diff_vonmises	-0.3543428617135784	-20.30235047677581	0.7968800534006616	2.154580859162964	0.07491001374759483	3.7507905383989657	0.010445531283979181	-0.4204435256536744	0.43088905693765356	129.90199981709273
10	4.0	perception	139	diff_vonmises	-0.019313657014646695	-1.106591033902493	2.042438567149495	3.676529294933324	0.3565749741412676	4.9294080737159796	0.8349965043695615	-0.5492016409058824	1.384198145275444	84.2630210064176
11	4.0	wm	139	diff_vonmises	-0.14315969734525905	-8.20244645425356	0.6610501838254312	213.19987220115627	0.6488943277699215	214.82067116195768	0.04728996216001491	-0.38623423133064705	0.43352419349066196	101.28372181835283
12	5.0	ltm	139	diff_vonmises	-0.09008624778961208	-5.161561790514513	0.7332718247608693	172.67301565497172	0.7199167260432175	173.78455904629772	0.11945351319946695	-0.298033782730716	0.41748729593018297	98.9397430972842
13	5.0	perception	139	diff_vonmises	-0.034940996228463285	-2.0019716158734733	0.9235991909097363	358.08524887272404	0.9096631645297162	359.1639583898368	0.599519903792654	-0.466467135976643	1.065987039769297	93.31650959085917
14	5.0	wm	139	diff_vonmises	0.02511617475956711	1.4390508112362004	0.3159394874226311	154.799047951536	0.3023325467462477	155.75384028922863	0.1768337307348915	-0.38680679449466737	0.5636405252295589	143.31277436517246
15	6.0	ltm	139	diff_vonmises	-0.5306526485348388	-30.404157148485293	0.6482919658487749	214.9286247974624	0.6357886550859274	216.13898670924982	0.18081374536777872	-0.36081230298624334	0.5416260483540221	106.76583816431861
16	6.0	perception	139	diff_vonmises	-0.030944642202243206	-1.772997396730949	0.7471238875427173	335.1537914424046	0.7349767267524119	336.214737181796	0.46805420012097443	-0.44245999462489394	0.9105141947458684	103.13310744133695
17	6.0	wm	139	diff_vonmises	0.06126935558046984	3.51047548824724	0.589195850546568	3.5628948176671447	1.9638357548295681e-16	4.7140862372986625	0.18857590137808689	-0.46130592839622675	0.6498818297743136	147.51838704973352
18	7.0	ltm	139	diff_vonmises	-0.14509592633235166	-8.313384203384857	0.8266186604354695	105.98466435165199	0.8046386113492393	107.73845784976005	-0.08928130644108023	-0.35939494041455333	0.2701136339734731	84.81718344927077
19	7.0	perception	139	diff_vonmises	0.011687419843388181	0.6696398304235924	0.48843947631977197	211.12740091161635	0.47016097490171743	212.8815261326952	0.2957991587763118	-0.6083252151536911	0.9041243739300029	123.69362350968733
20	7.0	wm	139	diff_vonmises	0.18172491944835145	10.41207091674539	0.630276291107635	114.08770794490047	0.6101928121336482	115.63958923929464	0.019351435225484437	-0.361538124992526	0.38088956021801046	103.30694274287094
0	1.0	ltm	140	diff_vonmises	-0.7577050766912271	-43.41330301004368	0.0003538404903348411	1651.297100391501	1.9161399983344245e-29	1653.292374025744	-0.2245582958154273	-0.41054057687478007	0.18598228105935277	164.2611459486956
1	1.0	perception	140	diff_vonmises	-0.11908662511484261	-6.823161015537114	15.862688155601132	0.6280786387965781	0.03945282560606858	2.8395435948250944	0.5198560649933512	-0.46094761751186436	0.9808036825052155	33.821535130952356
2	1.0	wm	140	diff_vonmises	-0.1439957445097534	-8.250348428252964	4.020708501771913	0.46127349470036655	0.11354946337799635	2.217505613364217	-0.03845304473725991	-0.3462834936764193	0.3078304489391594	63.43429066226588
3	2.0	ltm	140	diff_vonmises	-0.1290413514347657	-7.393524819876505	5.6551488370540195	0.37356530749375333	3.930675877950306e-23	1.537329948193751	0.1010742682767174	-0.24466942520212867	0.34574369347884604	57.33919606809596
4	2.0	perception	140	diff_vonmises	0.008726459039172484	0.4999892730383708	6.718596078168537	1.516499908825035	0.4817095453164573	2.786393959527983	0.8583006309781035	-0.48203270270780196	1.3403333336859053	49.096281715598224
5	2.0	wm	140	diff_vonmises	0.2286821242097021	13.102520567302397	3.7088400921805316	0.4229687327732745	1.098717563924321e-08	1.5827629737622801	0.060088044227308124	-0.2517171817792656	0.31180522600657373	71.16603155083894
6	3.0	ltm	140	diff_vonmises	-0.1666038225048924	-9.545695880277018	1.483461665570674	111.93125740861795	1.4580254865207831	112.87709124282259	0.0983137829756231	-0.27196117288884913	0.37027495586447223	68.15316294819371
7	3.0	perception	140	diff_vonmises	-0.037684320646723536	-2.1591525268749674	3.8770806397470086	2.7337123786583692	0.7080266911175124	3.6749149653393545	1.0148761006182183	-0.5053699092456756	1.520246009863894	61.02295255265204
8	3.0	wm	140	diff_vonmises	0.16159597129314568	9.258767141414456	1.1793894256079533	144.69802297646362	1.162277893096463	145.3254265000547	0.2258045808095943	-0.2191028477314365	0.4449074285410308	80.8467866558077
9	4.0	ltm	140	diff_vonmises	-0.44375580073077514	-25.425334516321787	6.973550215615275	0.39944585374477304	0.1639920840188534	2.21078782511014	0.0008408533587581091	-0.3673604302808161	0.3682012836395742	48.584225707071255
10	4.0	perception	140	diff_vonmises	-0.08786469904674096	-5.034276423565405	1.6165485724757405	6.028650038498858	0.6644905695861386	7.642889872845785	0.6095637369549243	-0.5637171341329326	1.1732808710878568	83.12883722018557
11	4.0	wm	140	diff_vonmises	-0.3595009538742252	-20.597887387920384	0.823889054571089	179.22137703409518	0.8117862671697066	181.0565359616825	-0.14721745126134067	-0.36044484168046864	0.21322739041912797	81.50011242367499
12	5.0	ltm	140	diff_vonmises	-0.07908415558796253	-4.531188341546199	1.1727198308232478	132.72160639029562	1.1511468131741114	133.52864221833926	0.2330764521900619	-0.26257042426100163	0.49564687645106353	80.42221628683984
13	5.0	perception	140	diff_vonmises	-0.10102894867071174	-5.788532367475612	1.0427235812864506	196.0395877540874	1.0177776189379708	196.9402969114946	0.6117393950749914	-0.41997734389884656	1.031716738973838	88.51919881444294
14	5.0	wm	140	diff_vonmises	0.01861761459131504	1.0667107406835308	1.2930989514174192	1.2547315648432569	5.903725326001184e-14	1.896165127744701	0.1953526585958733	-0.26434670139439176	0.45969935999026507	117.31627436841194
15	6.0	ltm	140	diff_vonmises	-0.41353006531468894	-23.69352744430095	0.8250193482687295	138.8204807474367	0.8119022924981975	139.57363724832535	0.11726853247644442	-0.21243287598256266	0.3297014084590071	94.20268897847943
16	6.0	perception	140	diff_vonmises	-0.009532555599663307	-0.546175203834507	0.5116624984179395	119.08932500611834	0.4925607884050486	119.95448088658911	0.21302110019368925	-0.33533999096525413	0.5483610911589434	122.3962411953675
17	6.0	wm	140	diff_vonmises	0.19142194479076227	10.967669542696932	0.008155884025094384	124.48113693271407	1.6382379311914288e-15	125.32906802711052	0.02695875986766083	-0.29620469216181533	0.32316345202947616	178.29741224273718
18	7.0	ltm	140	diff_vonmises	-0.07365698465226798	-4.220234352234835	1.2848715095646122	181.55593588528637	1.268814782468828	182.92697721516842	-0.005162244435524599	-0.3334398045165621	0.3282775600810375	70.00345841632429
19	7.0	perception	140	diff_vonmises	-0.24855701581690995	-14.241267974675388	0.7021829250541315	180.21617646245124	0.6834284100646941	181.74036528918455	0.21508030291367675	-0.4370880623550164	0.6521683652686932	102.39612983931436
20	7.0	wm	140	diff_vonmises	0.6913116125345944	39.60923772661552	14.023863457298598	0.25769545738816135	0.12458036420989749	1.498799661719693	0.11217564344376024	-0.25489718035795755	0.3670728238017178	35.42930282222511
0	1.0	ltm	141	diff_vonmises	-0.4227373856127777	-24.22106803800657	0.00026788677240954914	2739.658402459369	2.073166956353647e-31	2741.868875769714	-0.23499408472503092	-0.46860577808212156	0.23361169335709064	174.9408168765105
1	1.0	perception	141	diff_vonmises	-0.11040741793539502	-6.3258790746351234	10.365175834025944	0.9229941661659621	0.21434233270979186	3.229595799577782	0.540695935969501	-0.560724233244285	1.1014201692137862	40.79134454914066
2	1.0	wm	141	diff_vonmises	-0.10031512698128212	-5.747633397346395	3.343089303242233	0.5300704693020172	0.07870498204563867	2.3580698540485434	-0.03633673635238743	-0.3624655125034634	0.326128776151076	70.42284784898456
3	2.0	ltm	141	diff_vonmises	-0.11467350763858127	-6.570308009651914	3.90697148736986	0.4142029121325786	8.213403828707867e-32	1.8631850101275986	0.017822301216384395	-0.29640805655532226	0.31423035777170666	69.29673680763509
4	2.0	perception	141	diff_vonmises	-0.02213160112479023	-1.2680473383174657	7.4760176845876725	1.2796194276709563	0.2950280082173748	2.7449477401102373	0.7965149652393059	-0.4660098912208138	1.2625248564601197	47.63753042601218
5	2.0	wm	141	diff_vonmises	0.424898229600523	24.344875278690594	3.6722705269029716	0.4765866892864343	1.1880209520074843e-18	1.651003015897035	0.08683902118730857	-0.2625393782015279	0.34937839938883647	71.52055715371668
6	3.0	ltm	141	diff_vonmises	-0.23205407847058754	-13.295719315162287	3.0789005904516964	0.5279178323595235	0.10369080562880176	1.4055409199858175	0.10341949941734746	-0.2099135549940968	0.31333305441144427	73.88522764848605
7	3.0	perception	141	diff_vonmises	-0.09570463367470462	-5.483471589406189	3.2742999756405835	2.4670039946284987	0.46802661393043854	3.312069004222049	0.9001458142595791	-0.4355935020143564	1.3357393162739355	68.11708798506282
8	3.0	wm	141	diff_vonmises	0.08290934828870326	4.750355739122892	1.066242172216577	151.64656495429185	1.0533403789895814	151.8933785331117	0.28115074056696443	-0.15590302485512275	0.4370537654220872	88.60233479304728
9	4.0	ltm	141	diff_vonmises	-0.2601695823064806	-14.906619023842834	5.055238292756593	0.5805937891806361	0.3739292150025532	2.3060974651726345	-0.00887241682841411	-0.3880813472552619	0.3792089304268478	53.15438400215774
10	4.0	perception	141	diff_vonmises	-0.1419116887032877	-8.130940826272747	1.8490306434026391	3.835332650555246	0.493128096177994	5.383300326140657	0.5652932496406367	-0.5263781609265454	1.091671410567182	82.90316111830006
11	4.0	wm	141	diff_vonmises	-0.5897164558731246	-33.78826403094289	1.0744002799474832	140.0964808921276	1.0566964416133702	141.66886451651976	-0.08792874376666049	-0.3390125522473397	0.25108380848067924	73.62116096904208
12	5.0	ltm	141	diff_vonmises	-0.2583015599231611	-14.799589225242661	0.9109492553789481	129.0500383107439	0.8928306505928401	130.00256363019218	0.13918305217465843	-0.2620837120234789	0.40126676419813734	89.32448168056418
13	5.0	perception	141	diff_vonmises	-0.10197716922647242	-5.842861403368247	2.5118806879738855	2.1969853679910645	0.2084898314881012	3.23769663248838	0.6705094742437593	-0.4303936508336001	1.1009031250773593	80.35633026181384
14	5.0	wm	141	diff_vonmises	-0.23630775352533592	-13.53943694321945	0.5303927693903815	121.43315488661024	0.5156697905252415	122.05923985052057	0.17896792349957025	-0.25330556290869843	0.4322734864082687	120.55493106020376
15	6.0	ltm	141	diff_vonmises	-0.35238409778369834	-20.190121570531222	1.8791112346690961	0.7104808625699369	0.03574302605931444	1.826851441529414	0.05169858381604592	-0.27222163397523563	0.32392021779128155	96.85275295213255
16	6.0	perception	141	diff_vonmises	0.23349346454948577	13.37819006257304	0.2661234829626873	6.589628282117637	2.923768694117115e-07	7.645081627000999	0.12786502467657024	-0.42707059637809963	0.5549356210546699	163.542823833974
17	6.0	wm	141	diff_vonmises	0.372794028461845	21.359524458543607	0.0002662727744187517	2432.9039766962733	3.057625039497317e-29	2434.0114971885164	-0.07315939525136628	-0.27936160088319184	0.20620220563182556	175.67806169940482
18	7.0	ltm	141	diff_vonmises	-0.31583631862703426	-18.09608807427817	0.7842348392254003	137.33517348813166	0.7677778232223679	138.52386519917783	0.07797729472804349	-0.2943707202321537	0.3723480149601972	94.16161665735082
19	7.0	perception	141	diff_vonmises	-0.3011766693774482	-17.256152043134765	0.64884990279425	273.0022081498369	0.6360089914690907	274.4519211535348	0.2710317537979563	-0.4594924972365426	0.7305242510344989	107.58765877744064
20	7.0	wm	141	diff_vonmises	0.38340029125937497	21.967218553248692	1.1293098142778708	55.08239711352337	1.0829668372811625	55.96698969831733	0.1614559768055237	-0.255453613034903	0.4169095898404267	80.95164917187606
0	1.0	ltm	142	diff_vonmises	-0.39687589486590236	-22.739313766293982	0.0003893178767973065	2364.4907398210366	2.33378539893049e-32	2364.482734945108	0.1477950111672044	-0.1452184620613366	0.293013473228541	175.5253346341732
1	1.0	perception	142	diff_vonmises	-0.09820204176211796	-5.626562532536813	14.009911589073885	0.9148684022360366	0.31564082421932776	0.9302161872985042	1.1550773061412245	-0.16968009924740823	1.3247574053886328	35.77543233845387
2	1.0	wm	142	diff_vonmises	-0.5123560773908419	-29.355840842373418	0.00023197367086399062	3247.119254162738	5.656721240947676e-31	3246.760390958982	0.17700234390895275	-0.06275873460594994	0.2397610785149027	172.62698578218513
3	2.0	ltm	142	diff_vonmises	-0.1733358165539824	-9.93141072699706	32.57184420089433	0.7115346431593387	30.03449133542834	0.5027796175898785	0.5191186760348494	-0.00032795206817036546	0.5194466281030198	21.83594293289218
4	2.0	perception	142	diff_vonmises	-0.02780370670619888	-1.5930350490847796	8.631468085596698	1.1751784891289083	0.7272169296684173	0.5148720525279059	1.2067989870392486	-0.08879903798267033	1.295598025021919	45.14820789339734
5	2.0	wm	142	diff_vonmises	0.33002254518411805	18.908898983215476	1.3849766524186606	1.1262148637713485	1.3850227130559027	0.6504725971311	0.19637836836220002	0.012307629975793447	0.18407073838640658	113.67027745994727
6	3.0	ltm	142	diff_vonmises	-1.534344378126055	-87.91145718624786	2.267401937875911	67.7367503959375	2.285768758733998	67.46661333441523	0.10119271245083183	-0.03052106174327207	0.1317137741941039	63.76689029535888
7	3.0	perception	142	diff_vonmises	-0.040773421141186185	-2.336144947699453	4.509371017028503	2.125966192205146	1.38980672919804	1.314494080894706	1.2004105321749015	-0.13247117238554346	1.3328817045604449	58.016604368266826
8	3.0	wm	142	diff_vonmises	0.013428100519550446	0.7693734866476686	2.892436755922528	1.6382320195261035	2.787271966223852	1.188909618092972	0.3042767022346431	0.000398165739585028	0.3038785364950581	77.27236636757337
9	4.0	ltm	142	diff_vonmises	-0.3497116758864942	-20.03700307474308	21.934734077975023	0.2204865802484952	1.1457394432233001	0.17810502182032933	0.3438303437161978	-0.04786069315506033	0.3916910368712581	28.20404252395059
10	4.0	perception	142	diff_vonmises	-0.10785219134610273	-6.179475375369067	3.9745860220564544	1.7410470386730104	1.2189857910205661e-13	1.773944765343953	1.0516071720143187	-0.2818612402545403	1.333468412268859	68.68539359075865
11	4.0	wm	142	diff_vonmises	-0.4524446783655434	-25.923170533499622	1.5200245230180547	42.1959798873671	1.497077502290007	42.13937118229468	0.19357380599452512	-0.05121995651110911	0.24479376250563423	78.07350011194588
12	5.0	ltm	142	diff_vonmises	0.17953439649298722	10.286563196476497	2.744587527899606	10.313891895188977	2.6161805569454017	10.245409403823098	0.21763513452232175	-0.054114911373190244	0.271750045895512	58.35037270790218
13	5.0	perception	142	diff_vonmises	-0.04177106677211319	-2.3933058318012366	2.0415291558290507	1.7697228627939159	1.2740955608691466e-13	1.2592675772070838	0.7239127713772397	-0.18483678137592624	0.9087495527531659	96.0758058764606
14	5.0	wm	142	diff_vonmises	0.12186069848010261	6.9821037114261655	1.890029134926481	0.6447507501575203	2.7763749672818753e-18	0.3189327451205453	0.27065526106114385	-0.04342459397815728	0.31407985503930114	99.6075626534678
15	6.0	ltm	142	diff_vonmises	-0.3795631376597148	-21.74736584664473	0.7119963878319043	1.7930346234330092	4.648683638494653e-15	1.8252250200916307	0.22382636030088682	-0.1666689160113303	0.39049527631221714	139.81609716770367
16	6.0	perception	142	diff_vonmises	0.11405472201879667	6.534854205214869	0.7413104477019968	69.25006717505318	0.7146144913197086	68.94169455234238	0.4413064314006121	-0.14646541119490575	0.5877718425955178	112.46964533149438
17	6.0	wm	142	diff_vonmises	0.05055337526018596	2.8964950425497253	0.0002560284775492407	4206.55604076925	4.9764405027687644e-30	4206.352016864512	0.20389168117776535	-0.1389269125585315	0.34281859373629686	179.85301029325495
18	7.0	ltm	142	diff_vonmises	0.1806724344081091	10.351767965938846	1.6451693621021324	120.52468129698936	1.6261793831548272	120.99824077920934	0.17332612047160723	-0.17960365845002002	0.35292977892162725	67.70588802552413
19	7.0	perception	142	diff_vonmises	-0.2457739873871266	-14.081812191383882	2.4180036655626487	1.1925096767309238	1.0949029452635842e-13	1.2266784786336857	0.49391453114356476	-0.18976099804639657	0.6836755291899613	88.41118341012513
20	7.0	wm	142	diff_vonmises	-0.08287951981945177	-4.748646693725445	0.000622950521435143	1225.1011540023096	5.502506179919297e-22	1225.0781656049169	0.12513991615108466	-0.11778465059018117	0.24292456674126583	179.7683082703594
0	1.0	ltm	143	diff_vonmises	-0.03919045120580708	-2.2454474513061338	2.849395819688715	0.5602409183031685	1.5999399262632757e-23	2.918350712906399	-0.10820718844268173	-0.4632763950708886	0.35506920662820685	81.44182429060919
1	1.0	perception	143	diff_vonmises	-0.09228637590507928	-5.287619845918855	11.948761889518767	0.8012044837008406	0.09528859500716898	3.2091567830416565	0.532147211722254	-0.5320251954621001	1.0641724071843541	38.64281662225116
2	1.0	wm	143	diff_vonmises	-0.17595249678707656	-10.081335460688663	4.617350982679876	0.4703329118800832	0.03164503312056812	2.6453706346555004	-0.043618752612006095	-0.41719293911798844	0.37357418650598234	62.004790987584016
3	2.0	ltm	143	diff_vonmises	-0.025519551832535937	-1.462162615069655	3.0415077985046075	0.5875994285614219	2.051795660043643e-24	2.1404845817153344	0.047168584103816524	-0.3397837585933436	0.3869523426971601	78.78525375427517
4	2.0	perception	143	diff_vonmises	-0.011868508050466823	-0.6800154204087896	5.737432461542697	1.452210186376391	0.29039574365803544	2.8973900709481417	0.7506975614501799	-0.4682631533741858	1.2189607148243655	53.917181428429615
5	2.0	wm	143	diff_vonmises	0.14519042322715947	8.318798476634436	2.872441385197763	0.7245744016097644	0.10588698957542607	2.0950245650263906	0.0932538846760807	-0.31107380995255246	0.40432769462863316	75.80355060277924
6	3.0	ltm	143	diff_vonmises	-0.17739250589359673	-10.163841904952674	1.6704470202494417	2.137985379413121	0.4873671038898642	3.43748875523955	0.14861090426246581	-0.334935507423415	0.4835464116858808	82.96985093190582
7	3.0	perception	143	diff_vonmises	-0.06627010052352815	-3.7969970679058704	2.7656256022542878	3.357178001162267	0.4675869857808148	4.581753785504598	0.9956662741100559	-0.5599436326151117	1.5556099067251676	72.72775813955269
8	3.0	wm	143	diff_vonmises	-0.038305584744889015	-2.1947483376628507	1.6172929366745827	1.825546083246509	0.2612299830072897	2.6829387297566187	0.28259233287124097	-0.29684392467276677	0.5794362575440077	94.08599314799582
9	4.0	ltm	143	diff_vonmises	-0.19743491745311703	-11.312187498577403	4.850346757207209	0.47809455914822435	2.1093583646207384e-11	2.466491586806516	0.015318947452130749	-0.39252934595855776	0.4078482934106885	62.01981000046288
10	4.0	perception	143	diff_vonmises	-0.12982513534357126	-7.43843232990133	0.9445453098552822	359.8035363358764	0.9254929599327507	361.6852971036259	0.6865875940712698	-0.6707504686042114	1.3573380626754812	90.93676208091176
11	4.0	wm	143	diff_vonmises	-0.3895396526527504	-22.318978049994662	0.7859618130701916	253.8130798898467	0.775307953210762	255.70004373615168	-0.04768130551637739	-0.40158917700015095	0.35390787148377356	88.96750298009007
12	5.0	ltm	143	diff_vonmises	-0.1474141880029349	-8.446210812916224	0.7855927099654516	131.63169740963733	0.7676783901646987	132.45105226174684	0.20655120465224996	-0.2672257745882707	0.47377697924052065	98.62815566531204
13	5.0	perception	143	diff_vonmises	-0.06545346494545916	-3.7502072958822907	1.5350870785109805	4.764356938500057	0.49781465395822233	5.663824032098184	0.6976378001275247	-0.45201311886911394	1.1496509189966386	90.70295941257041
14	5.0	wm	143	diff_vonmises	-0.1645592397777	-9.428549919143546	0.47357390901306706	118.0687984230948	0.45632460968115235	118.92622720166268	0.17383796898196735	-0.3188743244607313	0.4927122934426986	125.67195457462283
15	6.0	ltm	143	diff_vonmises	-0.39606942862936656	-22.69310665462068	0.6279538969917889	129.5951195978893	0.6131309204648397	130.68148646206043	0.07306944208811927	-0.2823968390917724	0.35546628117989165	106.03889382199176
16	6.0	perception	143	diff_vonmises	-0.006896674698999482	-0.3951503529273277	0.41939330547398546	196.0003103553092	0.40694493918910873	196.9242211126218	0.23683389948179467	-0.39004272035938214	0.6268766198411768	132.02812606568574
17	6.0	wm	143	diff_vonmises	0.09862725701151145	5.650925571711663	0.002551921197390016	419.1925623186677	9.220474571431948e-22	420.20731224081146	0.008858318239845175	-0.33164602758157	0.3405043458214152	179.47024439789556
18	7.0	ltm	143	diff_vonmises	-0.2821070754368681	-16.163544793311274	0.9363905720282886	137.15750566022098	0.9168774874095911	138.46724089284234	0.08211598054380431	-0.32100560200312955	0.40312158254693387	85.66524439417807
19	7.0	perception	143	diff_vonmises	-0.11467919528349485	-6.570633887700831	0.5564874538708334	277.8849868521376	0.5431015897678906	279.4792486434289	0.29382908202569524	-0.5383737767441836	0.8322028587698789	116.47457789097788
20	7.0	wm	143	diff_vonmises	0.25856984031926755	14.814960559665657	1.0273454655354115	119.3527334186781	1.0064101950129893	120.58834545575228	0.04824609970780358	-0.2961271704579378	0.3443732701657414	80.70929332743555
0	1.0	ltm	144	diff_vonmises	-0.7511471703195342	-43.03756265250372	0.000224109023563327	2107.5736599975935	5.852398833916509e-31	2109.7682879021386	-0.2741086225652225	-0.42445471247282285	0.15034608990760034	164.52503371633122
1	1.0	perception	144	diff_vonmises	-0.1114949857990576	-6.388192123157049	15.285554461971277	0.6225515265126071	0.060523203398672995	3.0625118636393522	0.4451417029608681	-0.5028515418068094	0.9479932447676774	34.3488666047746
2	1.0	wm	144	diff_vonmises	-0.09624286028858352	-5.514309702803068	3.6902817842335565	0.4715104802693675	0.08585157619398527	2.3811093170446673	-0.0653832183813296	-0.369609402108655	0.3042261837273254	66.70020554392619
3	2.0	ltm	144	diff_vonmises	-0.09508946609212619	-5.44822508323118	15.983468547304206	0.2347360848578586	5.575148324192703e-41	1.3580295622645306	0.15505833060353058	-0.21613711769931807	0.3711954483028487	33.888880231486866
4	2.0	perception	144	diff_vonmises	0.00421775322805631	0.24165945899530558	7.393073431748033	1.470637955941813	0.5201483762753673	2.7206033993072247	0.8847422808052525	-0.4866392920660833	1.3713815728713359	46.83679946633666
5	2.0	wm	144	diff_vonmises	0.20794874001497388	11.914585157921222	3.802488511320358	0.44657630797640635	0.066427832362987	1.5480404249768944	0.07094963526462472	-0.23945259982872177	0.3104022350933465	67.53906913279383
6	3.0	ltm	144	diff_vonmises	-0.17933397389234845	-10.275079827340859	1.602408372008726	75.87343463251719	1.571668067554278	76.61116999670713	0.07174479578653603	-0.21849254002000862	0.29023733580654465	65.31136786355941
7	3.0	perception	144	diff_vonmises	-0.03969466351318193	-2.274336688497266	4.384770320101171	2.4067086076118573	0.7965586668670408	3.078883962101955	1.0120641366406253	-0.4440909081983903	1.4561550448390157	57.68182206172284
8	3.0	wm	144	diff_vonmises	0.16227840253931858	9.297867571628016	1.4117593615426463	120.08310901232527	1.3916882526832448	120.55727540328807	0.2337102496533774	-0.1901567928864356	0.423867042539813	74.48375470914306
9	4.0	ltm	144	diff_vonmises	-0.4672892346429477	-26.773700956939322	18.03819412154984	0.2194771205203782	0.04251111002395341	1.8653850804447103	0.05954029893458074	-0.30439811226207164	0.3639384111966524	31.610900594901636
10	4.0	perception	144	diff_vonmises	-0.06785906186668401	-3.88803784667814	2.3505870845316204	2.947813425013488	0.46489514946312865	4.324727812276133	0.63647610293435	-0.49672798853411054	1.1332040914684605	76.63691306028954
11	4.0	wm	144	diff_vonmises	-0.17000058133596913	-9.740315825321504	0.7382040818584471	145.93130116432565	0.7260725354740483	147.59541480954894	-0.1439895313658326	-0.3188050741963906	0.174815542830558	85.28160892763471
12	5.0	ltm	144	diff_vonmises	-0.059482922514439734	-3.4081204131810994	1.2039743421296447	121.14423168699403	1.1786829880523528	122.2254429946872	0.16099332027852142	-0.3041739302922384	0.4651672505707598	77.21048849085957
13	5.0	perception	144	diff_vonmises	-0.09380307448474831	-5.374520273327377	1.0339076522117303	273.5423361880462	1.0157357557538766	274.70905653037954	0.5360221546100803	-0.45051914746191457	0.9865413020719949	87.51743327173116
14	5.0	wm	144	diff_vonmises	0.0454927395231378	2.606541973163789	1.434549839773439	1.1494122336235753	1.3050777622563685e-16	1.931232659805872	0.17724065447061804	-0.2798619815055398	0.45710263597615786	112.52762501545133
15	6.0	ltm	144	diff_vonmises	-0.42217705735160277	-24.18896359349934	0.8389097024026261	163.8493973857021	0.825310143443372	164.81359027716707	0.12793307839574197	-0.26244119476053207	0.39037427315627404	92.83558395133448
16	6.0	perception	144	diff_vonmises	0.04452780558820114	2.551255331182967	0.7491269339166274	7.326388911786736	0.39684541943180124	8.44439081879438	0.231201482239219	-0.3878359965065294	0.6190374787457484	115.31710380538118
17	6.0	wm	144	diff_vonmises	0.18854743032982096	10.802971995935673	0.3848431052828868	3.1609940346171648	4.07707947700293e-16	4.2534511808488675	0.035639710348669085	-0.3469107793229496	0.3825504896716187	157.56251082022035
18	7.0	ltm	144	diff_vonmises	-0.048764729798774026	-2.794013206565592	1.2664024465990964	191.46370025787354	1.2516997976546451	192.94982087911475	-0.06235860910103952	-0.34579429636523784	0.2834356872641983	68.60397838820938
19	7.0	perception	144	diff_vonmises	-0.23290131854367513	-13.344262595584562	0.805463440990965	6.53975921239472	0.3997143516842685	8.11844689513349	0.14027489142285154	-0.43542761721920703	0.5757025086420586	109.70528903696334
20	7.0	wm	144	diff_vonmises	0.7074123282732866	40.53174078558244	12.446129096342414	0.2815246953585989	0.07000999973751901	1.5816930267960514	0.12227215124745544	-0.2598475091919461	0.38211966043940154	37.8873197909283
0	1.0	ltm	145	diff_vonmises	-0.25192073361407485	-14.433994807925979	1.2547822811514504	0.9053436747883907	3.88275024045871e-29	3.1113109888114603	-0.14282057330500092	-0.46653031633921327	0.32370974303421235	118.36984512283705
1	1.0	perception	145	diff_vonmises	-0.1283472976466753	-7.353758467063858	11.926442261335803	0.6989890321644234	0.022014733190755285	2.9991017784376615	0.4644158942691917	-0.4807552880082038	0.9451711822773955	39.09225550504539
2	1.0	wm	145	diff_vonmises	-0.13693201837135086	-7.845626732886257	2.830588041970615	0.9052794998843436	0.22217500807211998	2.8797449911656967	0.00814240967383384	-0.41894353410143237	0.4270859437752662	71.42123535114936
3	2.0	ltm	145	diff_vonmises	0.026304057852090727	1.507111498992752	2.5928343486809795	0.5429551551104191	2.0471202772220798e-14	1.882916599011007	0.027198295010614715	-0.2978458843152457	0.32504417932586044	85.42321949530665
4	2.0	perception	145	diff_vonmises	0.04394147021686327	2.5176607890260714	4.483302622624985	1.8902397741647912	0.5522147903291896	3.050663944882778	0.7632139022172789	-0.46466300349182466	1.2278769057091035	58.11714463462715
5	2.0	wm	145	diff_vonmises	0.46145121167423014	26.43920688013137	3.3597067249269075	0.5932712018230667	1.1623793344242967e-12	1.562279053198522	0.16554498677127588	-0.24814430650997144	0.4136892932812473	74.84457734659634
6	3.0	ltm	145	diff_vonmises	-0.14568305113423913	-8.347023976580463	1.0746144881937554	141.2600752555516	1.0547042762839622	142.539966902977	0.07811880910075786	-0.317900253363014	0.39601906246377183	79.57804848827485
7	3.0	perception	145	diff_vonmises	-0.062840772094281	-3.600511022345781	3.907634260221281	1.982689109575642	0.16560853322165134	3.2792008671524564	0.8932176438323076	-0.4894023158718891	1.3826199597041966	66.26387135714347
8	3.0	wm	145	diff_vonmises	0.4214240075447601	24.145817017804116	0.37172382413461313	92.08754401691836	0.34999184807979367	92.45543669732108	0.28324169313674474	-0.2931631922295743	0.5764048853663191	137.50017216858797
9	4.0	ltm	145	diff_vonmises	-0.4204224431806747	-24.088431606831318	2.592099414523872	1.0877266480227514	0.28088994011987484	3.0700106266534113	0.02030408247169946	-0.4301796932291594	0.45048377570085885	72.61290116746443
10	4.0	perception	145	diff_vonmises	-0.03580598418311086	-2.051531775004433	0.8871831436258512	324.87587476797665	0.8694077384352207	326.6437407594729	0.540673514001341	-0.5973215222632682	1.1379950362646092	93.26307222517289
11	4.0	wm	145	diff_vonmises	-0.48794864214927175	-27.95739781429258	0.9799090426576688	237.31571684891813	0.9662163499020728	239.31458085077642	-0.05416987230471193	-0.4356780654070853	0.3815081931023734	79.19340434482298
12	5.0	ltm	145	diff_vonmises	-0.297176879620271	-17.026980971108856	0.9296163296911679	176.4983085088494	0.9153684103663111	177.15432648984407	0.2647539490842732	-0.2442559742261956	0.5090099233104688	91.92689144116744
13	5.0	perception	145	diff_vonmises	-0.10792998206787502	-6.183932455411896	1.064689295959596	98.4359048222662	1.0149634836269392	99.10432862692991	0.6921889709708324	-0.3988321741331742	1.0910211451040066	89.23686650433561
14	5.0	wm	145	diff_vonmises	-0.05734277449822532	-3.285498964318718	0.388573071010062	139.74705675581657	0.3753690740382851	140.04943266181093	0.2695084493814015	-0.2615136633683335	0.531022112749735	137.33572118692024
15	6.0	ltm	145	diff_vonmises	-0.4720482421906554	-27.046372004093875	0.7097397170895507	131.2896281972055	0.6968982773970328	131.95363531347044	0.13283602141948592	-0.20770902191136997	0.3405450433308559	102.9025889311744
16	6.0	perception	145	diff_vonmises	-0.07843856278350993	-4.494198598567049	0.5273190479964112	165.28407940407664	0.5132424757014011	166.03244133171398	0.24964330490316655	-0.32456245419072083	0.5742057590938874	121.43478995332724
17	6.0	wm	145	diff_vonmises	0.32661868593245685	18.71387221403873	0.00023898085274717647	4162.21077328738	3.2948985606096e-31	4162.918297149024	0.04571118330795798	-0.2709041076396943	0.3166152909476523	176.6290888151803
18	7.0	ltm	145	diff_vonmises	-0.29493314831946743	-16.898424637211413	2.2275897183234488	0.768022386784559	0.09246155343054586	2.380769888314599	0.007999203071315297	-0.3460611138393392	0.3540603169106545	84.89897674872148
19	7.0	perception	145	diff_vonmises	-0.21146581535287517	-12.116098731012515	0.7690406771236242	254.53309976633952	0.7498471927066801	256.1905035872273	0.44537632460570364	-0.5563827062229407	1.0017590308286444	100.01436232610644
20	7.0	wm	145	diff_vonmises	0.3537781081306644	20.269992480009943	1.2342498616156863	100.78888697224549	1.2052194857838119	101.95011878286351	0.0974737376196515	-0.3056940266319561	0.4031677642516076	74.74137875440005
0	1.0	ltm	146	diff_vonmises	-0.4868021318908149	-27.89170761531455	0.0003794025071563248	1514.433528456827	4.926286905245842e-28	1516.7507475588188	-0.27734113725654197	-0.46023526383191893	0.18289412657537696	173.3209551538964
1	1.0	perception	146	diff_vonmises	-0.09229383744156686	-5.288047360468276	12.307642710795859	0.7496256807971651	0.08427429744613099	3.2725855972665987	0.47228765248021465	-0.540522911347623	1.0128105638278377	38.11135462066392
2	1.0	wm	146	diff_vonmises	-0.08578995821146886	-4.915402530120866	3.8934594461296466	0.4640168508560977	0.06075829550041142	2.538111899550451	-0.07732856996744125	-0.3964733112034446	0.31914474123600334	65.94032403001944
3	2.0	ltm	146	diff_vonmises	-0.10830315294626376	-6.205313571780761	5.537281064439031	0.32292017786722166	1.0801768543816081e-28	1.5523180931874039	0.04853636530289804	-0.24705451522955257	0.29559088053245064	57.95554936071687
4	2.0	perception	146	diff_vonmises	-0.0031901936358719797	-0.18278463116495938	7.348373059195577	1.4385836513517618	0.42435191769327174	2.7164957681981035	0.8952570125376281	-0.47376097037779735	1.3690179829154254	47.463411686106525
5	2.0	wm	146	diff_vonmises	0.20487458798009786	11.738449220741273	3.4796239375291806	0.5046716991986612	0.05712208077924149	1.6881896902880864	0.07507473171488105	-0.26002774343720636	0.3351024751520874	70.82303676964304
6	3.0	ltm	146	diff_vonmises	-0.19736225179431566	-11.308024063012546	1.331841673175886	57.169776108486914	1.2959138180317482	57.93393840656211	0.0692830786785592	-0.20741965539102925	0.27670273406958845	72.03350299014338
7	3.0	perception	146	diff_vonmises	-0.05047729206225218	-2.8921357964162615	4.157992411306202	2.298630749987031	0.6333736294607545	2.9245411103356984	1.0098561170463385	-0.414769767094163	1.4246258841405015	60.36470696125727
8	3.0	wm	146	diff_vonmises	0.09837133546293117	5.63626234709156	1.2577636789772109	164.21021150161562	1.2437114875661723	164.67532689082222	0.24279985875023868	-0.1882393061568166	0.4310391649070553	79.29023347283936
9	4.0	ltm	146	diff_vonmises	-0.41534764409369207	-23.79766703727037	14.451606007338464	0.2214214584506981	0.009554293406328945	1.9185494583340545	0.024504856197749225	-0.30656304457964056	0.3310679007773898	35.529035573413864
10	4.0	perception	146	diff_vonmises	-0.07818753163590765	-4.479815573283114	2.529449602098776	2.5649503753478498	0.32952334785986626	3.895602333852515	0.6829216604880887	-0.49186880582748405	1.1747904663155726	77.16002310276158
11	4.0	wm	146	diff_vonmises	-0.24428785603896463	-13.996663137332114	0.7465684624720268	190.75027918919696	0.7361448971298049	192.46148416789546	-0.11923423968372049	-0.33718721912197225	0.21795297943825176	87.04786629590495
12	5.0	ltm	146	diff_vonmises	-0.07415513310776001	-4.248776156305489	1.043197183702378	116.58902279513843	1.0205540919642437	117.62952570877555	0.1383379128764517	-0.28158142274132203	0.4199193356177737	82.93115379786593
13	5.0	perception	146	diff_vonmises	-0.09049050749809462	-5.184724165637752	1.0530083141258957	118.40906934719719	1.0099801452822241	119.46641897537455	0.5976998651277512	-0.44869681063246425	1.0463966757602154	87.90233743258827
14	5.0	wm	146	diff_vonmises	-0.009375180913534616	-0.537158298517137	1.2409151481476473	1.2744652523260072	4.199923773712294e-17	2.090674775985496	0.16003826520733472	-0.29154640695508877	0.4515846721624235	119.19329205581069
15	6.0	ltm	146	diff_vonmises	-0.4238448572127242	-24.284521486614103	0.7320810625531963	147.96996081831236	0.7186418109260116	148.92901679008025	0.10306948847411945	-0.2572480135028563	0.36031750197697576	99.02910540550968
16	6.0	perception	146	diff_vonmises	0.11228953731757273	6.433716571773677	0.42797595346311323	19.07124747852244	0.3045460986765472	20.057478889298103	0.22036149612713452	-0.4095954173692362	0.6299569134963707	136.95897345685626
17	6.0	wm	146	diff_vonmises	0.16937317151296735	9.704367890438453	0.290660625745734	4.05416886852951	5.2581925780631574e-14	5.113329698881715	0.031132223196319697	-0.3413499688307559	0.3724821920270756	162.79621042154707
18	7.0	ltm	146	diff_vonmises	-0.1799674489344613	-10.311375273680795	1.0295093328293048	134.07812226972203	1.0124445968028504	135.38028493359099	-0.016025425605690202	-0.2923129785553016	0.2762875529496114	78.13269278355278
19	7.0	perception	146	diff_vonmises	-0.18170085526912688	-10.410692140838377	0.6059655867979117	126.84747477240319	0.5818007451080903	128.31608974624748	0.19483676867083233	-0.4381127321935825	0.6329495008644148	110.76935077858003
20	7.0	wm	146	diff_vonmises	0.39320236234316785	22.528835856837247	0.8734093667592483	47.678434380356315	0.8300341740597117	48.898920601783416	0.016974790430744235	-0.2774305947229214	0.29440538515366566	87.39797192840376
0	1.0	ltm	147	diff_vonmises	-0.3426488033126963	-19.63233028502576	0.0006268996554240243	1037.7221457400283	5.289529233518316e-25	1039.717921289154	-0.2140855783646316	-0.42115705827146144	0.20707147990682984	176.63604691299838
1	1.0	perception	147	diff_vonmises	-0.07472211659336718	-4.281261917084396	13.361577898284711	0.8085895079982315	0.11086984078901611	3.0091119897594103	0.6341053167620431	-0.5048893753458285	1.1389946921078715	36.55843840567039
2	1.0	wm	147	diff_vonmises	-0.09630926590992264	-5.5181144646417435	4.463646913567999	0.34983701581216137	6.769440024276051e-13	2.1448280785837555	-0.055946729892943414	-0.3413220997226096	0.28537536982966616	64.72035384682076
3	2.0	ltm	147	diff_vonmises	-0.10859132915946765	-6.2218248525534054	9.740030755831114	0.2915258012037227	1.004666857805103e-30	1.394565951348742	0.1360939762828252	-0.22195206338338302	0.35804603966620824	43.49703140754323
4	2.0	perception	147	diff_vonmises	-0.025208369146620706	-1.4443331605091672	8.126725413529957	1.3086813592748248	0.323678677977054	2.4359671872280213	0.9415470805196774	-0.42019356668275504	1.3617406472024325	45.896952713283326
5	2.0	wm	147	diff_vonmises	0.018809554101858066	1.077708064559453	3.5654870533847656	0.5561028010312518	0.1202506398058658	1.7033957227681846	0.09670858248623576	-0.2590188558221214	0.3557274383083572	68.24452215633173
6	3.0	ltm	147	diff_vonmises	-0.21708155637943302	-12.437856990672744	1.3884170871704147	31.021358288450738	1.3248803748586941	31.627143361492656	0.11111978557376823	-0.1826966885150183	0.29381647408878653	72.66906936571635
7	3.0	perception	147	diff_vonmises	-0.05058839148298162	-2.898501324330407	3.54674755114004	2.89342402779265	0.8033990981503286	3.254762050598554	1.0917443533950992	-0.3989300105948373	1.4906743639899365	63.50224997237589
8	3.0	wm	147	diff_vonmises	-0.02363459467459374	-1.3541625253565925	1.4099468384865688	144.57781738112106	1.3912212186725508	145.07318315220405	0.2780807526584823	-0.20952472177832782	0.4876054744368101	74.90948824897876
9	4.0	ltm	147	diff_vonmises	-0.20648304385046742	-11.830606953646491	3.9316541424339064	0.4616534859505418	0.21449215570673177	1.8424785801150834	-0.007635569275499354	-0.2875277470888858	0.27989217781338643	61.909173894843406
10	4.0	perception	147	diff_vonmises	-0.11565461278896343	-6.62652119402736	2.8655169971099532	2.446488456828618	0.2461194548989697	3.613129786357671	0.8362459520162505	-0.4892742541635244	1.3255202061797748	75.10679982150509
11	4.0	wm	147	diff_vonmises	-0.2437335757233348	-13.964905214579344	0.7652363491854556	152.92652138130353	0.7529122544827384	154.2744382148786	-0.03732429954090577	-0.2854779777885952	0.2481536782476894	90.09746809539612
12	5.0	ltm	147	diff_vonmises	0.043860656785186934	2.5130305204630488	1.071930922145605	55.20574420948829	1.0290922166621774	56.10491922324313	0.13299194134827275	-0.24817414909152813	0.3811660904398009	82.49530653824715
13	5.0	perception	147	diff_vonmises	-0.06091233195068407	-3.490019541074074	1.723974143257042	3.5538745113020678	0.4295174429492529	4.450473266776938	0.6353706748846384	-0.42026192697217357	1.055632601856812	88.40266727379077
14	5.0	wm	147	diff_vonmises	-0.0610449726599008	-3.4976192939038144	1.4969889059975292	1.000552581507816	1.231153098686069e-16	1.9374478993559345	0.12448622502000806	-0.2866719267506536	0.4111581517706617	110.54669967767775
15	6.0	ltm	147	diff_vonmises	-0.3972214598603863	-22.759113182025374	0.6406360996613003	120.23876389369828	0.6246511245187668	121.23917384698832	0.09448636977754177	-0.2721223357506446	0.36660870552818636	105.97668112924872
16	6.0	perception	147	diff_vonmises	0.12395230906125525	7.101944170111117	0.9013630149140281	2.459486365006213	2.0038747553621486e-15	3.2874841492267826	0.27115034704956786	-0.3922680140551982	0.663418361104766	132.63149012990135
17	6.0	wm	147	diff_vonmises	0.060842370127937355	3.486011023903645	0.15937997984528993	7.730790642599462	4.7021870982026455e-09	8.728991189377465	0.044594700285595534	-0.3467644747109988	0.39135917499659434	170.75128059279638
18	7.0	ltm	147	diff_vonmises	-0.1679631481052933	-9.623579500164077	1.0815881485611707	148.60907674789678	1.0670762341820719	149.63867235549708	0.04010681895797319	-0.24924027140059124	0.28934709035856443	78.41358405800719
19	7.0	perception	147	diff_vonmises	-0.13414820003064803	-7.686125691032873	0.5521867706075149	175.07703519778013	0.536872335014967	176.25412402622752	0.20572574027966084	-0.39265183019961825	0.5983775704792791	116.82203125025251
20	7.0	wm	147	diff_vonmises	0.3428163614663822	19.641930660054967	0.7680661388270236	91.31619850639733	0.7505565013696105	92.2312486856448	0.036061232627314865	-0.21745298427048532	0.2535142168978002	94.14082503842243
0	1.0	ltm	148	diff_vonmises	0.18994845704411306	10.88324491364969	0.0005259658922691959	1529.7751417522716	1.7047395311712504e-26	1533.5970820068394	-0.48020652747766235	-0.7363211632745958	0.2561146357969335	178.74267361301656
1	1.0	perception	148	diff_vonmises	0.013006800694939554	0.7452347847878626	7.017448305363052	1.3406273695650668	0.15937060453738827	5.215207398387745	0.4222938179649376	-0.8584598380053242	1.280753655970262	49.18574819672375
2	1.0	wm	148	diff_vonmises	0.03918511047847196	2.2451414501703013	4.406915935091678	0.42904932594003337	1.4826779159414505e-16	4.238302166973142	-0.3268740504676118	-0.6744950501271895	0.34762099965957766	65.14170254155826
3	2.0	ltm	148	diff_vonmises	-0.010244015793442985	-0.5869388702296423	1.9173676912508009	0.4766268437257407	8.109599298424158e-21	2.325661317714049	-0.13046974176503282	-0.3649613993729199	0.23449165760788707	98.97567142228593
4	2.0	perception	148	diff_vonmises	-0.033335186742666084	-1.9099655096352208	8.408249836444051	1.3995526367469144	0.1993779395357437	3.18394161736755	0.9810365842583288	-0.5334410442858544	1.5144776285441832	45.57207655766692
5	2.0	wm	148	diff_vonmises	0.03100150216833918	1.776255232811505	2.489030782533632	1.1097158168772068	0.21468533896995134	3.039217231803139	0.05963262583706774	-0.42585986186107505	0.4854924876981428	76.37121689183093
6	3.0	ltm	148	diff_vonmises	-0.1567802577454286	-8.982847079786293	2.029885216479113	0.3964509896005956	1.0241313469157104e-12	1.0910957699331285	0.032710604631593115	-0.1700928925888306	0.2028034972204237	96.30392369510962
7	3.0	perception	148	diff_vonmises	-0.06761463873669438	-3.874033432914356	3.0406015131603077	2.828979448188316	0.6575170846204736	3.2279153352042083	0.9746664346210228	-0.373934663453105	1.3486010980741279	68.88841086889497
8	3.0	wm	148	diff_vonmises	-0.08508240385431552	-4.874862651679888	1.2014964511761723	121.75405031719674	1.1810100410593494	122.33360226559799	0.24364883637055357	-0.2143204147384381	0.45796925110899167	80.63425335961202
9	4.0	ltm	148	diff_vonmises	-0.041145786612059816	-2.3574799176169137	4.355220249276809	0.34632115475207337	0.013075369190325993	2.58563802585138	-0.13807497811809283	-0.4089514738095388	0.27087649569144595	64.45531884339616
10	4.0	perception	148	diff_vonmises	-0.09093847202624535	-5.210390642472358	3.5535424205702766	1.8697835487397962	1.1948666216099733e-13	2.9833862851437942	0.8721056021325255	-0.4737171120062073	1.345822714138733	72.74932958935469
11	4.0	wm	148	diff_vonmises	-0.14175598792448568	-8.122019828780491	0.5913576392417781	181.2215082413358	0.577403075959149	183.55292394443606	-0.1312810503006716	-0.47191857826559414	0.3406375279649225	100.52825709586064
12	5.0	ltm	148	diff_vonmises	-0.07982633776239137	-4.573712247770813	0.5144795381667745	70.08183523106756	0.48742314995140706	71.58965607184105	-0.01406236548127282	-0.3527374129261531	0.3386750474448803	114.33396637467222
13	5.0	perception	148	diff_vonmises	-0.07574286084205598	-4.339746254496516	2.581626582331485	2.4917048893546467	0.2024189577018224	3.8509732787401862	0.7535759190254177	-0.5193442474000416	1.2729201664254592	79.31782429577814
14	5.0	wm	148	diff_vonmises	-0.15611511430325276	-8.944737167778815	0.38976755580325523	129.57680921276003	0.3739515436005698	131.19058010439477	0.01386195266658774	-0.4257002112507635	0.43956216391735126	130.8328435582173
15	6.0	ltm	148	diff_vonmises	-0.4115761154573166	-23.581574364093324	0.41651556487642155	175.1001390304493	0.40678011184274193	176.48860133547052	-0.005084778206217777	-0.3483486612433708	0.34326388303715305	125.659013441903
16	6.0	perception	148	diff_vonmises	0.2246013824062148	12.86871128467997	0.00029866902807586915	8568.28518962986	2.629154915378847e-29	8569.359082884137	0.23640437503649991	-0.5781743926954732	0.8145787677319731	178.31313512235303
17	6.0	wm	148	diff_vonmises	0.052966671661459956	3.0347667410568353	0.30520848258600486	144.86572288440752	0.2914764211198912	146.4125209577616	0.0331566707312696	-0.4437893139932392	0.4769459847245088	142.3973960350663
18	7.0	ltm	148	diff_vonmises	-0.5331777546730186	-30.548835073025575	1.1418841184093633	0.8932369732478727	3.069307261985514e-16	1.8154825256165767	0.04007537599179556	-0.25541383406561613	0.2954892100574117	121.09162588535028
19	7.0	perception	148	diff_vonmises	-0.0011164674854093775	-0.06396887487754115	0.6461214857289787	247.2356690354699	0.6335732759417625	248.58096459393667	0.22339498605821007	-0.4128336062934075	0.6362285923516176	107.3548473515751
20	7.0	wm	148	diff_vonmises	0.17291019268792998	9.907024275812216	0.6216253592584533	87.52742559594626	0.5991970801816476	88.7595436153436	0.04490812631189556	-0.30264066810627277	0.3475487944181683	105.54853704803449
0	1.0	ltm	149	diff_vonmises	-0.7574944626998548	-43.40123571723164	2.290696745547017	0.4783378895798848	5.468950390661137e-19	1.4821747759759822	0.03179605496971244	-0.23315380828915236	0.2649498632588648	90.23538706231048
1	1.0	perception	149	diff_vonmises	-0.07908540423414653	-4.5312598837026465	10.445983805019216	0.8827569656210372	1.0635974183440262e-19	2.154919408175306	0.7806007629069827	-0.34296607482595254	1.1235668377329353	41.99511519688596
2	1.0	wm	149	diff_vonmises	-0.056968024897295653	-3.264027393811236	5.024079172782973	0.3578083638716212	0.08564064469616213	1.2749157771083346	0.09040032337515796	-0.20089914477125365	0.2912994681464116	58.771251202797515
3	2.0	ltm	149	diff_vonmises	-0.202692020787803	-11.613397332119058	3.940074392539574	0.41240667189236835	0.623339562383834	0.7252100276541251	0.11866083749205145	-0.10661648238891094	0.2252773198809624	59.769124640962076
4	2.0	perception	149	diff_vonmises	0.03191547011457847	1.8286217387412564	5.9941546461900135	1.9535699025587914	1.0018338720846978	1.7758886882033496	1.2571660970112792	-0.28211172034966764	1.539277817360947	51.06927387359332
5	2.0	wm	149	diff_vonmises	0.17449204240900523	9.997657588653773	1.98928201727875	0.8343076141916365	0.40600546411328975	1.2193410220575474	0.14939964341999323	-0.13266583782115776	0.282065481241151	82.78626883169593
6	3.0	ltm	149	diff_vonmises	-0.14462844578459363	-8.286599540993857	2.260128694866115	73.82674576169876	2.2424422502271364	74.06247276557497	0.06137820130227567	-0.09781103117773249	0.15918923248000816	56.11039307592358
7	3.0	perception	149	diff_vonmises	-0.008712245412433728	-0.4991748922146659	5.886446904707671	1.8072245621453515	0.9224235013704907	1.5133520415149215	1.2133869157042458	-0.2348784323889234	1.4482653480931693	52.08979270234215
8	3.0	wm	149	diff_vonmises	0.24689978309322508	14.146315533937274	1.298460381807326	67.76556082659832	1.2791021297211884	67.81645226905258	0.21887646109784953	-0.08600661967156409	0.3048830807694136	82.12601746261589
9	4.0	ltm	149	diff_vonmises	-0.6514656708349249	-37.326233436500125	1.183444457847263	69.91922816744386	1.1539361618015258	70.63132034054496	0.11892486992313067	-0.203642098379885	0.3225669683030157	78.35302059460007
10	4.0	perception	149	diff_vonmises	-0.004465459487421893	-0.2558519822159264	3.4391440939700653	1.888978562771589	0.07982248057432563	2.1576610245221266	0.9648508935565947	-0.32175938339816185	1.2866102769547565	72.46331668497882
11	4.0	wm	149	diff_vonmises	-0.16381602606917947	-9.385966910369053	0.8724528178028786	151.44588862004358	0.8584868186018111	152.37146864833983	0.11200787652948918	-0.24672100863087465	0.35872888516036383	90.64357081978899
12	5.0	ltm	149	diff_vonmises	0.035143857030228785	2.0135946836432765	1.6475339863099354	109.5237319133454	1.6301473353558158	109.72994938073187	0.22928851175048948	-0.12704752442467537	0.35633603617516485	70.60297217251718
13	5.0	perception	149	diff_vonmises	-0.11664708658370014	-6.6833857537431065	1.1525540958880052	85.83461450350507	1.1116315640290106	85.55180252909045	0.7575469700976107	-0.2143092774460067	0.9718562475436174	90.25674570742328
14	5.0	wm	149	diff_vonmises	0.3913069602176339	22.420237314564027	0.45409583926257485	100.43368014652461	0.4384617386446152	100.46043663839782	0.28447065475272026	-0.18803805947570496	0.4725087142284252	131.12393814495394
15	6.0	ltm	149	diff_vonmises	-0.5801378875732305	-33.239452493581155	0.7244877558344791	55.50854535352661	0.7081414289836887	55.28384299282872	0.23734312208023134	-0.06769754778595827	0.3050406698661896	113.64579074730695
16	6.0	perception	149	diff_vonmises	-0.07647196550462505	-4.381520874485034	0.6571795139886107	67.6544571543597	0.6304385225849379	67.3747224936314	0.41957663057069183	-0.1570762816824196	0.5766529122531114	118.08797737714859
17	6.0	wm	149	diff_vonmises	0.13789769754479525	7.9009560738883025	0.000334620900503822	4527.763827938399	2.2570637424900848e-32	4527.553643136315	0.27460493256921836	-0.20766068828197604	0.4822656208511944	179.29111388144526
18	7.0	ltm	149	diff_vonmises	0.19917368678532318	11.411811642859595	1.581344921205029	98.0634839245811	1.560041584063852	98.81326525914673	0.027375386828829562	-0.20892321096963862	0.23629859779846818	64.20448571981566
19	7.0	perception	149	diff_vonmises	-0.13218641672347672	-7.5737237872127405	4.295153043148534	1.0265647669461533	3.46339409673328e-30	1.4981775710322303	0.5818826067819605	-0.23828983206117868	0.8201724388431392	66.01019406129782
20	7.0	wm	149	diff_vonmises	-0.17903629610472327	-10.258024146455144	0.029639711814508023	48.330936584926874	0.015471016614285198	48.957810129497155	0.008881087123675968	-0.2059753290011752	0.21485641612485118	176.51774483123612
0	1.0	ltm	150	diff_vonmises	-0.41832060016570594	-23.968004872874555	0.0002933045365998719	3143.7281103512355	2.735009401083854e-31	3144.732999911101	-0.013170450628024355	-0.3066743093070272	0.29350385867900286	175.04241292140767
1	1.0	perception	150	diff_vonmises	-0.1641475055240086	-9.40495928412606	14.558083915390496	0.7184122217363181	0.24838793047092117	1.8932412302096966	0.7030688203501094	-0.34209903724097485	1.0451678575910843	34.80936126878052
2	1.0	wm	150	diff_vonmises	-0.07859951585097386	-4.503420530032417	2.0363179844127033	0.9795340430859182	0.3781313552492972	1.5809737699443671	0.15634726044974295	-0.18089571002858704	0.33724297047832996	81.73058007661734
3	2.0	ltm	150	diff_vonmises	-0.05155487315294665	-2.9538766449961584	6.466334526084554	0.3035645834131153	1.0252686580403177e-18	0.8842907567320792	0.16076955669821077	-0.1407385160853976	0.30150807278360836	53.54651997601664
4	2.0	perception	150	diff_vonmises	0.016536564618064034	0.9474753602604353	5.649986509973574	1.3961159473564644	0.6128949929101497	1.9530654038780473	0.7682833037073818	-0.31904782200982484	1.0873311257172067	52.868203708181056
5	2.0	wm	150	diff_vonmises	0.6842110686528236	39.20240652994261	4.319405736791485	0.48320106059885937	1.6853139495665145e-18	0.61774175736094	0.2890217204434308	-0.09824805397486791	0.3872697744182987	65.79898303322014
6	3.0	ltm	150	diff_vonmises	-0.24118238465098601	-13.818732733402305	7.790147120374272	0.31816413595259974	0.48035635562963586	0.6731597442255297	0.1845701976095627	-0.12165870414405865	0.30622890175362133	45.68438678159913
7	3.0	perception	150	diff_vonmises	-0.10034351914853643	-5.749260148701297	5.251444587947758	1.3406346111987866	0.05076909435883234	1.8873417203456966	0.8773761248047439	-0.2950643277509417	1.1724404525556857	58.93812935967861
8	3.0	wm	150	diff_vonmises	0.49006162361473893	28.07846273445322	1.0437351135841704	15.01995516606845	0.9869290117289683	14.411364765100714	0.3676357291166559	-0.02735193875845776	0.39498766787511363	105.14612946291311
9	4.0	ltm	150	diff_vonmises	-0.3305261600837259	-18.93775399146291	6.8888190315758475	0.5739626929163766	0.6653684026913613	1.3152537483221975	0.22365281220349298	-0.24444961608782015	0.4681024282913131	46.614828274679894
10	4.0	perception	150	diff_vonmises	-0.10091022413626916	-5.781729952727396	1.245557707057272	12.78905102144747	0.878186646033315	13.971167490879575	0.5052983834412723	-0.4402626808281438	0.9455610642694161	85.83888355252608
11	4.0	wm	150	diff_vonmises	-0.675833328300553	-38.72239736590107	1.6379773334236345	112.0652968560877	1.6189260819923703	112.6943241699142	0.0778530306454428	-0.19335718763531062	0.2712102182807534	64.93140291838318
12	5.0	ltm	150	diff_vonmises	-0.37431026280025437	-21.446398286887273	1.5293530895454197	131.84574137296983	1.5123059003262875	132.16561585020787	0.2521886905882553	-0.16092645795928995	0.4131151485475453	72.63224516366287
13	5.0	perception	150	diff_vonmises	-0.10893296476918951	-6.241399131121847	2.376787327992747	1.8298181938538116	0.1871187466159464	2.3240583384509352	0.6046119162792243	-0.3045147428196201	0.9091266590988444	83.6051404305438
14	5.0	wm	150	diff_vonmises	-0.16241221276568468	-9.305534332854483	0.5699481953376783	67.79156914981515	0.550284712220228	67.53152513742849	0.31781969551748546	-0.12028614252721326	0.4381058380446987	124.73220565375206
15	6.0	ltm	150	diff_vonmises	-0.4336034284266137	-24.84364643124783	2.4025082684342727	0.730659506600102	6.767485621471296e-18	1.4363303905517746	0.1920425352052989	-0.22515456847108803	0.41719710367638696	88.59734559968985
16	6.0	perception	150	diff_vonmises	0.06542625038402414	3.7486480163707645	0.7291410483928145	151.79934174788391	0.7133831095600496	152.5603632379713	0.23779772813377775	-0.2755212239003324	0.5133189520341102	103.28614703210735
17	6.0	wm	150	diff_vonmises	-0.56980758704418	-32.6475698721648	1.127228739043916	59.16204792351692	1.107385881748088	59.751341767706364	0.006040992177155147	-0.13909765816343267	0.14513865034058782	75.65427678589924
18	7.0	ltm	150	diff_vonmises	0.054163114840418115	3.1033178856383534	1.2397372081113436	167.67639240859432	1.2185608375727492	169.04990293345426	0.12754605913976036	-0.3659549894836047	0.4935010486233651	74.67104309799817
19	7.0	perception	150	diff_vonmises	-0.4543368034846264	-26.031581317133767	0.9423927189369611	173.51884626830508	0.9161488984764802	174.53572137010497	0.534637253536502	-0.42614057287848084	0.9607778264149829	92.48693363606024
20	7.0	wm	150	diff_vonmises	0.6918074042960293	39.6376445020631	12.323646050065566	6.002095603738895	11.405818686294502	5.642884252375747	0.8009938504076954	-0.0607499989979281	0.8617438494056235	29.98076879805012
0	1.0	ltm	151	diff_vonmises	-0.1694282756914988	-9.70752512730184	0.0002977832119703892	1894.2016043552646	5.057211658088367e-33	1897.5819382132438	-0.44821816415810645	-0.6277621556641861	0.1795439915060797	179.16350265206887
1	1.0	perception	151	diff_vonmises	-0.045349998214364806	-2.598363498608923	8.16465387122666	1.0001863558773774	0.13908147824793743	4.474686248969638	0.3068846340649247	-0.7419266698679386	1.0488113039328635	45.88199934476722
2	1.0	wm	151	diff_vonmises	-0.023942934190567186	-1.3718290782789777	3.499845781064678	0.5911483678484862	0.07105370786556127	3.7252954937570446	-0.21352118577268858	-0.5794172517212085	0.3658960659485199	68.14044465673854
3	2.0	ltm	151	diff_vonmises	-0.06130173482265178	-3.512330682168097	2.0628180653055512	0.4665359371973912	7.105501259649416e-31	2.160891198346935	-0.09872085755954621	-0.3399552254033299	0.2412343678437837	95.59885923830353
4	2.0	perception	151	diff_vonmises	-0.011401440892233989	-0.6532544434928792	7.6743157495122	1.4346686844307426	0.33143163731256453	3.1611375207467654	0.8758231817640871	-0.5454981061824085	1.4213212879464956	46.802229710084646
5	2.0	wm	151	diff_vonmises	0.2268587301198986	12.998047781567557	3.2018077808733465	0.6393538815080776	0.07805972186860216	2.217712146543501	0.05346045469788202	-0.33768527014592786	0.3911457248438099	72.66124944862054
6	3.0	ltm	151	diff_vonmises	-0.23064324531197045	-13.214884529576416	1.9310272686271348	0.6888090946197493	0.28570204309478775	1.5462784608186124	0.026973764542928047	-0.19348235404735842	0.22045611859028647	82.36947647961993
7	3.0	perception	151	diff_vonmises	-0.06960919275194924	-3.9883129599993317	3.893444344474045	2.1473606529229445	0.5063817590986557	2.8471517452123813	0.9209160489169284	-0.39955082090826355	1.320466869825192	63.05323200927276
8	3.0	wm	151	diff_vonmises	0.05418328144693624	3.104473347078943	1.144048097227161	177.7283282687028	1.1316889715854321	178.22993905456445	0.22547929868136407	-0.19035139432147474	0.4158306930028388	82.81733839060928
9	4.0	ltm	151	diff_vonmises	-0.27797405963671207	-15.926740431301452	3.3970855257446897	0.45274421187505454	0.12127228696439471	2.6827579171068097	-0.1621842464740465	-0.4156515721493088	0.2534673256752623	66.68354223366688
10	4.0	perception	151	diff_vonmises	-0.07007355734414838	-4.0149190912876564	2.925256942745917	2.0095864732020066	0.18462880414543612	3.387485577988762	0.6543946381612895	-0.4769803445083624	1.131374982669652	75.11870732560271
11	4.0	wm	151	diff_vonmises	-0.19633097513484232	-11.248936262914373	0.6377519618225713	171.33335420895762	0.6251277038388213	173.597260343383	-0.20145202243521965	-0.427091375100904	0.22563935266568436	91.61477196471262
12	5.0	ltm	151	diff_vonmises	-0.16980180819480378	-9.728926963252173	0.7479639167817463	93.09673436504204	0.721296422110538	94.59539571613546	0.04122116562859901	-0.35003553057331693	0.39125669620191594	95.21699853976953
13	5.0	perception	151	diff_vonmises	-0.09972197938519667	-5.713648543462369	1.865913089750193	4.020959355666494	0.5098867737369422	5.467423064296813	0.6297501795231046	-0.5255438564311552	1.1552940359542598	82.7078731120782
14	5.0	wm	151	diff_vonmises	-0.10572962546073945	-6.0578613083993025	0.43287298155190823	153.26701169770715	0.41969211835593767	154.43351016813483	0.10223123817293356	-0.3593669277930971	0.46159816596603065	127.99693222393803
15	6.0	ltm	151	diff_vonmises	-0.41981555255564257	-24.053659335390922	0.6315629301210215	184.21847591566114	0.6205365236935655	185.5328488983424	0.031209023452341	-0.31273484039895294	0.34394386385129394	103.45110263703906
16	6.0	perception	151	diff_vonmises	0.25472684047201605	14.594772887748727	0.034813677609250616	207.7535299050853	0.02393616970970445	209.04999761440044	0.1535506103338662	-0.5557268783654656	0.7092774886993318	174.6227064611985
17	6.0	wm	151	diff_vonmises	0.16181095190409733	9.27108462309913	0.6867451422685396	1.8354376254492375	2.0756964617420676e-15	3.334359794184093	-0.013030770787501256	-0.3995979018349799	0.38656713104747864	142.36063220262074
18	7.0	ltm	151	diff_vonmises	-0.5563420423497628	-31.87605099232992	1.6880433998846642	0.6476274530210205	3.4132893345587396e-18	1.9712012847326974	-0.012328602491141538	-0.303424282813135	0.29109568032199346	104.10651006592049
19	7.0	perception	151	diff_vonmises	-0.12953322760443445	-7.421707248441585	0.5695201786490226	203.99855006138822	0.553851075291187	205.68178563772238	0.17014833983673583	-0.4839086178379972	0.654056957674733	113.0887776264602
20	7.0	wm	151	diff_vonmises	0.24286955387306	13.915400409151514	0.7026846740016353	64.63048526640401	0.6664167394154951	66.16202614104516	0.0204171987127566	-0.3515029362828965	0.37192013499565313	98.06093782094652
0	1.0	ltm	152	diff_vonmises	-0.2517843289072619	-14.426179393919876	1.0862144290000857	0.5529074115521537	4.1980466415924036e-33	3.011762617603344	-0.28142830751356807	-0.4567936385516935	0.17536533103812546	124.6550532620627
1	1.0	perception	152	diff_vonmises	-0.06451322053337324	-3.6963352593590084	12.817734858948633	0.7397907672908854	0.04929708557694461	3.4337487409661342	0.47199151072138223	-0.5581223441573527	1.030113854878735	37.533085378809886
2	1.0	wm	152	diff_vonmises	-0.06804049808571642	-3.8984333762795083	4.398877146704736	0.3942307794650534	0.017176824228043248	2.704951979553755	-0.1187786938505585	-0.4273716352011763	0.3085929413506178	63.957879252047434
3	2.0	ltm	152	diff_vonmises	-0.10174702072128691	-5.829674865359873	6.711400553866001	0.2892758149513601	2.0550398042542674e-34	1.477094526187335	0.057865567502260185	-0.23508646137187308	0.2929520288741333	52.54323380371346
4	2.0	perception	152	diff_vonmises	-0.006816199509662532	-0.3905394642228043	7.660852940345395	1.4440872950847636	0.4148604508959784	2.6623290549897396	0.9516786427662608	-0.46644845318703243	1.4181270959532932	46.687207937474284
5	2.0	wm	152	diff_vonmises	0.0415935186911868	2.3831330761035074	3.2449343380757387	0.6978054824356236	0.2101993167146231	1.9588668559249038	0.09729535138964823	-0.28977863624513567	0.3870739876347839	68.89820819517698
6	3.0	ltm	152	diff_vonmises	-0.21556457254686184	-12.350940219476835	1.3698994308953187	78.53147852075593	1.3454447246373447	79.2149633255399	0.06820897404403325	-0.18949942942893827	0.2577084034729715	71.01002248940773
7	3.0	perception	152	diff_vonmises	-0.03858205763263055	-2.210589067280235	4.114596388728589	2.5013965670512226	0.7741387212490292	2.9373490730651435	1.075596975636727	-0.4017964079019106	1.4773933835386375	59.86088553843081
8	3.0	wm	152	diff_vonmises	0.038853806929370266	2.2261591550690687	1.354314868778552	134.62274493895185	1.3347754233794034	135.2004397871407	0.24111948853722254	-0.2159723185769451	0.45709180711416764	75.62216639455221
9	4.0	ltm	152	diff_vonmises	-0.4210839083036317	-24.126330766671856	19.07475741728091	0.1965433044584087	1.2818434810324022e-34	1.8315211324478644	0.04864039089219324	-0.29149564160634356	0.3401360324985368	30.993789065890297
10	4.0	perception	152	diff_vonmises	-0.07034353082057454	-4.03038743206735	2.9332225025296346	2.3420836004098264	0.250103072844733	3.5107961814839492	0.8079239899963045	-0.478447995903243	1.2863719858995475	74.20249314414795
11	4.0	wm	152	diff_vonmises	-0.07904574956793023	-4.528987838690453	0.681314007928431	166.12133647557278	0.6688656663670206	167.8210536669794	-0.0799457721440433	-0.34773772081622667	0.26779194867218337	94.06968595427279
12	5.0	ltm	152	diff_vonmises	0.03728978912932629	2.136547536043213	1.0168405535803173	78.39243005698192	0.9832270619765472	79.52419964167328	0.11532613220469301	-0.2937799704126185	0.4091061026173115	83.51266106170374
13	5.0	perception	152	diff_vonmises	-0.0719804725557971	-4.124177284804424	1.008932296522062	252.30657493846644	0.9887421401824686	253.40147939794366	0.5919528191394079	-0.4574058681404054	1.0493586872798133	89.22167356400757
14	5.0	wm	152	diff_vonmises	0.06029866900062398	3.4548592439920833	1.1574444957739747	1.3515770093866488	4.804077163269627e-14	2.418560689547392	0.11683128560274292	-0.3353601304403424	0.4521914160430853	122.26919631067284
15	6.0	ltm	152	diff_vonmises	-0.451477381752491	-25.86774852003442	0.7037614083433011	165.40650247658945	0.6910438454367782	166.41047130007166	0.11692383431568487	-0.275944557947744	0.39286839226342885	101.36374483848111
16	6.0	perception	152	diff_vonmises	0.08294282240050807	4.752273664452256	0.6233956858425613	7.815158212892514	0.28522802894940236	8.77158486680278	0.29037085027560683	-0.4221062507777441	0.7124771010533509	128.55106668075334
17	6.0	wm	152	diff_vonmises	0.09039367342947083	5.179175982192529	0.4384228371133529	3.5620247976008677	5.96771769032097e-18	4.67214800935528	0.09450642505152107	-0.39486534854217537	0.48937177359369644	155.25952221098788
18	7.0	ltm	152	diff_vonmises	-0.16632259463563057	-9.529582710286858	1.059415861891108	142.5474908021836	1.0444761735872912	143.79734021919373	-0.03673254698764339	-0.2767930717419027	0.24006052475425932	75.94349062157869
19	7.0	perception	152	diff_vonmises	-0.07384503937212696	-4.231009094000269	1.1133920529471575	2.2123296912908508	0.09939326386951201	3.6098965130863787	0.1701516997973208	-0.43225030080742116	0.6024020006047419	116.79695782685938
20	7.0	wm	152	diff_vonmises	0.32614522502020243	18.68674490200214	0.6810893202397816	97.3753369445979	0.6638424081039972	98.58377306321019	-0.01590288510292126	-0.26412226220717905	0.2482193771042578	97.23273535525416
0	1.0	ltm	153	diff_vonmises	-0.4067644756251651	-23.30588770917401	0.0004473992840883176	1152.7906898532672	3.4970123402872524e-31	1155.9108905918936	-0.41450196939035777	-0.5786704111668257	0.16416844177646794	175.30081440250746
1	1.0	perception	153	diff_vonmises	-0.0828536305309451	-4.747163346759416	9.979943817656602	0.7525309968536503	0.07167983393275057	4.009402721751575	0.2512028139214222	-0.654409332338334	0.9056121462597562	42.17525126716956
2	1.0	wm	153	diff_vonmises	-0.05705733389392649	-3.269144422390731	2.9545794315335274	0.7695418809978634	0.1431866495931683	3.5926345241811113	-0.1568078734472655	-0.5428805577661526	0.38607268431888714	70.77891814158673
3	2.0	ltm	153	diff_vonmises	-0.036358811334104145	-2.0832064375565897	2.1817065933924304	0.44300286546750395	2.6993281853268923e-33	1.9458082782900854	-0.0688672754297624	-0.306618214743393	0.23775093931363062	93.04308185213188
4	2.0	perception	153	diff_vonmises	0.014137624805029392	0.8100262336676475	6.711498267372938	1.569866297265827	0.4641192319123189	3.137981463730456	0.8365440791463394	-0.543926229547796	1.3804703086941355	49.00489492384244
5	2.0	wm	153	diff_vonmises	0.32013691908088604	18.342494329655924	3.4091701390706457	0.5648191657798907	0.07057710024136425	1.8767623196410077	0.07743597889375103	-0.2875181995910437	0.3649541784847947	71.01476531780125
6	3.0	ltm	153	diff_vonmises	-0.20987431887722469	-12.024912699847796	1.1078579197558887	31.230841616006764	1.0488507121893946	32.17532668041506	0.014433265701489617	-0.22222162443121407	0.2366548901327037	77.29497775220133
7	3.0	perception	153	diff_vonmises	-0.057543972305884636	-3.2970267495448815	4.786829556781167	1.8222538703314373	0.43648524816990864	2.692119323175484	0.911238647103785	-0.41330103089495157	1.3245396779987366	57.96175667492108
8	3.0	wm	153	diff_vonmises	0.1970332801504812	11.28917537624135	1.0671739398963263	134.540955001518	1.0521255837626717	135.00614706431728	0.21724931173591244	-0.18017433190784793	0.39742364364376037	86.07073424892707
9	4.0	ltm	153	diff_vonmises	-0.5219298440162946	-29.904377264055064	0.8737308998544563	180.1862137528526	0.857729041748868	182.41440533601147	-0.15121243479706692	-0.4495803317770175	0.2983678969799506	80.60081936732772
10	4.0	perception	153	diff_vonmises	-0.028757098760241614	-1.6476603900027365	2.38192672353922	2.5071377643609556	0.35043484925493956	3.9799305365146656	0.5637114041347753	-0.4904712521239665	1.0541826562587417	78.12792207617613
11	4.0	wm	153	diff_vonmises	-0.1935903529479983	-11.091910178368298	0.6496044136416856	146.1038779431378	0.6351431486019107	148.40327858110766	-0.2245870974659212	-0.42739593572044754	0.20280883825452634	89.14025908623852
12	5.0	ltm	153	diff_vonmises	-0.19859434335367726	-11.378617709337659	0.9158295897151324	92.80724209071933	0.884311961294327	94.21987404661783	0.10540448575859074	-0.3518551765288098	0.45725966228740056	87.41069018135991
13	5.0	perception	153	diff_vonmises	-0.1129820349170582	-6.473393761547135	1.0862768487137389	203.10238116253151	1.0583877943314763	204.49790974626674	0.5715609773505719	-0.5115006368406902	1.0830616141912621	85.10233495809837
14	5.0	wm	153	diff_vonmises	-0.011745824285069296	-0.6729861584367383	1.0079373366850248	1.670722529417108	6.000782680208225e-16	2.5649892489934314	0.16517106806716997	-0.3318488888814037	0.49701995694857365	128.2566047020552
15	6.0	ltm	153	diff_vonmises	-0.44753006751820656	-25.641584073998008	0.7495435608188487	181.36054709913518	0.7375608908230109	182.49342839446672	0.08430846787089052	-0.2863268981897562	0.37063536606064673	96.64394519298855
16	6.0	perception	153	diff_vonmises	0.17692332445067968	10.136959788447669	0.2163925958145741	146.48664038591954	0.2001771563013242	147.8100392459453	0.15812372310524125	-0.5058162637619787	0.66393998686722	154.4563408964837
17	6.0	wm	153	diff_vonmises	0.24473811898401263	14.022461303754495	0.49878195312275164	2.541661544459623	1.2932940131946707e-17	3.899705812428259	0.005889338260258836	-0.3896015654405056	0.39549090370076445	151.16977484896478
18	7.0	ltm	153	diff_vonmises	-0.5144603660850062	-29.476407703426133	2.669960538067315	0.39916558146372977	1.111559660604225e-32	2.0599629244198003	-0.0834041430975444	-0.32668062656851854	0.24327648347097414	84.04732681258949
19	7.0	perception	153	diff_vonmises	-0.17197014337069044	-9.853163417400236	1.3223735226437607	2.223074140013587	0.09760687518071083	4.143548833838215	0.16726207394642167	-0.5333206118567134	0.7005826858031351	108.83333682172758
20	7.0	wm	153	diff_vonmises	0.36344830291242686	20.824053828074366	0.8363447957370705	76.90539180256327	0.8016100456971551	78.64740145553509	-0.019454440197293366	-0.3800806388316289	0.36062619863433554	87.73313536795308
0	1.0	ltm	154	diff_vonmises	-0.3044770672433589	-17.44525091156543	0.00026878293482801856	3080.493258568243	1.3140162457373037e-33	3082.817150201664	-0.23807621724620276	-0.5016237564254311	0.26354753917922835	177.35136216830455
1	1.0	perception	154	diff_vonmises	-0.047294059805001606	-2.7097500228659013	7.915605350727091	1.1737287331838784	0.127143240037128	3.6814444726063305	0.6324473273184926	-0.6028761253225248	1.2353234526410173	47.072629462094795
2	1.0	wm	154	diff_vonmises	-0.03265860542968776	-1.871200255904143	4.685936023114196	0.42667117721012304	0.03401540721937293	2.6413970059571668	-0.07744609158855004	-0.4169827897333105	0.33953669814476045	61.3458071408852
3	2.0	ltm	154	diff_vonmises	-0.06760595276939034	-3.873535763646846	3.110183763079735	0.3427614124895128	1.3911192742610824e-16	1.5617761180141996	-0.019422379702599274	-0.2481087301290662	0.22868635042646693	77.88633713000655
4	2.0	perception	154	diff_vonmises	-0.009634936590605417	-0.5520412025178572	6.899982719681199	1.547830754001002	0.32720620693329217	2.6240360981643627	1.025974030965504	-0.43844898070002014	1.4644230116655241	49.63204976480091
5	2.0	wm	154	diff_vonmises	0.2676422773941333	15.33477291395348	2.88109656100526	0.5792148781564368	0.002262599727642066	1.7659179295709893	0.0889776099040655	-0.27925345094300846	0.36823106084707397	80.80825601092403
6	3.0	ltm	154	diff_vonmises	-0.1263857392838471	-7.241369451605211	1.4763861636576472	1.163973754502578	0.5651812453693309	1.7482262577741299	0.04660270666687777	-0.14495317868122343	0.1915558853481012	83.61347797245247
7	3.0	perception	154	diff_vonmises	-0.05778702562736764	-3.310952679062494	3.742845476213757	2.1139873451129385	0.46906562599066465	2.383252440633022	0.9928266017610338	-0.3230574353361625	1.3158840370971963	65.25473380756742
8	3.0	wm	154	diff_vonmises	0.046934929109325854	2.6891733497100834	1.069565883440429	123.83051399164215	1.0552499011241794	124.08331893867344	0.24429343688690608	-0.14360511649619312	0.3878985533830992	88.1004850168516
9	4.0	ltm	154	diff_vonmises	-0.2801408341593621	-16.050887466605772	5.844877265635198	0.3878699161973066	0.1693022947818637	2.048767804363922	-0.018134862633506055	-0.335511401592026	0.31737653895851997	52.48697367807
10	4.0	perception	154	diff_vonmises	-0.07364560897068	-4.219582573690759	3.2349790659922015	1.7816190670184266	6.955587235849161e-18	2.689080665735314	0.7898049033143177	-0.4260936872333068	1.2158985905476245	76.33653872691156
11	4.0	wm	154	diff_vonmises	-0.3804646006674506	-21.79901587237516	0.854577652075439	186.70190071098932	0.8405482637380495	188.47515561299016	-0.052330313171175646	-0.3769983579667091	0.32466804479553346	84.90215596367587
12	5.0	ltm	154	diff_vonmises	-0.18600236328778824	-10.657150395849353	0.8217801224876641	108.52251277096295	0.8052076003316124	109.2928187805712	0.10874289330767795	-0.21296674806203875	0.3217096413697167	94.15738488533889
13	5.0	perception	154	diff_vonmises	-0.11481371298711504	-6.5783411843880595	2.827169122930641	2.03296606940258	0.13192828959933195	2.540680887353907	0.827521517052388	-0.3584039482054291	1.185925465257817	78.4658563131955
14	5.0	wm	154	diff_vonmises	-0.038841020686208816	-2.2254265573000898	0.3994243553851712	114.84945848125139	0.3851962252900026	115.4875622452738	0.15538345610252335	-0.2682554165242408	0.42363887262676414	134.21911398342556
15	6.0	ltm	154	diff_vonmises	-0.42899853277599304	-24.579805345369117	0.4483107688026144	106.65401080900399	0.43749632877524525	107.21225077210491	0.08220005904244587	-0.19130099387366606	0.27350105291611193	126.43498130199454
16	6.0	perception	154	diff_vonmises	0.19145151260186907	10.969363653482793	0.0003132710082210536	6062.570143253676	3.1902085128992486e-30	6062.990342363954	0.23541830054284674	-0.3691244850986095	0.6045427856414562	178.73669583210463
17	6.0	wm	154	diff_vonmises	0.213358445137917	12.224538429876164	0.0004418059093026676	2361.013656732146	1.1597629402336215e-23	2361.6909833418777	0.05823325913843291	-0.2737963428766079	0.33202960201504084	178.45629365173252
18	7.0	ltm	154	diff_vonmises	-0.6020347377216646	-34.49404959171684	0.21787652752220932	4.0319598376147106	7.300387690552912e-10	4.809293352180205	0.02310422264946832	-0.2554130636932186	0.2785172863426869	159.50261713598564
19	7.0	perception	154	diff_vonmises	-0.112636702013542	-6.453607643648659	0.7932283692777709	173.41102992573136	0.7730857701007714	174.39727261665405	0.37260968383677096	-0.3746093569691169	0.7472190408058879	99.72576265530355
20	7.0	wm	154	diff_vonmises	0.13815382571162327	7.91563113686197	1.191824799453402	1.586356050957915	0.22148582651491647	2.5021360298050475	0.10812813158844048	-0.2601144091102218	0.3682425406986623	105.67430952094554
0	1.0	ltm	155	diff_vonmises	-0.8943145008071466	-51.24044645359855	0.00026306549934532815	2071.812178746743	1.723068275074062e-21	2073.4523599594763	-0.17429501333731423	-0.3477794726660477	0.17348445932873346	158.43752683338417
1	1.0	perception	155	diff_vonmises	-0.1335418266399799	-7.6513830549385515	17.29701564414457	0.6271492676918797	0.13940091802560892	2.490229587075257	0.5790941549287731	-0.4295954870495437	1.008689641978317	32.13131116369439
2	1.0	wm	155	diff_vonmises	-0.14709766723461631	-8.42807550876333	3.574234783994363	0.4084343850288987	0.07956151767669699	1.6810758414973523	0.005898912334437234	-0.2592240444753522	0.2651229568097894	68.57469450920624
3	2.0	ltm	155	diff_vonmises	-0.10037358447538908	-5.750982765039636	20.982077188150086	0.2626924339192413	3.1736919498787105e-24	1.252079311938325	0.27775302896015264	-0.19927461163808358	0.4770276405982362	29.544403131581305
4	2.0	perception	155	diff_vonmises	-0.006280640123516252	-0.35985417171800527	7.677769054574974	1.341392466633399	0.502168975303761	2.5264373561603986	0.8324327883970238	-0.45439061064677694	1.2868233990438007	46.125797468966
5	2.0	wm	155	diff_vonmises	0.3520722793870353	20.172255692427893	4.058895219807563	0.3419919328978282	3.1689184004554628e-15	1.256676655111576	0.06503637839143739	-0.19992726640249256	0.26496364479393	67.94409817720884
6	3.0	ltm	155	diff_vonmises	-0.16816477667573002	-9.635131966279356	1.8292708599455203	52.041604744433506	1.7778781650525257	52.690073526258935	0.1255642787106801	-0.22354539332818302	0.3491096720388631	62.512459161964586
7	3.0	perception	155	diff_vonmises	-0.05338186767180684	-3.0585557201203817	4.021548233886796	2.5824587731748814	0.800960802233292	3.3454003328828987	0.9749424151949126	-0.46099097963892	1.4359333948338326	59.53094311228455
8	3.0	wm	155	diff_vonmises	0.20097400061237264	11.514962026948574	1.5580403030001855	109.03853686564331	1.5378314892541143	109.32165285455088	0.25704268674006414	-0.15385750686997568	0.4109001936100398	72.30982795744615
9	4.0	ltm	155	diff_vonmises	-0.42174183098414797	-24.16402695951137	9.461615140749533	0.37846686817767944	0.3448262232377608	1.7787437802123736	0.06991696005663922	-0.32781227024447757	0.3977292303011168	41.124045191151026
10	4.0	perception	155	diff_vonmises	-0.12423856223854567	-7.118345269042067	1.6173041634749594	6.837816361800565	0.8059317578425833	8.343257188220731	0.5575549142100371	-0.5245174626516055	1.0820723768616425	80.13367025747601
11	4.0	wm	155	diff_vonmises	-0.4880357401149563	-27.962388160130484	1.0399407920931016	123.4338311928876	1.025313436889713	124.73869116252847	-0.11159678917869087	-0.26997959981838804	0.15838281063969717	72.09890373668073
12	5.0	ltm	155	diff_vonmises	-0.10271508155305431	-5.885140665332069	1.3994132674403252	137.46353253209378	1.377476302952232	138.26012211702167	0.21164339733101656	-0.26187690778324324	0.4735203051142598	72.90350085335947
13	5.0	perception	155	diff_vonmises	-0.09521551745897344	-5.455447294553383	1.0982547835111076	32.050496481767865	0.9537578091892585	33.07131129216884	0.5338304443941322	-0.417703476032659	0.9515339204267912	87.92096928662465
14	5.0	wm	155	diff_vonmises	-0.04389264522431181	-2.5148633230181154	1.7920846534073251	0.9031876182485853	4.606653007462708e-16	1.4138311982128113	0.21087383922301675	-0.21291642845127695	0.42379026767429373	102.12524587699708
15	6.0	ltm	155	diff_vonmises	-0.37382290685156844	-21.418474847906975	0.9012409281058729	74.41536101038544	0.8720527374466279	75.34907433552894	0.11755177360552693	-0.25016527089150387	0.3677170444970308	89.63255446491316
16	6.0	perception	155	diff_vonmises	0.08916573022819164	5.108820019277448	1.4426123435347655	1.3295084176662921	3.447195405883918e-13	2.3968180008760025	0.1809874129258809	-0.35005664168393663	0.5310440546098175	112.23660520526863
17	6.0	wm	155	diff_vonmises	0.290091745349843	16.62103268012983	0.00034766745914105007	2189.9050533671852	1.177270824433343e-30	2190.8724089130133	-0.032777532818897726	-0.27512023858719203	0.2423427057682943	177.29362633037022
18	7.0	ltm	155	diff_vonmises	-0.023078657183222242	-1.322309653427915	1.3910846616310042	218.20718922147213	1.376084674343197	219.5857585672202	0.019126769550084077	-0.35318598835382176	0.37231275790390583	67.83933516481764
19	7.0	perception	155	diff_vonmises	-0.42644962748196247	-24.433763829642615	0.7752595611677444	224.9457432459036	0.7605594312590451	226.38939307039885	0.2039090726140813	-0.4034430498337116	0.6073521224477929	97.04112243377412
20	7.0	wm	155	diff_vonmises	0.7309757896187479	41.881827671397026	13.259737873449383	0.35098767181503576	0.28074841458255806	1.2761533147084523	0.2411730845023713	-0.23416499832720591	0.47533808282957724	36.02662535531536
0	1.0	ltm	156	diff_vonmises	0.015502487268921953	0.8882270924645179	5.043837751951606	0.5693611946768138	0.04657083267701749	3.806917408433514	-0.13841868355176878	-0.6030986211392746	0.4646799375875058	58.651818872634635
1	1.0	perception	156	diff_vonmises	-0.0876637109982126	-5.022760656652159	12.768502243016483	0.6485699263531295	0.0025120660190974323	3.7981363967518122	0.3091603403676034	-0.604826393333437	0.9139867337010404	37.901213383689935
2	1.0	wm	156	diff_vonmises	-0.2059533167519403	-11.800255826607176	4.065324524006263	0.7041893801486694	0.13343795717522666	3.8831587541386416	-0.1569012051458537	-0.6107953544275828	0.4538941492817291	61.9304809538539
3	2.0	ltm	156	diff_vonmises	0.009531401180158943	0.5461090604691194	2.289331654544887	0.7973535540517912	0.021650545890384933	2.805450521063254	-0.010163484591154515	-0.4323062761537075	0.42214279156255297	88.75470391379397
4	2.0	perception	156	diff_vonmises	0.01835569234410979	1.0517037013580877	5.066159915521828	1.6917525735286616	0.3576299831557869	3.543563667723727	0.6960195183445749	-0.5656333070779567	1.2616528254225314	56.12735625874305
5	2.0	wm	156	diff_vonmises	0.09732346543621236	5.576223817082312	2.4556851815845544	1.1670556646647552	0.24697221601112473	3.03026359915235	0.07249497627672308	-0.4177473792672	0.4902423555439231	75.9948840567175
6	3.0	ltm	156	diff_vonmises	-0.1475863365672211	-8.456074199099058	0.9033217621280093	233.7985596450215	0.8856887546070978	235.96184719650358	0.09309060166252436	-0.5146926318899538	0.6077832335524782	86.5067589129647
7	3.0	perception	156	diff_vonmises	-0.04698766237926038	-2.692194743517256	2.7601553173075266	3.688734712606611	0.44789821544166875	5.72769908651414	0.9453328488727941	-0.7218856318800939	1.667218480752888	72.08586014448346
8	3.0	wm	156	diff_vonmises	0.06824790994777359	3.9103172005963334	1.5915935215208743	1.5913867984118049	1.2483349049632361e-15	3.2878784324750874	0.19128290225383426	-0.49366088967515354	0.6849437919289878	107.66453201473945
9	4.0	ltm	156	diff_vonmises	-0.25126819740253925	-14.396607237025533	0.5115571864589653	152.74437494378563	0.4913743206956872	155.79217131054574	-0.17079678580434887	-0.6306722737507489	0.4598754879464	109.34323343357535
10	4.0	perception	156	diff_vonmises	-0.07643329719954225	-4.379305343802866	0.8507261492246616	632.2943715778894	0.8393127621201576	634.8289544199899	0.5885360681942586	-0.7886038174876191	1.3771398856818777	94.10918307678139
11	4.0	wm	156	diff_vonmises	-0.24910303561057537	-14.272552604383021	0.5741843589275647	137.23381966446067	0.5517692128770365	140.3075856603616	-0.20837792811061462	-0.6080769808924451	0.3996990527818305	101.0025776491002
12	5.0	ltm	156	diff_vonmises	-0.15279198224445067	-8.754335726044834	0.7360208314871883	62.49791692022628	0.6893252551417792	63.56510645246215	0.25499770669845034	-0.3515986774441888	0.6065963841426392	102.89468806817283
13	5.0	perception	156	diff_vonmises	-0.07850979322857649	-4.498279802442202	0.9675285847851767	413.836679579587	0.9537043169238385	415.0374097975306	0.6857809708456841	-0.5198791168348293	1.2056600876805135	91.20413688146652
14	5.0	wm	156	diff_vonmises	-0.0676232623604299	-3.8745275301585105	0.37874683829212635	185.8667332247012	0.3663917797173587	187.00354128327777	0.16622990310860786	-0.4091586061627446	0.5753885092713524	135.43736930305374
15	6.0	ltm	156	diff_vonmises	-0.44706344196127423	-25.614848398972843	0.7294524514083547	182.491883472171	0.7178756538300223	183.627045504805	0.07613857610144947	-0.28463201862481924	0.3607705947262687	97.75427853856363
16	6.0	perception	156	diff_vonmises	-0.1299192227177125	-7.443823139345091	0.4558245449133181	247.31163003808012	0.4448107008903016	248.44769419715757	0.23613793286746443	-0.4309282003444217	0.6670661332118861	127.36738876320076
17	6.0	wm	156	diff_vonmises	0.1146278774255417	6.5676935910264636	0.30723657220492034	4.336497458547085	1.7734414658228762e-19	5.505638551615845	0.04038804153129727	-0.3804079642476043	0.4207960057789016	162.24790393521488
18	7.0	ltm	156	diff_vonmises	-0.39040626202559575	-22.368631109545177	0.9612697327374855	44.57988871102427	0.8937279070081872	46.36612298683765	-0.0017595435243364932	-0.40008364261066287	0.3983240990863264	82.7966705939432
19	7.0	perception	156	diff_vonmises	0.015289471163099668	0.876022168632589	0.46201758584277713	318.31541089000837	0.4493759998021233	320.6017500750388	0.2039129650744087	-0.6923182013166453	0.896231166391054	124.62029662929247
20	7.0	wm	156	diff_vonmises	0.1251169657097126	7.168674080649574	1.0601545372612426	198.28522935419565	1.0435926089258687	200.4051202040611	-0.12366810611108292	-0.45400115756310555	0.33033305145202263	73.91166224229343
0	1.0	ltm	157	diff_vonmises	-0.1125131633111352	-6.446529397394226	3.0900666967116894	0.4853326077827457	4.851886329678662e-25	2.7849922484957075	-0.12001127487863406	-0.4425760137950303	0.32256473891639625	78.15009747529172
1	1.0	perception	157	diff_vonmises	-0.09472334317509414	-5.4272477853022245	12.317290418626047	0.7723959230455796	0.04025853098205345	3.1575420614372205	0.5467130467469493	-0.5103699136586831	1.0570829604056324	38.37038627620029
2	1.0	wm	157	diff_vonmises	-0.1871926586562152	-10.725349296834187	5.163244812808589	0.4684158261641989	0.08688435521398313	2.6643140888870795	-0.048494263747259514	-0.42404357621745753	0.375549312470198	57.10146507360773
3	2.0	ltm	157	diff_vonmises	-0.05211939138677744	-2.986221157252842	2.765012326974005	0.6766791391349781	0.04780740186966823	2.210627627879888	0.05407506213133939	-0.33668618636521225	0.39076124849655164	79.41340120652842
4	2.0	perception	157	diff_vonmises	-0.0003873722183773517	-0.02219479321364232	5.381157649873395	1.6197427611785284	0.339088873841874	3.0856926470891937	0.790510190958814	-0.49461332986772305	1.285123520826537	55.14997484939198
5	2.0	wm	157	diff_vonmises	0.1281631921959181	7.3432100017501165	2.512636629455551	0.7867838168838706	0.10960468747057385	2.2746772763153333	0.062303250920715925	-0.33172058494478535	0.39402383586550127	80.15284174318299
6	3.0	ltm	157	diff_vonmises	-0.1346655514091217	-7.715767741544689	1.00624615790693	183.55752313238722	0.9880836720463331	185.0167018279336	0.13549028244747063	-0.3742718424081204	0.509762124855591	83.381939961538
7	3.0	perception	157	diff_vonmises	-0.050702992880379626	-2.905067500727614	2.670812105638555	3.812734638869882	0.5514376857887112	5.1813051692472625	1.0071351682340945	-0.6037606271798728	1.6108957954139673	72.32043766256461
8	3.0	wm	157	diff_vonmises	0.01775469737430564	1.0172692260797176	0.7573084012930178	156.0745187958825	0.7391327029819011	157.14658133361382	0.22845532062017782	-0.3351131069870821	0.5635684276072599	99.89264314442619
9	4.0	ltm	157	diff_vonmises	-0.27464745268262786	-15.736139892733556	4.845791642957105	0.4793267829421212	0.011743385620641731	2.731482746849981	-0.03112144283105911	-0.4324872167699281	0.40136577393886896	61.38811549363632
10	4.0	perception	157	diff_vonmises	-0.1199329077859062	-6.871649440864116	0.9047038294515389	391.7912238640853	0.8873642680065256	393.75592725409035	0.6647848196990651	-0.6861072132149388	1.350892032914004	92.67678084072531
11	4.0	wm	157	diff_vonmises	-0.4072319056904071	-23.3326694791299	0.7940218332681619	252.10256496523039	0.781903637260365	254.3565184657017	-0.09319675408924866	-0.46740963947453196	0.3742128853852833	87.22679737669719
12	5.0	ltm	157	diff_vonmises	-0.13957412872317546	-7.997008505053631	0.8414953759788338	136.63278759217704	0.8240086455006954	137.31430885509386	0.24602856284347752	-0.24881609473439248	0.49484465757787	96.4733827094462
13	5.0	perception	157	diff_vonmises	-0.08847731048648473	-5.069376473544156	1.4862385332080363	5.597889697055728	0.5904164072764281	6.286003820976444	0.753355570874638	-0.4248332771930734	1.1781888480677114	90.14755117772762
14	5.0	wm	157	diff_vonmises	-0.08328991162736107	-4.772160412265392	0.43853846347246517	134.56085971130653	0.42404402186659623	135.32745584179855	0.18180405484191908	-0.30957113920094237	0.49137519404286145	129.82086895409475
15	6.0	ltm	157	diff_vonmises	-0.40994534840583835	-23.488138294674627	0.6582379248932632	110.94089851974375	0.6446627941776403	111.68968021987725	0.08106709488240682	-0.20692481234569193	0.28799190722809875	104.80717706097099
16	6.0	perception	157	diff_vonmises	-0.0696313840468557	-3.9895844275394023	0.3180482195721005	171.07548261754363	0.30641863018153304	171.75221201533432	0.21423980248408725	-0.3385147331549838	0.5527545356390711	143.62608448284243
17	6.0	wm	157	diff_vonmises	0.10617469987203984	6.083362193736084	0.0003929800600608068	2513.8488723201617	4.438420453604291e-30	2514.6116151853594	0.03584895262315513	-0.27860665363408543	0.31445560625724056	179.54040201624028
18	7.0	ltm	157	diff_vonmises	-0.29940343821496834	-17.154553381423593	0.9540549995901751	98.79507411161384	0.9286970586057763	100.0037431723464	0.07935909704971067	-0.29770643985884426	0.37706553690855493	85.06296973409549
19	7.0	perception	157	diff_vonmises	-0.11007591103052182	-6.306885128106445	0.6389626094122122	279.0675805204446	0.6249909115337206	280.594512449816	0.3273294190966425	-0.5087489462418695	0.836078365338512	109.04588509397234
20	7.0	wm	157	diff_vonmises	0.20462598858215914	11.724205524449891	1.0691419581698085	155.41599323617464	1.053169965145019	156.73545736880337	0.002681719372446878	-0.3042872392930427	0.30696895866548957	77.322633453918
0	1.0	ltm	158	diff_vonmises	0.030036191889196113	1.7209470278960122	5.81491129233787	0.40276712392395786	3.1292989414845873e-18	3.7098161107079073	-0.2121180661573664	-0.5904322057140521	0.3783141395566857	56.5269115135589
1	1.0	perception	158	diff_vonmises	-0.09626480029178477	-5.515566772389003	11.352370069039015	0.6580180338574592	0.05247546648508583	3.913688269454713	0.2179875760553075	-0.6359996420753677	0.8539872181306752	39.73488123492004
2	1.0	wm	158	diff_vonmises	-0.1249342976767021	-7.158207973306117	2.802603720785242	0.9159901741533885	0.1488614600835593	3.961754390425808	-0.15073454074416137	-0.5921028571622511	0.4413683164180897	72.45197951031054
3	2.0	ltm	158	diff_vonmises	0.032079058810805826	1.8379946806111314	2.0061375204602863	0.6465874409798336	3.892127780051204e-20	2.4475405369954437	-0.055357549610797474	-0.383492019238789	0.32813446962799153	96.87647954351843
4	2.0	perception	158	diff_vonmises	0.021208959545797584	1.215183869837901	5.758069234438795	1.542854279492755	0.4061992515338571	3.212050713194196	0.7050740246041296	-0.5320758009142968	1.2371498255184266	52.69621246902517
5	2.0	wm	158	diff_vonmises	0.2461933192040082	14.10583813470675	3.023489671943363	0.7803373952022421	0.1524816344880608	2.2429090337859883	0.09999697299967697	-0.331100373304411	0.43109734630408797	72.53669809993966
6	3.0	ltm	158	diff_vonmises	-0.2217389228060589	-12.704704430564332	1.3328823539519234	3.9552843547140606	0.6869255432477018	5.482019031196929	0.049351074457260724	-0.35813766859892804	0.40748874305618876	81.60059081240999
7	3.0	perception	158	diff_vonmises	-0.06162983391825164	-3.5311293756080286	3.901000002794813	2.234596780997293	0.3152030257832844	3.692992901455048	0.9085876270473013	-0.5412454443034281	1.4498330713507295	64.25599713912436
8	3.0	wm	158	diff_vonmises	0.16043593168608894	9.192301767862089	1.532890728195985	1.6816637355712456	0.19674390412003176	2.5668185451009746	0.24548484522018027	-0.2989944584733152	0.5444793036934954	98.54043547414554
9	4.0	ltm	158	diff_vonmises	-0.3070818802313755	-17.594495702199644	0.6175194029974895	147.92267106722153	0.5986057678521651	150.42728987326825	-0.13453543287979386	-0.5081715897262704	0.37363615684647655	98.71526021834886
10	4.0	perception	158	diff_vonmises	-0.04265679400072805	-2.444054263800687	0.9714303973920765	349.2474290723169	0.952911599862749	351.2784174485391	0.5512280936391392	-0.6497367559483322	1.2009648495874714	88.53253399941329
11	4.0	wm	158	diff_vonmises	-0.20906198398086576	-11.978369338735233	0.6178944894140497	178.36170648289647	0.603923319471916	180.8219590866875	-0.1830293299020056	-0.4776188155785306	0.294589485676525	95.68062134705856
12	5.0	ltm	158	diff_vonmises	-0.20209506527077298	-11.579194300436189	1.072574276275551	5.0276869829608195	0.5298955620166652	6.40912413288897	0.1695051977075792	-0.37290378857419887	0.542408986281778	95.38926677498137
13	5.0	perception	158	diff_vonmises	-0.07972179342957628	-4.567722298728498	0.9874537860703079	392.70555296193766	0.9730355695412537	394.2030400260916	0.5687482506240258	-0.5379618073250398	1.1067100579490656	88.88696562149724
14	5.0	wm	158	diff_vonmises	-0.07913067426990851	-4.533853665690215	0.40099133635773165	178.45882945004533	0.38844295359720765	179.49518917861033	0.17601953893590405	-0.38356700162958646	0.5595865405654905	133.16427308255658
15	6.0	ltm	158	diff_vonmises	-0.45130742542958635	-25.858010740030423	0.7518159474416138	241.86206414608623	0.7408093365578071	243.31121459313718	0.08450764244609843	-0.35627548324230673	0.44078312568840516	95.82580823377118
16	6.0	perception	158	diff_vonmises	-0.02928120278572932	-1.677689338688999	0.5735767862222267	252.2008447490812	0.560214182342343	253.74927240753064	0.23603438529204368	-0.4882009460400454	0.7242353313320891	114.02385219930966
17	6.0	wm	158	diff_vonmises	0.17156274143151481	9.829821005720026	0.6287133437990053	2.282962423341257	7.045995252403854e-19	3.7996792926535563	0.013938366010071257	-0.42879462464993	0.44273299066000127	145.1393425235894
18	7.0	ltm	158	diff_vonmises	-0.36982619353410456	-21.189480042892566	1.3080727445464402	2.745142715288616	0.5063753713211657	4.776237352567035	-0.08905562938285172	-0.41870417244863506	0.32964854306578334	82.88015941143387
19	7.0	perception	158	diff_vonmises	-0.10028276037532473	-5.7457789274278745	0.47656032220021527	267.0628298698204	0.4621884647492245	269.4129882206218	0.15043826759222156	-0.6679989736918408	0.8184372412840624	122.19784414368046
20	7.0	wm	158	diff_vonmises	0.34159624984037057	19.572023413349655	0.9352893586072688	165.3432215758141	0.9163896178973181	167.3669643388195	-0.06509844458108205	-0.43395347286783803	0.368855028286756	80.90984732275103
0	1.0	ltm	159	diff_vonmises	-0.39371542885381877	-22.558232402507052	1.2389358875144953	0.7802958669424505	8.41116596082536e-16	2.8273120615015346	-0.1485571279851256	-0.42468286744480027	0.27612573945967467	118.44240473231888
1	1.0	perception	159	diff_vonmises	-0.06224713280363079	-3.566497996438384	10.283254830271812	0.8996964258696006	4.029218816191097e-16	3.1681983569697123	0.6317612290883678	-0.5042344278777823	1.1359956569661502	42.3274001991212
2	1.0	wm	159	diff_vonmises	-0.1433303266315685	-8.21222279222042	6.3625347148886835	0.38174962547991903	0.07049481135952118	2.4822440190093893	-0.04744108434630673	-0.39863078461654355	0.3511897002702368	52.02800017377197
3	2.0	ltm	159	diff_vonmises	-0.044503632867934906	-2.549870336332362	1.8959149879641997	1.070087117417638	0.36402372853285125	2.173830878869997	0.05262854508470288	-0.25660616898131305	0.30923471406601594	80.91502259247267
4	2.0	perception	159	diff_vonmises	0.009772022762022388	0.5598956615696564	5.650688554533212	1.7878188609887349	0.4305318996026449	2.7399777350083987	1.0132630845626027	-0.44260496405712363	1.4558680486197264	53.839222554131425
5	2.0	wm	159	diff_vonmises	0.02797663167551924	1.6029429199992653	1.7960664831822426	1.4330923188246603	0.36267455983829244	2.7008863339607148	0.09463118612746124	-0.3067360787435799	0.40136726487104113	83.39934031388168
6	3.0	ltm	159	diff_vonmises	-0.12413918828728379	-7.112651561041224	1.19515913561069	148.9596337045072	1.1788785457728137	149.9022476349438	0.09513402334445686	-0.2511204774563005	0.34625450080075737	76.26896216802362
7	3.0	perception	159	diff_vonmises	-0.019645976155697745	-1.1256315181361307	3.4695858368395394	2.9577025216791943	0.6212193346927856	3.5350014137676764	1.149576657289544	-0.4523857329177219	1.601962390207266	65.45898725785585
8	3.0	wm	159	diff_vonmises	0.023978370770114447	1.3738594447274153	0.9505848523541824	181.54857686052097	0.936117798497982	182.3471371351177	0.23577916189728398	-0.2631816135928844	0.4989607754901684	89.75399094694316
9	4.0	ltm	159	diff_vonmises	-0.441028620458998	-25.269078596777618	2.5497410950298116	0.6777966433458521	0.095443712641493	2.5190371853570506	-0.03596557681964091	-0.37402748273588743	0.3380619059162465	79.05558444803746
10	4.0	perception	159	diff_vonmises	-0.06465191404771155	-3.7042818123764305	2.270277348235799	2.995617238768373	0.19257766537748172	4.165150483248022	0.8712765140730876	-0.5413824830192572	1.4126589970923447	84.69603427818694
11	4.0	wm	159	diff_vonmises	-0.23703352074552458	-13.581020341845202	0.7066314639493935	212.05137544924017	0.6929275761942914	214.0993193925493	-0.026148046629273836	-0.44646089200601224	0.4203128453767384	95.22311782668494
12	5.0	ltm	159	diff_vonmises	-0.04458615157867265	-2.5545983101884953	0.9779627175424058	67.91087319848516	0.9477739878222229	68.44081150866502	0.21311228197139442	-0.19535916209739757	0.408471444068792	89.91621514163234
13	5.0	perception	159	diff_vonmises	-0.10059857260497913	-5.763873635305688	1.429713478912547	6.658463506127842	0.7160702498073633	6.916601033729774	0.8122808350344399	-0.3519041246062786	1.1641849596407186	89.99586705555828
14	5.0	wm	159	diff_vonmises	0.13244269046546744	7.588407191028833	0.35012843973210833	150.04865744091026	0.3383174298384636	150.7143996182868	0.1764186726407928	-0.3004718421098964	0.4768905147506892	139.58173385761904
15	6.0	ltm	159	diff_vonmises	-0.48549962185924667	-27.81707928773224	0.6061594167796527	107.52071659745955	0.5957579830406823	107.84953172699161	0.12463802266897517	-0.141487158965532	0.26612518163450716	113.80508625982753
16	6.0	perception	159	diff_vonmises	-0.050628178778375145	-2.9007809684346957	0.26598023387596437	151.12041201801034	0.25357696307038646	151.35897362715124	0.2832223178273736	-0.2843725235678889	0.5675948413952625	150.51794678013636
17	6.0	wm	159	diff_vonmises	0.08424242983513563	4.826735685480239	0.0011893301532846473	1062.2175488336902	1.2161335050790967e-22	1062.6434998002103	0.13333143123242053	-0.26879627090548297	0.4021277021379035	179.6364400153289
18	7.0	ltm	159	diff_vonmises	-0.23531105003749508	-13.4823300399402	0.9392817220642306	25.803008968228514	0.8741656573760699	26.68814596049573	0.038561213823708584	-0.21086840662324935	0.24942962044695793	85.92420620170365
19	7.0	perception	159	diff_vonmises	-0.04441526040757894	-2.544806967328778	0.7599989537517227	228.75499762671802	0.7439511279851111	229.8032294190427	0.3937125687066043	-0.4033146881147047	0.797027256821309	101.79295455821514
20	7.0	wm	159	diff_vonmises	0.1463836871321856	8.387167462237732	0.800920700673171	119.9784898988718	0.7863966094574091	121.07820845403647	0.0017060924573399916	-0.24476962870775587	0.24647572116509586	89.99715126282192
0	1.0	ltm	160	diff_vonmises	-0.1714223832612989	-9.821779074946477	0.00024022851818557506	4607.91030777679	5.437824198408562e-29	4609.6073563780055	-0.09390714878145445	-0.4462590373838111	0.35235188860235667	179.14690038114907
1	1.0	perception	160	diff_vonmises	-0.11446635777259451	-6.558439196604172	9.44401840097043	1.003711911831551	0.2620173357239458	2.809227168031967	0.6418785959266081	-0.49066549951192895	1.132544095438537	42.59657939431489
2	1.0	wm	160	diff_vonmises	-0.022004269040898323	-1.2607517473138536	2.0239588914804925	1.0680863846357214	0.2368233078196581	2.39165607803556	0.07931246631738126	-0.30967505143175744	0.3889875177491387	83.26564883537651
3	2.0	ltm	160	diff_vonmises	0.004476107348315223	0.2564620597059566	3.7158712077723237	0.36699279035036997	1.166366227509297e-14	1.4125838911950337	0.04615796562352725	-0.2246592361295541	0.2708172017530813	71.10160881777796
4	2.0	perception	160	diff_vonmises	-0.007731578155614355	-0.4429867972922438	6.109796728471888	1.333653445882994	0.34984058399546736	2.2128591589460305	0.8008296315098552	-0.36202292329712676	1.162852554806982	52.35944222822374
5	2.0	wm	160	diff_vonmises	0.5409905704797242	30.9964764448629	3.6087131143765188	0.5462541566282023	1.2007419946268754e-18	1.1126686641014478	0.2197995285754909	-0.17679552710113078	0.3965950556766217	72.14533918962329
6	3.0	ltm	160	diff_vonmises	-0.21686153285796672	-12.425250571499118	2.8889076329035106	0.46688997768855306	0.17349038532272526	1.0224652377686678	0.10713126316919824	-0.14666157271364091	0.2537928358828392	74.64357572060615
7	3.0	perception	160	diff_vonmises	-0.09676928218932179	-5.544471455958625	3.827750076324519	1.7279586952441852	0.13272497318816254	2.208092842762083	0.8972178526121117	-0.32766519267330696	1.2248830452854187	67.89911128381584
8	3.0	wm	160	diff_vonmises	0.17397017639352108	9.967756868495224	0.7754510846961467	93.97589654738795	0.7613070108822609	93.74969962126147	0.3208262571444891	-0.10095228066088335	0.42177853780537244	109.91366462415235
9	4.0	ltm	160	diff_vonmises	-0.24358444579697186	-13.956360699199651	7.254006676900244	0.44833704993975226	0.27427501608716554	1.5357317437088285	0.1572414526163446	-0.26277604839817953	0.4200175010145241	47.538623248499306
10	4.0	perception	160	diff_vonmises	-0.10542157826068907	-6.040211503945594	2.260198570622815	2.4729591215800086	0.25941356125399545	3.614372716448407	0.6397807509790658	-0.4519302051658922	1.091710956144958	82.7354648193041
11	4.0	wm	160	diff_vonmises	-0.5615545450020909	-32.17470539500906	1.2013912212001439	135.79898355850986	1.1848489929010535	136.75004397805924	0.057461980621454245	-0.24232622023603057	0.2997882008574848	74.92624358115526
12	5.0	ltm	160	diff_vonmises	-0.39083680875342014	-22.393299619932684	0.9686626318053044	145.67484971629176	0.9551427673875568	146.3413061284702	0.15162034863410412	-0.202473926545375	0.3540942751794791	87.9042291692632
13	5.0	perception	160	diff_vonmises	-0.08911146461394527	-5.105710828608446	2.689794961470703	1.810044956423252	0.06816551978601008	2.4727909195518367	0.6925157612544954	-0.3634718456062086	1.055987606860704	81.67853099998223
14	5.0	wm	160	diff_vonmises	-0.2530412600282891	-14.498196242293382	0.44957659810371586	132.12337643743362	0.43753772831471655	132.33197224918507	0.24534712063070074	-0.20870158340501455	0.4540487040357153	131.06024413285343
15	6.0	ltm	160	diff_vonmises	-0.38945539718780126	-22.314150567452163	1.2954249482623241	1.0865293467185426	1.538792870009431e-19	2.0747105688077796	0.10074476227247792	-0.29789712305369265	0.39864188532617056	116.50675636001236
16	6.0	perception	160	diff_vonmises	0.21335174332971457	12.224154444551058	0.33555868865393407	169.38537401006752	0.3222870818907508	170.19614017679322	0.2318390096290699	-0.38245151090333707	0.614290520532407	141.08879688853938
17	6.0	wm	160	diff_vonmises	0.4360716548025059	24.985065385469326	0.0001794164819627697	4105.796437760277	2.959409908118694e-28	4106.657624370348	-0.01981575216939291	-0.2542979421742757	0.2344821900048828	174.1960545487845
18	7.0	ltm	160	diff_vonmises	-0.17272294617094885	-9.896295840660672	0.7119365935191121	108.51669960227738	0.690944722587088	109.69786345888716	0.100139198390373	-0.30721608178326854	0.40735528017364153	100.03618840562953
19	7.0	perception	160	diff_vonmises	-0.28408376351493153	-16.27680067759814	0.7072591624003263	165.73046913529052	0.6831731941984056	166.8558701506209	0.4440228374114241	-0.45813707857155705	0.9021599159829812	106.12628278377625
20	7.0	wm	160	diff_vonmises	0.29743142665568745	17.041565441925783	1.0675561322954221	45.30102806836377	1.016185444790952	45.60441645832739	0.33389472550387467	-0.18821498867092457	0.5221097141747992	89.29147977453908
0	1.0	ltm	161	diff_vonmises	-0.2399490780788188	-13.748069471971377	0.3332157273088661	3.536017691443674	5.843987578275814e-11	4.340353780518984	0.07317776596083136	-0.29846047024186656	0.3716382362026979	160.03424436360223
1	1.0	perception	161	diff_vonmises	-0.11606224406845723	-6.649876745939872	13.386142950815703	0.7843675737787735	0.12451840925253134	1.7738965864863667	0.8149934523124098	-0.29842375116915826	1.1134172034815681	36.6651333542836
2	1.0	wm	161	diff_vonmises	-0.10637162098350395	-6.094644942320003	3.1248625421249923	0.5322910363420607	2.453330842867962e-19	1.052988382628734	0.18920905700520155	-0.16689932991085377	0.3561083869160553	77.69794438148958
3	2.0	ltm	161	diff_vonmises	0.006703319694242713	0.38407192720703287	4.614376304104164	0.38068974814533385	1.2161743218761016e-17	0.7672985482898094	0.19408169161387767	-0.12208830711523726	0.31616999872911494	63.62653509934478
4	2.0	perception	161	diff_vonmises	0.004463797567494064	0.2557567612181731	5.355087481127832	1.4437229207978528	0.5164236371248919	1.6573219747396517	0.8843176617703774	-0.2579817781493886	1.142299439919766	55.36447957694196
5	2.0	wm	161	diff_vonmises	0.43499340734955977	24.92328635714478	2.3619537858972306	0.5602051997418873	5.153137195424866e-28	0.6295538989407897	0.2190831785423379	-0.09736126753927779	0.3164444460816157	89.32455328406448
6	3.0	ltm	161	diff_vonmises	-0.2023338874495629	-11.592877803334972	1.848626266358094	101.82177914570721	1.8288225458625562	102.10246896371773	0.18959799911201713	-0.1392555394211641	0.3288535385331812	65.20908027185848
7	3.0	perception	161	diff_vonmises	-0.052799881569403635	-3.02521037271741	4.361284726817627	1.7953399385245299	0.14357675516417898	1.996919981331596	1.0817199869583332	-0.29987061758177513	1.3815906045401083	63.843441093613535
8	3.0	wm	161	diff_vonmises	0.15969572333773302	9.149890953540947	0.7221162435109512	83.19618720783883	0.7068980149003123	82.8861365475394	0.3300953912102784	-0.09488494005256953	0.42498033126284795	114.48829505335988
9	4.0	ltm	161	diff_vonmises	-0.3153086658010653	-18.065855794302	16.14394587344702	0.3120234876084626	4.8317351787796904e-23	0.8492522618935578	0.3609990532704222	-0.1351626954123279	0.4961617486827501	33.70390294079576
10	4.0	perception	161	diff_vonmises	-0.09411126009544084	-5.392178008126721	2.0341787835026057	3.4091631367936466	0.35047182291362944	4.2906235265368124	0.8363514914615593	-0.47281352547472505	1.3091650169362843	85.16738496249647
11	4.0	wm	161	diff_vonmises	-0.43019705651099177	-24.6484756970308	1.1537586996443265	133.27999140100087	1.1394261452288181	133.77411190500706	0.17373224138552956	-0.171019869332401	0.34475211071793055	81.6605504988844
12	5.0	ltm	161	diff_vonmises	-0.13189496732651113	-7.5570249668249785	1.2998079471851287	100.36351966494819	1.2839124758895974	100.51444281763733	0.23082062493581645	-0.11231888425080605	0.3431395091866225	80.67266748390668
13	5.0	perception	161	diff_vonmises	-0.03848927525603498	-2.2052730286881155	0.942863836968339	55.645360478818866	0.8766020453541877	55.71623359288374	0.6792914930801217	-0.289023052831876	0.9683145459119977	98.06940478597394
14	5.0	wm	161	diff_vonmises	-0.04256995210298069	-2.439078589574857	0.9188136469436206	1.859195612437375	0.11368048032915322	1.7740084846919004	0.29133328343112275	-0.15461099589200614	0.44594427932312886	127.10995437619984
15	6.0	ltm	161	diff_vonmises	-0.44578466505445824	-25.541579879273495	1.332988816614231	1.1837277051505248	8.713887518039013e-13	1.662895364047136	0.21288988383282276	-0.23145063609860916	0.4443405199314319	115.0194038456767
16	6.0	perception	161	diff_vonmises	-0.008796568702664606	-0.5040062608595519	0.8286467162789487	202.55363130644128	0.815779405402422	202.82507233465168	0.41433679794810274	-0.23504689974674875	0.6493836976948515	101.20499095964234
17	6.0	wm	161	diff_vonmises	0.14098257554340307	8.077706563521295	0.000267620956260195	4118.890331714159	6.911821611766443e-30	4119.163127960244	0.1320314158782594	-0.2188416827373203	0.3508730986155797	179.26726147645337
18	7.0	ltm	161	diff_vonmises	0.07713514721604979	4.419518387599934	1.3125450807130643	167.37401749589506	1.2939572682042697	168.42542668430931	0.14841841445043258	-0.30009319219805164	0.4485116066484842	73.47005836956117
19	7.0	perception	161	diff_vonmises	-0.23820939560380563	-13.64839300846025	0.8218008268812222	97.07910239257902	0.7822340901409608	97.72763664792544	0.5387505581698626	-0.3716841631643568	0.9104347213342194	101.06586305599039
20	7.0	wm	161	diff_vonmises	0.3954405703883823	22.657075731500264	1.2507459781115755	50.73506879996972	1.2175255075318652	50.90931204503746	0.24307235514001135	-0.12232283036192282	0.36539518550193417	82.4084519544167
0	1.0	ltm	162	diff_vonmises	-0.019612912796737925	-1.1237371272112069	2.9969542248996097	0.5592203836051163	3.5631914589596616e-30	3.0008855509965024	-0.11155469171658694	-0.4766928623928618	0.36513817067627485	79.37627337322172
1	1.0	perception	162	diff_vonmises	-0.10756593323994873	-6.163073994035035	11.096394515480613	0.8059770549951444	0.12359577352884867	3.257482731804673	0.4740262160905059	-0.5456923389140556	1.0197185550045615	39.88000562305746
2	1.0	wm	162	diff_vonmises	-0.16033576861311216	-9.18656284651746	3.605662076457087	0.6128777018202887	0.07995661391550148	2.7906470142823805	-0.03527247195821975	-0.4315733406179531	0.39630086865973335	67.97217035029908
3	2.0	ltm	162	diff_vonmises	-0.017695379579572557	-1.0138705667914887	2.7891581307936613	0.60823744895606	5.22287928142659e-19	2.2407832289161247	0.025431021252192487	-0.35518794138030957	0.38061896263250206	82.32805303915265
4	2.0	perception	162	diff_vonmises	-0.0026589879946356705	-0.1523487898685783	5.463348893587213	1.4657198201282566	0.31916380956849716	2.9560907636431715	0.7010220866077794	-0.4757240507149462	1.1767461373227257	54.811093142897846
5	2.0	wm	162	diff_vonmises	0.2967217772543484	17.00090552629507	3.258481756584707	0.5912022320081213	6.844684578172168e-10	1.8863069538873065	0.10554682921612885	-0.2996152984575935	0.40516212767372234	76.0374674689478
6	3.0	ltm	162	diff_vonmises	-0.18310780452783373	-10.491304395351339	2.003024332748894	1.3870994803957737	0.29861181135176146	2.759985150697442	0.13705076231293156	-0.3401596383444355	0.4772104006573671	82.37292704991333
7	3.0	perception	162	diff_vonmises	-0.08099172411341085	-4.640483967186381	2.833067275499211	2.9674334828035196	0.3624728081953048	4.341397939260546	0.919750559887127	-0.5616383635838722	1.4813889234709992	73.34677794673274
8	3.0	wm	162	diff_vonmises	0.06920791867457023	3.9653216489375085	0.6637558620930264	79.05328280865155	0.633030409008009	79.73543372157366	0.27617131716543497	-0.291098236952684	0.567269554118119	110.05073275804111
9	4.0	ltm	162	diff_vonmises	-0.21742817501838577	-12.457716775785306	5.493643719146514	0.47385638249046863	0.011175733387786456	2.5168652865497734	0.026827613955558494	-0.39910926489504706	0.42593687885060555	57.71927919672342
10	4.0	perception	162	diff_vonmises	-0.12246642447973742	-7.016809254746582	0.9161844976659206	484.44655263607024	0.902705398877608	486.4356619410212	0.6001320132820354	-0.664250356402114	1.2643823696841494	91.54800281348058
11	4.0	wm	162	diff_vonmises	-0.4516134171363534	-25.875542773394177	0.8598185426874673	257.42971739166956	0.8489627244732852	259.3277032076741	-0.06086208776727631	-0.4023205893692392	0.3414585016019629	84.35647573944834
12	5.0	ltm	162	diff_vonmises	-0.2346333293079689	-13.443499502449823	0.7824960964905305	137.09894538456246	0.7644961513847973	137.97241813259248	0.21191754570031662	-0.28162962910845657	0.4935471748087732	98.68790701220688
13	5.0	perception	162	diff_vonmises	-0.073028337461164	-4.184215521381822	1.5522155330470646	4.771805576787247	0.5120013883972999	5.774754202069982	0.672438477475797	-0.46213544400706424	1.1345739214828612	89.6202411596139
14	5.0	wm	162	diff_vonmises	-0.20050382575262785	-11.488022991852043	0.4617192775603857	156.79921364687908	0.4487481804556192	157.53759533471293	0.20210713479645648	-0.30976004243004596	0.5118671772265024	127.42795935157402
15	6.0	ltm	162	diff_vonmises	-0.3958783410505257	-22.68215814283573	0.6522796655894914	123.46467416056551	0.6356304517715855	124.64804295846264	0.06826720996897961	-0.2990115077364077	0.36727871770538734	103.57668336579546
16	6.0	perception	162	diff_vonmises	0.008138123863272242	0.4662801505202001	0.43861770893782265	202.48351899613135	0.42626850722336723	203.55376953515966	0.2123944110684377	-0.40502643746337696	0.6174208485318147	129.29970668076598
17	6.0	wm	162	diff_vonmises	0.18752900521622815	10.744620535176672	0.00046242927035795416	2061.5039295673923	9.236124548051935e-33	2062.6034887949663	-0.023261887855710484	-0.3267036056885786	0.3034417178328681	178.7750620877315
18	7.0	ltm	162	diff_vonmises	-0.2952010447795905	-16.91377397372296	0.8717254229587358	136.56295688684497	0.8511187290381298	138.04177819734133	0.07332855445839925	-0.35501305843196107	0.4283416128903603	88.50750090666808
19	7.0	perception	162	diff_vonmises	-0.17592806654287427	-10.0799357108034	0.5842040616802726	320.3877440918937	0.5715842996136633	322.1429372933976	0.3068390124344944	-0.5706117627539911	0.8774507751884855	113.40777730770887
20	7.0	wm	162	diff_vonmises	0.2964801869540945	16.987063421719224	1.1220962761327664	122.44781816973932	1.0989298817322812	123.67644786037599	0.08769676410234695	-0.31155852024306085	0.3992552843454078	78.15736476248512
0	1.0	ltm	163	diff_vonmises	-1.0405760991050594	-59.620618740906785	0.0007607150098385592	406.9254983451072	3.636963080247516e-21	409.96544252386354	-0.4345467539475578	-0.5330787941300628	0.09853204018250494	151.35874311520791
1	1.0	perception	163	diff_vonmises	-0.046333601241591325	-2.654719800785294	10.747597886787155	0.7286124658602168	0.007311079395955841	4.118255867885848	0.2809211241328573	-0.6563664023225327	0.93728752645539	41.283458899010384
2	1.0	wm	163	diff_vonmises	-0.01022659470831825	-0.5859407155774569	4.9896425117268	0.43047134896551004	0.08813821436196631	3.40711486102867	-0.2182561761155053	-0.5444762392975234	0.3262200631820181	57.06369350102409
3	2.0	ltm	163	diff_vonmises	-0.16077742626339322	-9.21186796586823	5.690421709675114	0.2419961670424231	6.442500487903416e-23	1.4437899509845376	-0.005052755791070174	-0.22978374262236767	0.2247309868312975	57.154478176313916
4	2.0	perception	163	diff_vonmises	0.010083135212676161	0.5777210919460898	7.542328007345517	1.7007519911306337	0.5313382945691058	3.1623696544809707	1.0311813604465758	-0.5703249973343993	1.6015063577809752	46.35970072789641
5	2.0	wm	163	diff_vonmises	0.08524232341846892	4.884025367767449	3.0329103808139966	0.6697465790132355	0.17655876339332546	2.111766734853716	0.04349397486404627	-0.31231777636980795	0.3558117512338542	71.15610262422885
6	3.0	ltm	163	diff_vonmises	-0.1735666351969733	-9.944635661073375	1.366951744109279	81.1263679041009	1.3472506358682037	81.80977856485941	0.010099186619008549	-0.17374037947901222	0.18383956609802077	68.55289765882378
7	3.0	perception	163	diff_vonmises	-0.024331042117302637	-1.3940660244764915	4.542750766836156	2.4494248721838865	0.9680509599545728	2.9339333121299602	1.0326712000744909	-0.41984166545703455	1.4525128655315254	55.99308675893667
8	3.0	wm	163	diff_vonmises	0.12355607119855007	7.079241412894826	1.3765982162147707	124.54092564644152	1.358209769280923	125.12354484299266	0.1735669015507142	-0.19654702318000972	0.3701139247307239	73.86618271434489
9	4.0	ltm	163	diff_vonmises	-0.6931784584875901	-39.71620012072325	0.8496882744714743	153.33108994509803	0.8323384762820029	155.5146597521542	-0.16878370890766803	-0.43270807118729593	0.2639243622796279	80.72039608397992
10	4.0	perception	163	diff_vonmises	-0.01948903040263257	-1.1166391888729938	3.102537483790633	2.1002146725907194	0.2984916885679504	3.2402471113052003	0.7222278421658765	-0.4433790192884704	1.1656068614543469	71.4427257218291
11	4.0	wm	163	diff_vonmises	0.23921135017667053	13.705800776749241	2.8004129601179466	0.4082889258342039	2.0303875648431036e-11	2.9080593236025827	-0.20577938217515773	-0.4618821851610703	0.2561028029859126	82.14130154311587
12	5.0	ltm	163	diff_vonmises	0.011639693020061218	0.6669052848773909	1.2249445655131859	7.913447929659445	0.8600778271763192	9.305517647544518	0.10436850637848272	-0.3494552700576571	0.4538237764361398	81.15524852568944
13	5.0	perception	163	diff_vonmises	-0.11856857500268313	-6.793478930534096	1.1022817358157475	276.8124401811947	1.0822192883804798	278.0671579957819	0.5925063933965049	-0.4869694676556584	1.0794758610521633	84.76468384163425
14	5.0	wm	163	diff_vonmises	0.19367018787466994	11.096484382724318	1.0246941886877314	1.578659730145281	1.0788144108157428e-16	2.722608412657148	0.11349379380676461	-0.3628797331766846	0.4763735269834492	127.2365504166819
15	6.0	ltm	163	diff_vonmises	-0.48490367937795475	-27.78293429872166	0.7688848167479108	140.50653150283827	0.7560807889064407	141.28881880768668	0.11252881747905974	-0.21981030130233137	0.3323391187813911	97.46313573883316
16	6.0	perception	163	diff_vonmises	0.172468414615665	9.881712256790006	0.14345721483566518	124.9936307053869	0.12520360773721553	125.96372644571778	0.21144805106122888	-0.47292483614440073	0.6843728872056296	163.51838413955934
17	6.0	wm	163	diff_vonmises	0.15331571801616956	8.784343575344353	0.7246568399948988	2.3850072799482516	1.6523214857165308e-15	3.5149206041040157	0.13046697267261653	-0.39747794391175545	0.5279449165843719	140.58529930911368
18	7.0	ltm	163	diff_vonmises	-0.17614121176922434	-10.092148032696619	0.994323727535799	54.53823831837654	0.9632569242436356	55.81823291620552	-0.10739677317291552	-0.2608791850281236	0.15348241185520806	74.15964399398797
19	7.0	perception	163	diff_vonmises	-0.051680217773451116	-2.9610583627357334	1.9489596574016708	1.087817429988313	4.284923069565704e-15	2.5897828847429114	0.14030195856734418	-0.40097021951054573	0.54127217807789	98.21021749238339
20	7.0	wm	163	diff_vonmises	0.29456778061018013	16.87749060949889	0.588991236331563	98.34131916797145	0.5729551597614804	99.80915381349068	-0.08439044682922159	-0.2964849929425135	0.21209454611329193	100.69689487903818
0	1.0	ltm	164	diff_vonmises	-0.5861398033300026	-33.583336935437266	0.4525236830549284	1.5423078621637005	4.0251025545800245e-13	3.5086698565042895	-0.1915123271456195	-0.4099952378122165	0.21848291066659697	148.87400067205652
1	1.0	perception	164	diff_vonmises	-0.08463657453411916	-4.849318513249449	10.521356400452484	0.8380133769851146	0.03185604874448455	3.0755023022384775	0.5656990572881392	-0.4937454851629272	1.0594445424510663	41.56466137942269
2	1.0	wm	164	diff_vonmises	-0.0504579604587909	-2.8910281771267092	3.9990782907301705	0.487465779906095	0.09618054340470629	2.2960577980386643	-0.026651183788487243	-0.3579607773582325	0.33130959356974526	64.23140688017207
3	2.0	ltm	164	diff_vonmises	-0.11045357662763658	-6.328523772888408	4.167941499748684	0.2902305940650525	1.0820174894203068e-19	1.2340472942380887	0.03177924790188735	-0.19635001059462334	0.2281292584965107	67.03261940095615
4	2.0	perception	164	diff_vonmises	0.014109364903773715	0.8084070605962408	6.523286052351628	1.6550925925783604	0.5358185585736763	2.5113764852638063	1.01488027284627	-0.42893069921942223	1.4438109720656922	49.90057622524088
5	2.0	wm	164	diff_vonmises	0.3261094747872181	18.684696564535525	3.3122828275177714	0.4726551129249972	0.0003305818678649035	1.387220892893354	0.1065239325371907	-0.22027548887000123	0.3267994214071919	75.38582500597784
6	3.0	ltm	164	diff_vonmises	-0.14969922639163613	-8.577133868614178	1.4105052506922462	84.64553579235206	1.3923207698530935	85.19606509755754	0.04665053983246992	-0.15220132804068776	0.19885186787315767	69.47541590020629
7	3.0	perception	164	diff_vonmises	-0.042054820365708415	-2.4095637151359135	5.000912942595161	1.7797559676144739	0.5022060766704743	2.0991636207388487	1.0244412200436082	-0.3197120319306894	1.3441532519742976	57.08724756083015
8	3.0	wm	164	diff_vonmises	0.19818943710486395	11.35541829018218	1.123273026301991	127.0730951886412	1.1105169563183337	127.28172679292243	0.2272093611165431	-0.12640099339250632	0.35361035450904943	86.17201266644383
9	4.0	ltm	164	diff_vonmises	-0.5162109297672337	-29.576707614186645	1.103530713048787	66.26363370567273	1.0638179153116667	67.74106774057248	-0.029042817430713797	-0.3337321455339861	0.3046893281032723	75.36229040659396
10	4.0	perception	164	diff_vonmises	-0.03716492267372181	-2.1293932151343187	2.9957568361736575	1.9157509129382684	0.15631232780536564	2.8562430040543134	0.7254490099924565	-0.4058008902478192	1.1312499002402756	75.36745680738716
11	4.0	wm	164	diff_vonmises	-0.31879655303809434	-18.265697012401308	0.8537665269157022	185.24127383819507	0.841425078434291	186.86218139169532	-0.06874320121178812	-0.338003062122489	0.26925986091070087	83.88504565676075
12	5.0	ltm	164	diff_vonmises	-0.1212103046132022	-6.944838887831579	1.109696707546823	127.07597036928516	1.0922064974222403	127.78876164482877	0.16012820329126498	-0.21574322247082023	0.3758714257620852	81.85266509858482
13	5.0	perception	164	diff_vonmises	-0.12101175137555766	-6.9334626253058875	1.8774862241346988	3.4724435388299915	0.542653385912544	4.0013112902733	0.7047886874732734	-0.353347783570481	1.0581364710437544	84.2323393119332
14	5.0	wm	164	diff_vonmises	0.09786901452218998	5.607481477226049	1.01471116244008	1.5015308195518715	1.7866076291590715e-10	1.9425832466325477	0.20808079949246383	-0.24119560394893097	0.4492764034413948	127.87933399639518
15	6.0	ltm	164	diff_vonmises	-0.4854993177012964	-27.817061860765385	0.6618973714835001	108.5046535478822	0.6495233192231312	108.92578953776149	0.13949206406331527	-0.16291583392667697	0.30240789798999224	108.67237933903556
16	6.0	perception	164	diff_vonmises	0.1462481316757066	8.379400706691516	0.17776911124760547	160.7726898841657	0.16580734482762668	161.22249299574545	0.24596885067294139	-0.3379999443403321	0.5839687950132735	159.65116414625754
17	6.0	wm	164	diff_vonmises	0.24559968981158437	14.071825675925949	0.0003931387795980139	2950.639890981686	1.0256984553231599e-25	2951.199426034011	0.09558670779711065	-0.2736559558020417	0.36924266359915237	178.00722836329726
18	7.0	ltm	164	diff_vonmises	-0.14074888732325735	-8.06431721478502	1.410562716962465	1.6143696467744204	0.5406165664625645	2.653797732965155	-0.0012212450097837113	-0.2296468484713213	0.2284256034615376	82.48197120074218
19	7.0	perception	164	diff_vonmises	-0.15982081699586995	-9.157058292196044	2.2948019503408346	1.355029746560581	3.555356236924554e-12	2.45501779474936	0.36842952453652267	-0.38301740982736293	0.7514469343638857	90.74990406857567
20	7.0	wm	164	diff_vonmises	0.20863273566789217	11.953775222038736	0.6601777960786106	59.78983545133301	0.6317125488705531	60.79660168273951	0.04997114493562904	-0.25031629442397385	0.3002874393596029	103.05001949431187
0	1.0	ltm	165	diff_vonmises	-0.20308927663923354	-11.636158415792906	3.3902777202179264	0.28497233873672684	2.0786903810636636e-18	2.5804498829974745	-0.21072283027075894	-0.4104642301884241	0.19974139991766515	74.52377128919977
1	1.0	perception	165	diff_vonmises	-0.07587746857350024	-4.3474587093981025	14.776830052228402	0.6389731491398809	0.008869129509478518	3.197349338272879	0.4576881773567456	-0.5106118662404844	0.96830004359723	35.184824632815605
2	1.0	wm	165	diff_vonmises	-0.08508657092042396	-4.875101406980853	4.119730911405534	0.4241869755159614	0.026824316578383505	2.573387920678496	-0.08920696733192401	-0.40495742378491406	0.31575045645299005	65.62954130791701
3	2.0	ltm	165	diff_vonmises	-0.09711206041036057	-5.56411120133315	7.45432786926042	0.27980545157877085	3.6969610686354536e-34	1.3406241345557084	0.0858709673223561	-0.21336685750676587	0.299237824829122	49.8201348394052
4	2.0	perception	165	diff_vonmises	0.004140856398658845	0.23725359521289327	7.264657640708659	1.4887029613544889	0.49014972991529526	2.565283429993961	0.9429062673039819	-0.451089805423558	1.3939960727275398	47.53377935173074
5	2.0	wm	165	diff_vonmises	0.04103786994049614	2.3512967477972153	3.270204871596334	0.7201825902064668	0.2725823584903941	1.8378316770038934	0.11813823060905909	-0.26902381936421244	0.3871620499732715	67.67188608059192
6	3.0	ltm	165	diff_vonmises	-0.2127518098739587	-12.189780789547548	1.5553438358411842	101.23823653803028	1.534053597233487	101.91483012436096	0.07642023945410159	-0.20064921222252785	0.27706945167662944	66.57609189639771
7	3.0	perception	165	diff_vonmises	-0.029280089538245038	-1.677625554306596	4.3871342559492845	2.448924440813876	0.8011606678668717	2.905914337204645	1.0965742873464808	-0.41215815135899414	1.5087324387054748	58.07228573660271
8	3.0	wm	165	diff_vonmises	0.07783886923711406	4.459838689357333	1.58121808045871	5.752346107999996	1.1432039429754515	6.333108938760972	0.23822946127982103	-0.2151956487327713	0.45342511001259234	75.18947315934867
9	4.0	ltm	165	diff_vonmises	-0.4193940755487059	-24.02951048173164	3.498839565801772	0.38189582401909056	1.4076483682680544e-31	1.9125693587605808	-0.031644837767075495	-0.3041455734811983	0.2725007357141228	73.31271168316287
10	4.0	perception	165	diff_vonmises	-0.05260815955712685	-3.0142255105741946	2.69853091945351	2.6428026380678116	0.331777397851418	3.8125544420109128	0.8059133421305995	-0.4887665398045238	1.2946798819351233	75.47721113205466
11	4.0	wm	165	diff_vonmises	-0.04155243784937734	-2.3807793172489804	0.6939627234468668	171.05651396224692	0.6817619369122773	172.6693263303372	-0.055780732401586874	-0.3377117809676662	0.2819310485660793	94.32743982985824
12	5.0	ltm	165	diff_vonmises	0.039636350692876736	2.2709956100022732	1.0941991333271854	114.25495597420779	1.069720106745989	115.31958533531791	0.14694002595806666	-0.2912187400180173	0.43815876597608394	81.00098086462484
13	5.0	perception	165	diff_vonmises	-0.06579229723029734	-3.769620955766293	0.98325532500327	314.99726103118417	0.9678581175490145	316.0553200932816	0.5642227986732138	-0.4412500307987095	1.0054728294719233	90.26190150897932
14	5.0	wm	165	diff_vonmises	0.12657836094036656	7.252405859566594	1.0826536554014263	1.5042642830071433	3.316538297754183e-17	2.480549286720821	0.1426530406394449	-0.33313758805122085	0.47579062869066574	125.08001905206154
15	6.0	ltm	165	diff_vonmises	-0.4747326469039003	-27.200177064667837	0.760348104730803	192.91786321852638	0.7486715002089106	193.84358935872584	0.15804129592662264	-0.27150120901607266	0.4295425049426953	98.62436810364296
16	6.0	perception	165	diff_vonmises	0.0009730552974950173	0.05575196177931124	0.6650123089565895	175.78781438244042	0.6468025919359772	176.73052682467988	0.349930593380698	-0.3837329824650979	0.7336635758457959	109.0874401743122
17	6.0	wm	165	diff_vonmises	0.09131163381584648	5.231771238092052	0.42982595776059107	3.9818988209661157	6.1756659332331255e-18	5.002552015562379	0.13438650314498812	-0.4022601857408805	0.5366466888858686	155.71396148905595
18	7.0	ltm	165	diff_vonmises	-0.040731163831230516	-2.333723782185417	1.2298769099392157	156.76549759693688	1.2137718345053174	158.1738153343761	-0.0727064377788551	-0.3205720423773002	0.2478656045984451	69.05489724357685
19	7.0	perception	165	diff_vonmises	-0.05536736094350216	-3.1723161048401454	1.242896528699827	1.7440069333304	3.51873105968181e-16	3.207125152057638	0.1645584447055478	-0.454230004595584	0.6187884493011317	119.10372208633342
20	7.0	wm	165	diff_vonmises	0.3864796817245665	22.143654630376993	0.7182781901029083	90.66260668386404	0.6993435821861967	91.93905909439839	-0.03574763356662558	-0.270312276548216	0.2345646429815904	93.39796798217031
0	1.0	ltm	166	diff_vonmises	-0.49048627589484234	-28.102793517863752	0.0005408926079345653	1244.3390470639076	5.072241387088556e-27	1246.5409237452266	-0.24330540991491034	-0.4575447359299005	0.21423932601499018	173.21349408328493
1	1.0	perception	166	diff_vonmises	-0.0850947028409756	-4.875567331707798	10.406140960961421	0.920212173954658	0.1260691012595743	3.3041863246328944	0.5751526899217421	-0.5514484105951275	1.1266011005168695	41.197852171593865
2	1.0	wm	166	diff_vonmises	-0.08573375539859204	-4.912182346146261	4.650646923925005	0.3978871231412405	0.04429982050187388	2.383242267000947	-0.06438118699390472	-0.37597561848325395	0.31159443148934923	61.204691826209256
3	2.0	ltm	166	diff_vonmises	-0.1269627892061419	-7.274431976721055	4.259285061372427	0.3648015635645936	2.3885138964766655e-15	1.6445514908214949	0.028472926239934082	-0.26168053084953596	0.29015345708947005	66.29045679376185
4	2.0	perception	166	diff_vonmises	-0.014233716893408842	-0.8155319047763882	7.403102864553094	1.4211958698987894	0.3372338541032849	2.7127511934979798	0.9266611213450116	-0.46295210391988906	1.3896132252649007	47.789205581121735
5	2.0	wm	166	diff_vonmises	0.2461539548194139	14.103582721606367	3.176505784321989	0.4940475112277724	1.210330041731347e-20	1.7407743609616737	0.05719298804513956	-0.27647075099908525	0.3336637390442248	77.04149555106153
6	3.0	ltm	166	diff_vonmises	-0.17652203365909752	-10.113967519732547	1.4801801394517229	2.5395405442432586	0.8197821461245164	3.3067356591992527	0.07462134983639812	-0.19947432716171812	0.2740956769981162	78.07433939829227
7	3.0	perception	166	diff_vonmises	-0.06196244680031539	-3.5501866899619636	3.5429567807939377	2.5540939600447654	0.6132577133869964	3.1254447602104776	0.9988665519748099	-0.4071917888889861	1.406058340863796	64.8511034935459
8	3.0	wm	166	diff_vonmises	0.0486050381964443	2.7848635517284173	1.1727999346927211	174.4437397709721	1.1602417255787252	174.85213478295034	0.25478884805558266	-0.1793597097705515	0.43414855782613415	82.78473875628504
9	4.0	ltm	166	diff_vonmises	-0.3062952766193327	-17.549426635079847	5.330576466703344	0.450356713631805	0.24867707088125796	2.1853249821374754	-0.03520584231637286	-0.36185385833178063	0.32664801601540777	53.333100508890794
10	4.0	perception	166	diff_vonmises	-0.10383680731879448	-5.949410817480062	2.6286386378473328	2.317990595361593	0.22519667572933444	3.6007376316844586	0.6980366310754766	-0.4827701604970307	1.1808067915725073	78.13324664966026
11	4.0	wm	166	diff_vonmises	-0.4261225465565232	-24.41502347305571	0.8756860694206328	170.9334908592	0.8619732938984489	172.67929632807537	-0.10376555795726716	-0.35657044764419155	0.2528048896869244	81.30816267275173
12	5.0	ltm	166	diff_vonmises	-0.12244149253860483	-7.015380759744617	0.9596550880704825	95.8033718755692	0.9362460340773783	96.66543206110865	0.1418006093103621	-0.24236413858436912	0.3841647478947312	87.42308168256281
13	5.0	perception	166	diff_vonmises	-0.1050719390060094	-6.020178650300349	2.2813547607363214	2.5338228294119287	0.2972069495075696	3.3312499888482847	0.7164575071253423	-0.4025459025036332	1.1190034096289754	82.24805781429515
14	5.0	wm	166	diff_vonmises	-0.07911789827179157	-4.5331216549190465	0.732004830679471	3.6087470772565573	0.28301532311222827	4.3219596002999365	0.15403999151943648	-0.26545895289238974	0.4194989444118262	122.6774248226996
15	6.0	ltm	166	diff_vonmises	-0.3919691557536934	-22.45817832399264	0.6179352039470796	125.37257383684985	0.6060975446814887	126.15483248877834	0.07256684040644501	-0.2144093646717824	0.2869762050782274	107.79132717500984
16	6.0	perception	166	diff_vonmises	0.17392031904760522	9.96490025299652	0.09223752970977013	154.59638630240622	0.08024746124419868	155.31809378913965	0.1828976346902742	-0.38760647360180656	0.5705041082920808	169.11445393305877
17	6.0	wm	166	diff_vonmises	0.2047475766110968	11.731172005347334	0.0005171777055248094	1785.4143573597394	8.113544095040566e-23	1786.2828627648503	0.008750385488497159	-0.2851662416131262	0.29391662710162336	178.5630286394205
18	7.0	ltm	166	diff_vonmises	-0.3280232096939913	-18.794345497800492	0.779288009657468	67.64576918954093	0.7531702267312045	68.63811354901195	0.044906077243414444	-0.23794514688543522	0.28285122412884967	93.95451666189602
19	7.0	perception	166	diff_vonmises	-0.18712238996616518	-10.721323197462407	0.6879866380143077	228.66482651731656	0.67383776449867	229.89330651633082	0.27262818195794125	-0.401620781798222	0.6742489637561633	105.0492261137391
20	7.0	wm	166	diff_vonmises	0.2920358890233448	16.732423907388544	0.8543121301813706	59.90706592261844	0.8214226306667101	60.911109441691906	0.06708727743614418	-0.2475899266735233	0.3146772041096675	90.48392225570603
0	1.0	ltm	167	diff_vonmises	-0.019254230158227238	-1.103186125839928	4.253449684994507	0.2777108247242393	1.0873770087980283e-23	3.6136239091205766	-0.3543529637193926	-0.5750814955000909	0.2207285317806983	66.33474639792857
1	1.0	perception	167	diff_vonmises	-0.056869032252839694	-3.2583555330810703	8.919711357505994	0.9275508381031465	0.11714809045355404	4.3231699457686235	0.3177765920794089	-0.7148747115776605	1.0326513036570693	44.178660241631576
2	1.0	wm	167	diff_vonmises	-0.07677041599756752	-4.398620828124237	3.8846980485982536	0.5453104380884796	0.0680365074443359	3.6712771109614706	-0.21214182039119406	-0.5753152512250573	0.3631734308338633	65.04964147677032
3	2.0	ltm	167	diff_vonmises	-0.06837508067686353	-3.9176035466507884	2.3372319666709416	0.5046803178073103	3.6286528627933485e-25	2.295865424593444	-0.07955335033803035	-0.3627312342018448	0.28317788386381443	89.94899019471373
4	2.0	perception	167	diff_vonmises	-0.009710127396208256	-0.5563493183370884	7.2360757083516765	1.4551108532153656	0.3177366583393406	3.265388956383323	0.8359170173449302	-0.5562525068269001	1.3921695241718304	48.127473670070685
5	2.0	wm	167	diff_vonmises	0.17760438133486484	10.175981473519808	3.078920730770904	0.6904468659917994	0.09084372946477032	2.3958120569717747	0.042229367135142915	-0.36226844701410854	0.40449781414925146	73.41132803404497
6	3.0	ltm	167	diff_vonmises	-0.21078918358013984	-12.077330586150325	1.807480551918348	1.0515376825880012	0.32766078902405893	2.1774028822657114	0.04191460633909855	-0.2577243902160431	0.29963899655514165	83.27565700719788
7	3.0	perception	167	diff_vonmises	-0.06622654481233117	-3.7945015094805927	3.442442203860359	2.627440629735155	0.5471178445009346	3.5663554481605395	0.948105284333377	-0.47327290663887484	1.4213781909722518	65.69194309777984
8	3.0	wm	167	diff_vonmises	0.029209232959584247	1.673565771398596	1.0776870998067722	191.03861605752925	1.063690057256181	191.77854877224112	0.24057754684777422	-0.24928514686293468	0.4898626937107089	84.3637723252755
9	4.0	ltm	167	diff_vonmises	-0.2614966692213235	-14.98265550311037	2.8149820184039096	0.5646468132339635	0.12153525833879548	2.995594309629355	-0.1798215983032858	-0.4536649608889373	0.2738433625856515	72.35405428799879
10	4.0	perception	167	diff_vonmises	-0.0835217500335763	-4.785443774470564	2.4273905274528222	2.611998680360565	0.26771686805083456	4.232226677609636	0.6481112438628422	-0.5462082223296991	1.1943194661925414	79.44275505842916
11	4.0	wm	167	diff_vonmises	-0.22197526153074362	-12.718245642024272	0.6226914522069895	184.50901917996256	0.6101442175254117	186.96098071743143	-0.21700504770355167	-0.46265977546826775	0.24565472776471609	92.8680231557693
12	5.0	ltm	167	diff_vonmises	-0.14701825099219556	-8.423525293247833	0.7484384770083855	64.72210729484931	0.7087695246204073	66.13171785181827	0.08636840220560771	-0.3495488053364735	0.4359172075420812	97.17912361755317
13	5.0	perception	167	diff_vonmises	-0.09533174709365803	-5.462106762075157	1.6555707263301338	5.128568757674144	0.5839488174757825	6.536862360894465	0.6425679808644351	-0.5293365121892519	1.171904493053687	84.81551826544484
14	5.0	wm	167	diff_vonmises	-0.11092392638716289	-6.35547282900426	0.43741941027577336	166.88819051986832	0.4249276193961924	168.0888671346405	0.10541998015052201	-0.3687746637730136	0.4741946439235356	127.41968888530914
15	6.0	ltm	167	diff_vonmises	-0.4101794964045756	-23.50155398678371	0.6544327628549577	191.67591264475536	0.6438974221275446	192.95846485158197	0.03249635528351291	-0.3038786406854115	0.3363749959689244	101.56259460198243
16	6.0	perception	167	diff_vonmises	0.16487378224287047	9.446571874875454	0.11910008137216634	167.4453814635739	0.10555155004879235	168.70411136344643	0.15810369805353375	-0.5194811863551543	0.677584884408688	166.047361844162
17	6.0	wm	167	diff_vonmises	0.1558095399859392	8.927229049069156	0.6012028740759703	2.048569503892362	1.5829260262996205e-17	3.4795245626565783	-0.009307421123497694	-0.39018437324604316	0.38087695212254546	146.57979106799684
18	7.0	ltm	167	diff_vonmises	-0.5484701415514533	-31.425024299841123	2.248706261172095	0.5702434062536885	1.3063371042067064e-13	1.9335882416593912	0.007883479477842237	-0.3042243458780125	0.31210782535585474	91.37756549144943
19	7.0	perception	167	diff_vonmises	-0.11169043106885808	-6.399390312242412	0.5576199035949515	284.7510710953182	0.5459787325512219	286.52803759178994	0.17026897679635056	-0.5092016348474715	0.679470611643822	113.9729933029003
20	7.0	wm	167	diff_vonmises	0.25302267551374574	14.49713142804575	0.7760448332482133	119.41879510402332	0.7555386528146706	121.02552941527487	-0.006668161128679628	-0.3543167400684979	0.34764857893981826	91.35801946210208
0	1.0	ltm	168	diff_vonmises	0.17783228743913385	10.189039531419692	0.5903140533340299	1.770529783953467	7.9529990570481265e-16	5.498971937994853	-0.40825954626241784	-0.7318003750752186	0.3235408288128007	147.01037766291515
1	1.0	perception	168	diff_vonmises	-0.04736548067954044	-2.7138421375461097	6.78643096124219	1.218596977980171	0.23051267747396753	4.826035172823532	0.2867169590137818	-0.8111491262870844	1.0978660853008662	49.071223771668144
2	1.0	wm	168	diff_vonmises	0.013308212730980097	0.7625044223474308	1.9223808892412035	1.3293781963548217	0.17164052854128675	4.690195712521336	-0.21019549355533174	-0.6493851505289235	0.4391896569735918	83.10236398089782
3	2.0	ltm	168	diff_vonmises	-0.08548179016148313	-4.897745801475907	0.5147190158573928	1.6980680709537335	4.5604917090629815e-31	3.7842393350659207	-0.17862550812071293	-0.4509473837410888	0.27232187562037585	151.3180651917104
4	2.0	perception	168	diff_vonmises	-0.02352328409223703	-1.3477848987724097	7.252095618665583	1.2945659162548557	0.2315701061072864	3.1394246408946938	0.7434324815564458	-0.5232785370653883	1.2667110186218342	48.55001258019979
5	2.0	wm	168	diff_vonmises	0.3149012303524463	18.042511462672113	3.360756705847962	0.6835923359412247	0.042391376414218855	2.2927400605019868	0.09684568716922565	-0.3542889157909201	0.45113460296014574	72.59449155291463
6	3.0	ltm	168	diff_vonmises	-0.23523199116458815	-13.477800300189571	1.7787662608373944	0.648130321703378	6.7850046459509446e-15	1.668238872580192	0.045873258143956985	-0.25663015716822396	0.30250341531218095	102.36263822514117
7	3.0	perception	168	diff_vonmises	-0.10466769011742091	-5.997016895111375	2.9277197091896245	2.475132163613927	0.38693346500810105	3.357934572509643	0.8403996863209988	-0.4316079619953947	1.2720076483163936	72.43202808849679
8	3.0	wm	168	diff_vonmises	0.0014821332488296013	0.08491997983394921	0.9452147279613835	113.67535560502816	0.9257926138974206	114.10077553723788	0.28028995380953603	-0.19998723969973753	0.48027719350927356	92.88557534940153
9	4.0	ltm	168	diff_vonmises	-0.09288679145221662	-5.322021122723863	4.691820546921033	0.4418412741926222	0.0548148216455036	2.661261812134995	-0.07678447818963591	-0.42015240640411333	0.3433679282144774	60.55326898141587
10	4.0	perception	168	diff_vonmises	-0.09970622146141585	-5.712745680935839	2.5180068296578977	2.2868493749103127	0.18665468040572836	3.8584594957836122	0.6197242472350551	-0.5251825895175025	1.1449068367525577	80.1346878923851
11	4.0	wm	168	diff_vonmises	-0.3597916505163349	-20.614543078631897	0.7210486485857234	183.2461363628086	0.7082019349629709	185.28630795399525	-0.13478704720820645	-0.40342307908968067	0.2686360318814742	89.1789973788229
12	5.0	ltm	168	diff_vonmises	-0.36968021577165056	-21.18111613320119	0.57738820940982	139.91754192950722	0.5604530932286859	141.5579250101343	0.02364188500482811	-0.391614052996367	0.4152559380011951	108.33026912994278
13	5.0	perception	168	diff_vonmises	-0.07723813962819727	-4.425419418137857	2.381816180321629	2.6423190910327903	0.2548114478275364	4.3050590492855205	0.6434998652869013	-0.5561568179658559	1.199656683252757	80.35762846736057
14	5.0	wm	168	diff_vonmises	-0.3224841232916215	-18.4769792245864	0.4166316824197248	206.33347381183842	0.40603561561493673	207.56794927774158	0.11896349331197342	-0.39138644537926126	0.5103499386912347	129.43245056400013
15	6.0	ltm	168	diff_vonmises	-0.3809492528118206	-21.82678439477953	0.519079613370287	114.88408221618091	0.49897619335631743	116.78457162042375	-0.03630437226994587	-0.43166442284293716	0.3953600505729913	112.49801267148422
16	6.0	perception	168	diff_vonmises	0.27067469104655023	15.50851741797482	0.12534057169649124	227.2176104620611	0.11377828405336007	228.88438247990106	0.14522654021689618	-0.6277148555017078	0.772941395718604	164.04526403559524
17	6.0	wm	168	diff_vonmises	0.07803160264255032	4.470881500060015	0.3918971635110605	35.98462924779172	0.3439524184798291	37.87195504531638	-0.0972483971488387	-0.4238284889473811	0.3265800917985424	128.923467681029
18	7.0	ltm	168	diff_vonmises	-0.45974699318814677	-26.341562353510618	1.2738926222546425	1.210999908207616	2.0694996488995907e-13	2.705703180404502	0.04493366047516695	-0.3934095269950229	0.43834318747018985	116.93008786973458
19	7.0	perception	168	diff_vonmises	-0.16911933768876333	-9.689824283613897	0.4919344136813345	263.74884452923567	0.47814893432120037	265.67597781631724	0.21028561784181932	-0.5951540127875425	0.8054396306293619	121.70987464369138
20	7.0	wm	168	diff_vonmises	0.21246822359905726	12.173532492867858	1.7193578517983992	1.5447177220974875	0.17126572467068227	3.0570114059796256	0.15376532401187482	-0.38950469649064545	0.5432700205025203	92.9688289988253
0	1.0	ltm	169	diff_vonmises	0.0004860181870147331	0.027846790882544156	0.8221204525006361	1.1949671838321418	1.3120664149319086e-26	3.6904813466250403	-0.2194656796741643	-0.5162965058109943	0.29683082613683	136.35739282057
1	1.0	perception	169	diff_vonmises	-0.06784247736193162	-3.8870876245505133	11.198610346623513	0.7054907577362988	0.0326393240498704	3.3988589909608926	0.37212043903849823	-0.5468693665321156	0.9189898055706138	40.22536832289606
2	1.0	wm	169	diff_vonmises	-0.007445184732174746	-0.4265776628488511	2.5644005783737267	0.830809447452889	0.09447655906161426	3.129440824888306	-0.049226815994915296	-0.46534578402745846	0.41611896803254317	78.85105286303443
3	2.0	ltm	169	diff_vonmises	0.16636602218134744	9.532070925371046	1.7195830421962708	0.5126660155116649	2.6353782971894145e-39	1.6222862698472316	-0.016914853726278323	-0.2504509684171288	0.2335361146908505	103.9855668660258
4	2.0	perception	169	diff_vonmises	0.01559455731068173	0.8935023172769465	6.386765159319383	1.4802842931288187	0.4818932692021731	2.4248712590954993	0.8706308155116371	-0.410343723640182	1.2809745391518192	50.49232829313209
5	2.0	wm	169	diff_vonmises	0.18476057943517604	10.586001422027179	2.748737176312738	0.895866766530938	0.35352645282194534	1.7810089104255473	0.16663220413279412	-0.23908665391267725	0.40571885804547136	72.13753299303576
6	3.0	ltm	169	diff_vonmises	-0.24808524314585154	-14.214237391734127	1.3408913579775656	68.19534763954933	1.315477271893515	68.83135130915501	0.05889770727508292	-0.17364426140298939	0.2325419686780723	71.66693261905223
7	3.0	perception	169	diff_vonmises	-0.04594649534864827	-2.6325402668950137	5.245837391054226	1.643824934459057	0.3183305836964318	2.0959872479789596	1.0149079759733568	-0.3246885029105392	1.3395964788838959	56.93789730379996
8	3.0	wm	169	diff_vonmises	0.12284144064563245	7.0382960983015455	1.8312538826166982	1.3215847624324524	0.459799628445401	1.6274372859791988	0.2569374313289017	-0.15480440986490754	0.4117418411938092	85.99420317733592
9	4.0	ltm	169	diff_vonmises	-0.37113917210822134	-21.264708173780562	1.8450676886713118	0.6802027005691985	2.2209985145059767e-14	2.0632946518809154	0.005775646616572705	-0.3200397199429772	0.3258153665595499	100.50050169991621
10	4.0	perception	169	diff_vonmises	-0.02125533854429912	-1.2178411907100826	2.600779644383507	2.5389685538881137	0.27919482333588125	3.6126460998767547	0.7858326809999733	-0.4666654438536741	1.2524981248536473	77.78846302115252
11	4.0	wm	169	diff_vonmises	-0.11589244255730184	-6.640147835995725	0.7069009337748994	186.11668037690623	0.6953717833733546	187.52883757172214	0.008402412050088515	-0.3187508227613023	0.3271532348113908	96.3754149946686
12	5.0	ltm	169	diff_vonmises	-0.08938555928036541	-5.121415296181366	0.9140565727799909	138.4553177800386	0.8966284700148981	139.5875306526561	0.0947913285713824	-0.28569313836888277	0.38048446694026516	87.44000582768388
13	5.0	perception	169	diff_vonmises	-0.05135377976004052	-2.9423548422946713	0.962048871304611	326.6626392729337	0.947248787765446	327.76222297409913	0.5530885209490606	-0.4481283782229326	1.0012168991719932	91.07587623333151
14	5.0	wm	169	diff_vonmises	0.059385120423409855	3.402516766137533	0.86003690690773	2.022372471660059	5.771593828829137e-17	2.8384382778668695	0.18549469962721782	-0.33764584275114495	0.5231405423783628	134.59007516425726
15	6.0	ltm	169	diff_vonmises	-0.5166291780599749	-29.60067147614927	0.6899406165165688	216.41334830687356	0.6779638644032232	217.5137609826956	0.18511655095359458	-0.3309065574815797	0.5160231084351743	103.74233469231376
16	6.0	perception	169	diff_vonmises	-0.0028450867749531916	-0.16301146455330454	0.7576792616673638	249.04565070119182	0.7421749516428768	250.11316385740454	0.4247583828447148	-0.42193785218374913	0.8466962350284639	102.1411836847756
17	6.0	wm	169	diff_vonmises	0.09085165332941945	5.205416297561409	0.6198211765403175	3.0579532592964718	2.5964295395576024e-18	4.161847284437796	0.1611588487068859	-0.4239726879611999	0.5851315366680858	145.90137563120942
18	7.0	ltm	169	diff_vonmises	-0.05047858879738493	-2.892210093866514	0.9475181816373361	131.71711652433603	0.9295737593436469	133.3906784041477	-0.10032049139524446	-0.3469228826084958	0.24660239121325134	78.1288688963349
19	7.0	perception	169	diff_vonmises	-0.07105446199334507	-4.071120787791387	1.2830433711323515	2.1732823896649096	5.597940941124579e-15	3.7926873281458695	0.2534698196081757	-0.5377693854459422	0.7912392050541179	117.65313628393154
20	7.0	wm	169	diff_vonmises	0.21075616033229752	12.075438493423146	0.5711163985465028	90.01193676711412	0.5489468563291703	91.39377626441686	0.022417656001831432	-0.33265622853195254	0.35507388453378397	109.36925003460937
0	1.0	ltm	170	diff_vonmises	-0.2158840356770406	-12.369244108546116	5.85429436872759	0.25597678921321154	1.7016765498901317e-15	3.136907780422989	-0.2579726248699367	-0.4992523947617813	0.24127976989184458	56.335794202332295
1	1.0	perception	170	diff_vonmises	-0.06769768173495798	-3.878791446232973	8.844570363634507	0.7602603336170392	1.9177627351356203e-19	3.8969602903645164	0.26829860597070954	-0.6202204747777063	0.8885190807484158	45.671671599162465
2	1.0	wm	170	diff_vonmises	-0.11217921249278424	-6.427395424937776	3.811979109774529	0.6850259656187526	0.16480243630630814	3.5685800440752904	-0.1522572555985101	-0.5587318343270389	0.40647457872852877	62.734885397535294
3	2.0	ltm	170	diff_vonmises	0.014869023033500402	0.8519322653023815	1.9908948905835606	0.5733865073545382	0.0821034436067554	1.8693566806139128	-0.027446763629860482	-0.270551125907134	0.2431043622772735	89.39939897099029
4	2.0	perception	170	diff_vonmises	0.04533456359846158	2.5974791602592626	5.429595860875992	2.013532246873078	0.5929203081964469	3.37641532312168	0.9318271142822879	-0.5548879914342114	1.4867151057164993	53.22390245171624
5	2.0	wm	170	diff_vonmises	0.23316816074013344	13.359551527237624	2.578101829360712	0.7900299093029611	0.177367154656105	2.1258593676970508	0.07321730770568746	-0.30252027258923225	0.3757375802949197	76.8973133814454
6	3.0	ltm	170	diff_vonmises	-0.1544382651259398	-8.848660787038797	1.1925013140868834	148.186690241057	1.1756316321703795	149.40304873108565	0.007172357132645857	-0.2907424096282831	0.297914766760929	73.21547506295929
7	3.0	perception	170	diff_vonmises	-0.02075466516307396	-1.1891547190513363	4.849556891683299	2.0774686153695643	0.4739844630505528	3.1010785384433377	1.0221561266988806	-0.47929664516440235	1.5014527718632829	57.274956962923255
8	3.0	wm	170	diff_vonmises	0.2884437126097608	16.52660735962374	0.8175244971678411	129.20586146009032	0.7998676558826462	129.99650166917738	0.1955612104238753	-0.2534227390842414	0.4489839495081167	96.51725657240269
9	4.0	ltm	170	diff_vonmises	-0.7347239687473508	-42.096582516325	0.9518658019605415	283.52526783618356	0.9378726806832933	286.1037868142958	-0.09703651585516582	-0.5509775644761064	0.45394104862094053	79.66997603519799
10	4.0	perception	170	diff_vonmises	0.027799626719678283	1.592801283076679	1.6690267721365115	5.155907769064341	0.577822389336936	6.677179008378846	0.6377672296576431	-0.551693433091982	1.1894606627496251	84.46795986407264
11	4.0	wm	170	diff_vonmises	0.04677257371992231	2.6798710711160574	1.6955055658148748	0.7205935558873633	1.7574351859447876e-16	3.665237608966656	-0.24709102972459973	-0.5720170077142294	0.32492597798962963	104.71060087466327
12	5.0	ltm	170	diff_vonmises	-0.13627555486863585	-7.808014144776312	0.9494116630042624	149.81481319796183	0.9308484686804247	150.7848735392098	0.2097177856770287	-0.29121019388786706	0.5009279795648958	88.77231740034675
13	5.0	perception	170	diff_vonmises	-0.13074282213135896	-7.491011909756483	1.1073143423410752	241.84849612447752	1.0853353977381064	242.71345127030028	0.6860713492984161	-0.43421873226045804	1.120290081558874	86.1884082483073
14	5.0	wm	170	diff_vonmises	0.15591845458765488	8.933469396074813	0.792868666880839	2.241482329945651	2.747080245427006e-15	2.972005854962883	0.2045513548573064	-0.3342470401144795	0.5387983949717858	137.39320741044583
15	6.0	ltm	170	diff_vonmises	-0.5378933051797007	-30.819016215139232	0.7670362401223003	118.52608004881989	0.7546593079159217	119.008750411602	0.13771628915495882	-0.16547352795375225	0.30318981710871107	100.14882277223154
16	6.0	perception	170	diff_vonmises	-0.08251048297242265	-4.727502439905861	0.4275628846299569	140.07125492233445	0.41101770280566435	140.76321119569647	0.26758001822476984	-0.34986329433036545	0.6174433125551353	132.1803017138787
17	6.0	wm	170	diff_vonmises	0.19567142116762112	11.21114660423149	0.4178981222819606	3.5440126238114273	6.051351428750875e-17	4.295485866977767	0.13679227245626124	-0.3279611000896174	0.4647533725458786	155.75621561070488
18	7.0	ltm	170	diff_vonmises	-0.5022198127562598	-28.77507565878415	3.5993473734179564	0.2732843221849644	1.1455988790253727e-45	1.806663901993664	-0.08927313041445789	-0.28739126610217613	0.19811813568771824	72.25062031952784
19	7.0	perception	170	diff_vonmises	-0.0720710007012896	-4.12936416546829	2.2159981386521292	1.5247120773103615	9.552262122577629e-14	3.312709822247436	0.3093721390652685	-0.5172861724691468	0.8266583115344153	92.33359887406445
20	7.0	wm	170	diff_vonmises	0.23180550919735668	13.281477344889526	0.7654636102724053	130.2395065338149	0.747736636481626	132.15664338671698	-0.12220922196148365	-0.38211741567238633	0.2599081937109027	86.83608991421127
0	1.0	ltm	171	diff_vonmises	-0.5243536085453309	-30.043248742102357	0.00045120530201361555	1561.8864716592175	9.881935499176668e-24	1562.7866600734362	-0.03109532278395477	-0.2554182449891016	0.22432292220514682	172.27372316753616
1	1.0	perception	171	diff_vonmises	-0.09604320327130425	-5.502870198362795	15.145406776251244	0.7933686365930033	0.14357828844993628	1.9110499741061648	0.8712707593909171	-0.32696842839246515	1.1982391877833822	34.451861653330326
2	1.0	wm	171	diff_vonmises	-0.08631060286507643	-4.945233271398631	3.9481379217064387	0.32171003342512805	1.3285895683666846e-15	0.968827627666172	0.09139758404522574	-0.15410231451122444	0.24549989855645019	68.9211713930323
3	2.0	ltm	171	diff_vonmises	-0.1433779873801864	-8.21495355196466	23.688195930274084	0.22784713566134307	4.938352216854173e-17	0.6154405256681094	0.3420011521734183	-0.0979504018391541	0.4399515540125724	27.797287497820406
4	2.0	perception	171	diff_vonmises	-0.024133903959992927	-1.3827708400816592	8.421024083147318	1.2700427499319937	0.47466087770205195	1.5999444308928994	1.0597050674116915	-0.28439950141109993	1.3441045688227913	45.05853306545427
5	2.0	wm	171	diff_vonmises	0.07792809100693923	4.4649507202090035	3.972811252476282	0.3246081946253526	1.2474863812311866e-12	0.7249193386056	0.13324243829208193	-0.11528641060369436	0.2485288488957763	68.70591691520127
6	3.0	ltm	171	diff_vonmises	-0.20162566753764904	-11.55229979141518	2.4116831099917713	58.197510300024724	2.382908102880385	58.3518456025206	0.14902992269249182	-0.10212687888541261	0.25115680157790443	57.202725553340855
7	3.0	perception	171	diff_vonmises	-0.04213127714102888	-2.413944365676956	3.8730313112752457	2.808481222493018	1.1581421069878908	2.621791834451013	1.1476822162484488	-0.29253378510177064	1.4402160013502194	60.08342985349853
8	3.0	wm	171	diff_vonmises	0.03393939188902788	1.9445839144818358	1.8703341443740307	101.46184258058513	1.8525958329455208	101.4649769239966	0.2885530442454396	-0.09600955399584521	0.3845625982412848	68.76102441178367
9	4.0	ltm	171	diff_vonmises	-0.38055512792773766	-21.804202702320495	21.98707075116281	0.20998023483404468	0.19055962889959294	0.8153625909242256	0.2348755971629957	-0.14678864763619287	0.3816642447991886	28.482435115559127
10	4.0	perception	171	diff_vonmises	-0.1147581576581899	-6.575158098511189	3.2842683918331312	2.0873972391238413	0.21434631796502734	2.762179301708141	0.9003826926153872	-0.38842272820866963	1.288805420824057	71.65039363406274
11	4.0	wm	171	diff_vonmises	-0.3511401105745647	-20.118846353679604	1.0491919611557015	95.8242282216285	1.0341436681094676	96.41245535017407	0.06692476526357183	-0.155571364252598	0.22249612951616982	82.04935824057631
12	5.0	ltm	171	diff_vonmises	0.07020144522266956	4.022246526977802	1.6910802374999667	98.77835877184295	1.6692119515875519	99.13493980375848	0.19844465852745685	-0.1577610175983306	0.35620567612578746	67.9317476611019
13	5.0	perception	171	diff_vonmises	-0.059218923715740085	-3.392994396219086	1.935622616660184	2.352664318478199	0.27048327886074497	2.6211042434473053	0.6529892061368349	-0.29479253986646986	0.9477817460033047	89.99052725391005
14	5.0	wm	171	diff_vonmises	0.03544675037553811	2.0309491939720994	1.9380017288694205	0.7326641241371297	7.596255843490557e-18	1.0573929890725455	0.20254593570442014	-0.16060059561964146	0.3631465313240616	98.47214998409527
15	6.0	ltm	171	diff_vonmises	-0.42605362506248545	-24.41107456232961	1.6397262614143149	0.8422371704265871	8.290169691659152e-17	1.3427016739471183	0.17138559653437943	-0.19919843991059905	0.3705840364449785	105.79243315179518
16	6.0	perception	171	diff_vonmises	0.11527325729503372	6.604671133731061	1.2633368314139404	1.6653199259216103	2.593690124127031e-09	1.9794839631794785	0.3357093990384577	-0.2630303786059511	0.5987397776444088	118.29653729956655
17	6.0	wm	171	diff_vonmises	0.06758452916881734	3.8723082817520393	0.000331291039768387	3266.635436273109	2.1425774812258507e-31	3267.057690560863	0.1050485801731611	-0.23942776418016365	0.34447634435332475	179.7741817940509
18	7.0	ltm	171	diff_vonmises	0.06877442735068619	3.9404844256234144	1.4585175893770896	149.88440643713068	1.4425337853208213	150.6603372561591	0.09511117330775676	-0.22582721158071095	0.3209383848884677	69.03665785116553
19	7.0	perception	171	diff_vonmises	-0.24547860520466877	-14.064888038985684	0.786651894831736	42.06529819842678	0.7251707476529736	42.71742710689794	0.3050295713808282	-0.27749863726152046	0.5825282086423487	102.31198674955715
20	7.0	wm	171	diff_vonmises	0.6539115100420632	37.466369700436765	7.962757964090188	0.251704219484746	2.413527508906249e-36	0.6849136928589331	0.16954097276265856	-0.10900736602154566	0.2785483387842042	48.18058217871618
0	1.0	ltm	172	diff_vonmises	0.02712568873283315	1.5541874807769096	0.07211576026802102	16.76450623389721	4.1602282800733883e-10	19.15020614491567	-0.18390312387066166	-0.5685567289569002	0.3846536050862386	175.81990728595028
1	1.0	perception	172	diff_vonmises	-0.09505897155373125	-5.44647787488295	9.05719978001212	0.9249420368635892	0.18654486445623633	3.3817993072120185	0.45103387177133014	-0.5739200496691907	1.0249539214405208	43.57630574114029
2	1.0	wm	172	diff_vonmises	0.0077275283844087965	0.44275476249417167	1.659331966878636	1.701890630078141	0.28264855081095225	3.7324999258687024	0.01120356099562192	-0.4443587155973847	0.45556227659300663	86.63846585686241
3	2.0	ltm	172	diff_vonmises	0.08915535498223368	5.108225561472646	2.730521237973138	0.4434439614382421	1.951856015925614e-31	1.7786677753785622	-0.007937405562397692	-0.2819146262131027	0.273977220650705	83.21554080683057
4	2.0	perception	172	diff_vonmises	0.0026506574607940746	0.15187148543836396	5.900055118672239	1.367484581475098	0.3609407527927784	2.4553900408042337	0.751577011705853	-0.40140757746856204	1.152984589174415	52.91683471364567
5	2.0	wm	172	diff_vonmises	0.4193704282693442	24.02815559242725	3.4343566591129293	0.5919942751919157	1.1739292972504492e-13	1.4026096641559893	0.19521240944982796	-0.22279715624341287	0.4180095656932408	74.00898319669679
6	3.0	ltm	172	diff_vonmises	-0.24840447387080877	-14.232527964965078	2.484784368976085	0.5797713521261189	0.2011167452180175	1.3224776094818413	0.08568056114001993	-0.18292450585240727	0.2686050669924272	78.29505715971368
7	3.0	perception	172	diff_vonmises	-0.08650379353742484	-4.956302281565489	4.100068781106853	1.6751147036582452	0.09876563620690551	2.326651949841864	0.8976430955996837	-0.3526795545809952	1.2503226501806788	65.99482140495718
8	3.0	wm	172	diff_vonmises	0.1317256942770638	7.547326335506337	0.7578715843314459	80.96233256109468	0.7372041340255632	81.00753761661716	0.3062086659666825	-0.15179843704549878	0.4580071030121813	107.64785965707574
9	4.0	ltm	172	diff_vonmises	-0.22183931423321285	-12.710456435639548	6.408276364332736	0.39291217428901354	5.2811755507863205e-25	1.7567545435943746	0.10878555377916266	-0.27959511460828207	0.3883806683874447	53.79663991942974
10	4.0	perception	172	diff_vonmises	-0.06987412309235704	-4.003492350369663	2.2071753807363605	2.7161940281849897	0.27501366642115993	4.001900429020098	0.663921622589001	-0.4923165880008415	1.1562382105898426	83.0542735132523
11	4.0	wm	172	diff_vonmises	-0.37574572276099666	-21.528644084297824	0.8785285507912757	164.7714493471619	0.8656768966520123	165.99431825849302	0.01711721450659809	-0.27833653237232525	0.29545374687892334	86.3164553757109
12	5.0	ltm	172	diff_vonmises	-0.35473982653569064	-20.325094885698	0.8416606269569464	135.60146317081208	0.8249344489074367	136.64057421419756	0.11247825310316273	-0.2728398695370142	0.38531812264017695	92.10241336440255
13	5.0	perception	172	diff_vonmises	-0.05779516964648198	-3.3114192969860197	1.570100903283932	4.4061768569775825	0.510021366252279	5.490934883602673	0.5970317166419787	-0.4506332268766968	1.0476649435186756	88.79397650378348
14	5.0	wm	172	diff_vonmises	-0.21114009883023557	-12.097436548947588	0.4035554205133421	189.78944657473258	0.39356978327278813	190.36081149661504	0.21785506887191275	-0.2917521673657788	0.5096072362376916	134.06983602983283
15	6.0	ltm	172	diff_vonmises	-0.4379266702108763	-25.091349939300684	0.5750448653167549	70.35856304902813	0.5408023714612707	71.75923296971314	0.09758894267759644	-0.3789370674592609	0.47652601013685736	112.29921401299515
16	6.0	perception	172	diff_vonmises	0.12275839132454729	7.033537722711939	0.5405839097134958	203.41031283381972	0.5249212412999109	204.6297756247548	0.29172895582171066	-0.4563272159848424	0.748056171806553	119.0997418778494
17	6.0	wm	172	diff_vonmises	0.308915474692392	17.699552926154453	0.00026457792570987995	4261.547236009875	4.0108364073123734e-29	4262.807741980202	-0.021157354046181354	-0.38005042008592227	0.3588930660397409	176.96150430971835
18	7.0	ltm	172	diff_vonmises	-0.20715265882593176	-11.868973065639352	0.6570908172693875	67.29260882097809	0.6227568474032982	68.87505732389076	0.011739977461640905	-0.36273546522792266	0.37447544268956356	101.28227839107919
19	7.0	perception	172	diff_vonmises	-0.1988346345959521	-11.392385383373963	0.5601656243513546	151.44458950984878	0.5340175838301103	153.03754425331775	0.3418394886605185	-0.5668082904304068	0.9086477790909253	117.25013207021962
20	7.0	wm	172	diff_vonmises	0.25485127954091336	14.60190272120308	0.8687414504489293	28.639713040285496	0.7776724711869119	29.538456114742555	0.22880263405202683	-0.28950501436042986	0.5183076484124567	95.76144906736107
0	1.0	ltm	173	diff_vonmises	0.0642126642634272	3.6791146535849055	5.9388384844000575	0.3674377506739828	4.152272416337476e-12	3.8319926828298674	-0.2609025122997042	-0.6098781537142712	0.34897564141456705	55.924362811064384
1	1.0	perception	173	diff_vonmises	-0.07422528778123366	-4.2527957230086475	11.03723642294982	0.7562276463373372	0.1032100103676287	4.151086579101716	0.25978148701433645	-0.6905021061869867	0.9502835932013232	39.90556691943425
2	1.0	wm	173	diff_vonmises	-0.12459286402041655	-7.138645265817234	3.3969191623951023	0.6381558813251104	0.0696232633874238	3.8405687965578754	-0.20620750694477308	-0.5957216027744504	0.38951409582967733	69.27838661866335
3	2.0	ltm	173	diff_vonmises	-0.030811715885184922	-1.7653812797772914	2.0705344745420833	0.6545445521608895	4.235398054541038e-30	2.626697539245902	-0.07325057794399131	-0.412567352388373	0.3393167744443817	95.42626264421546
4	2.0	perception	173	diff_vonmises	-0.008769040647604684	-0.5024290194864146	6.816143146508325	1.377103651201138	0.30378178032536873	3.2628850850867104	0.7179320791038959	-0.5496436294713556	1.2675757085752515	49.43694655337646
5	2.0	wm	173	diff_vonmises	0.12445152261032538	7.130546999548582	3.184919594729637	0.8006830124250967	0.16096988931624376	2.554284592362311	0.06805851830710524	-0.381556391917389	0.44961491022449424	70.1980595033209
6	3.0	ltm	173	diff_vonmises	-0.24733757900880787	-14.171399392188235	2.2298883532832106	1.026145819156063	0.21945396326701821	2.4851900784943237	0.07843398161962234	-0.3351833434965793	0.41361732511620164	80.39954719197017
7	3.0	perception	173	diff_vonmises	-0.0700764806692051	-4.015086585475551	3.2715165628205045	2.8502169053182382	0.48060488551509245	4.179192155396825	0.9445539093221551	-0.5562773835170691	1.5008312928392242	67.40715122375533
8	3.0	wm	173	diff_vonmises	-0.001698016782185839	-0.09728919516163337	2.157164590454023	1.4583490949035116	0.29257043810103	2.490283810235168	0.26754568827826253	-0.30771784469566604	0.5752635329739286	82.02119312783168
9	4.0	ltm	173	diff_vonmises	-0.13069194535745476	-7.488096885336531	0.6667342816919216	66.3685393248555	0.6258349766388528	68.87435769108602	-0.16196882716781502	-0.49573108112418396	0.33376225395636894	94.22710239823597
10	4.0	perception	173	diff_vonmises	-0.09806380212719276	-5.61864198489417	1.5763052874285721	6.19761784724809	0.5807312340482251	8.213621219478872	0.6152619908400139	-0.6552863726638984	1.2705483635039123	85.15397838386525
11	4.0	wm	173	diff_vonmises	-0.20456850826373985	-11.720912144799398	0.5927740543675163	193.85513151764465	0.5808776017701373	196.24277216165518	-0.18951009329268942	-0.45913188598156296	0.26962179268887354	96.9545681820749
12	5.0	ltm	173	diff_vonmises	-0.1221787698431785	-7.000327858114387	1.1693115702755599	2.804337245729924	0.334088412614333	4.359031568242591	0.10482433208301867	-0.39101372100073517	0.49583805308375384	98.96975294451953
13	5.0	perception	173	diff_vonmises	-0.06546996344617677	-3.7511525903417033	0.9757329499205222	354.0174275157454	0.9589567843269715	355.699080486134	0.5648858766268177	-0.5777970842918805	1.1426829609186981	89.05639608134769
14	5.0	wm	173	diff_vonmises	-0.16081593665680255	-9.214074448877971	0.46127621516554074	153.46726813934745	0.44601313909204154	154.84796929416217	0.10756822034005609	-0.4088345014151695	0.5164027217552256	124.44797279260764
15	6.0	ltm	173	diff_vonmises	-0.4041445672158877	-23.15577801461158	0.7121957923276031	210.5157574669223	0.6992498071450546	212.2462004154016	0.02741519834643924	-0.3975147607622631	0.42492995910870235	96.62609554893152
16	6.0	perception	173	diff_vonmises	0.0644586379441938	3.69320790736413	0.7435944327284746	4.726462954854413	0.16549643793835836	6.398652635260341	0.19076884489955592	-0.5443142696462622	0.7350831145458181	128.19618203663828
17	6.0	wm	173	diff_vonmises	0.12545167308048807	7.18785140036693	0.6727809563884988	2.0528650885913042	1.3329564733939937e-17	3.802753198483475	-0.03171289318408166	-0.4558866383497024	0.42417374516562073	143.1808480512254
18	7.0	ltm	173	diff_vonmises	-0.4255391749435677	-24.38159874174562	0.8882000567586764	95.9044021935422	0.8591966799594543	97.65515001640405	-0.021050161134418488	-0.3832981895423053	0.36224802840788684	84.75457380178825
19	7.0	perception	173	diff_vonmises	-0.08615705294832972	-4.9364355092244585	0.4168633154217332	268.86570131393904	0.4046862679529028	271.0454580370316	0.10270526395162705	-0.6203503189206536	0.7230555828722807	128.72320112691693
20	7.0	wm	173	diff_vonmises	0.29854143405441225	17.10516418110101	0.8572149417278948	163.0026019029205	0.840121025179184	164.85920459972544	-0.04626917313318302	-0.3975266914212625	0.3512575182880795	85.17903316932146
0	1.0	ltm	174	diff_vonmises	-0.5731368961616928	-32.838325233292714	0.0015579799755091287	243.8291804974707	1.5503640430631616e-23	247.02332224175237	-0.4478802161509492	-0.568799582008225	0.1209193658572758	170.75872604608824
1	1.0	perception	174	diff_vonmises	-0.019958003409960866	-1.143509362898463	8.88738141490751	0.8967191995992145	0.03566330570133877	4.393543060701521	0.32619400406636045	-0.7045812605958388	1.0307752646621993	45.05949984855653
2	1.0	wm	174	diff_vonmises	-0.011350198204601564	-0.650318453760634	5.229158593213088	0.42146731072742	0.06701111061941376	3.615462855465434	-0.24035665952549196	-0.5770714132877333	0.3367147537622413	56.44576819555576
3	2.0	ltm	174	diff_vonmises	-0.11496117498666414	-6.5867901346007836	3.603713906549346	0.293560451920459	1.3209054872917927e-29	1.607568439282258	-0.04274689400078566	-0.25569450967230817	0.2129476156715225	72.23172922247042
4	2.0	perception	174	diff_vonmises	0.003674947880818754	0.21055900350146045	7.524554679884583	1.6665808379649556	0.4451183846103576	3.1591770895915237	1.0440953695160131	-0.5570226731486478	1.601118042664661	46.83916126890236
5	2.0	wm	174	diff_vonmises	0.07704098506526645	4.414123293770174	2.6706839931771347	0.8181168322790197	0.19720543251222405	2.373081813792627	0.04552629921546214	-0.34019056218213706	0.3857168613975992	74.59731721656706
6	3.0	ltm	174	diff_vonmises	-0.1875914009192874	-10.74819554562172	1.1577939694980313	71.35424100906833	1.1379868010691858	72.03832089259573	0.01150876369336018	-0.16396899040424806	0.17547775409760824	74.875935172992
7	3.0	perception	174	diff_vonmises	-0.032326508466248266	-1.8521725015099497	4.4163152349511385	2.2763621810885097	0.7851352913530795	2.719015388386717	1.0288868032837502	-0.38814383276019415	1.4170306360439442	57.999304641243356
8	3.0	wm	174	diff_vonmises	0.07382822948668254	4.230045958510206	1.274671926091082	147.14987601173246	1.25952632896409	147.72838151674787	0.18169679702516106	-0.1950302328634237	0.37672702988858475	77.09633608767177
9	4.0	ltm	174	diff_vonmises	-0.6292918306314074	-36.05576597724106	0.743338390325248	149.87021875291066	0.7271528022097353	152.11450025743213	-0.18732850328736106	-0.4322007206936789	0.24487221740631782	85.55452539177294
10	4.0	perception	174	diff_vonmises	-0.030578417366068138	-1.7520142592652475	3.2977964619025437	1.9409660277900513	0.17320153611501268	3.033964138510217	0.7712140199261116	-0.4373518384811176	1.2085658584072292	71.66783844145328
11	4.0	wm	174	diff_vonmises	0.08642090447583888	4.951553088168813	0.5588021095785191	101.5017220930326	0.5357501463834966	104.06215835820078	-0.20866728505544074	-0.4915648481341659	0.28289756307872516	100.29344446178146
12	5.0	ltm	174	diff_vonmises	-0.001911007667438827	-0.10949267396138478	1.5278575687507514	2.0929737580889687	0.47717469738548635	3.413122101820004	0.08913205598828933	-0.3202642200898681	0.40939627607815743	84.7473820289714
13	5.0	perception	174	diff_vonmises	-0.11388075011926008	-6.524886349617549	1.1118888251926233	195.99253963488854	1.0828886906855941	197.14075112694945	0.6540888038545063	-0.4849477553636845	1.1390365592181908	85.16795907233077
14	5.0	wm	174	diff_vonmises	0.14785319819712797	8.471364244206706	0.9083770936192354	1.72962852463688	1.0706583893520287e-10	2.9145124429493237	0.09707333090714293	-0.3726724872442832	0.46974581815142613	132.26490025131642
15	6.0	ltm	174	diff_vonmises	-0.497078086285981	-28.480476432626478	0.6783420372869956	130.7142496569513	0.6658860512745105	131.49293016176222	0.09335449896509829	-0.2175072564304692	0.3108617553955675	103.45155972914199
16	6.0	perception	174	diff_vonmises	0.1893896691938272	10.851228728185122	0.03028732064310966	204.6176334464517	0.019458358112736853	205.46354350274007	0.21972017701315139	-0.48023744114353306	0.6999576181566844	175.97695694951904
17	6.0	wm	174	diff_vonmises	0.13354907487255638	7.651798348074113	0.6422564731299809	2.586141503333193	1.0317261409782754e-13	3.6813465457823504	0.12157550296896813	-0.3900797475714883	0.5116552505404564	144.64422791709143
18	7.0	ltm	174	diff_vonmises	-1.1417392703708698	-65.41684149659685	0.00017577573931523133	3322.2884314190737	3.424223822640346e-30	3323.40138886405	-0.08418811646015456	-0.27006907348561526	0.1858809570254607	146.04036095749018
19	7.0	perception	174	diff_vonmises	-0.02722668847671121	-1.5599743398330248	1.9462870030060426	1.1932884507164774	2.2950923894440948e-15	2.5995631291720955	0.19177376835450832	-0.40138392706444787	0.5931576954189561	98.28242646764593
20	7.0	wm	174	diff_vonmises	0.21504697792100197	12.321284231916412	0.5788572659211924	123.91013127889485	0.5656068835204705	125.30080068432714	-0.050419484837846085	-0.2954848943505599	0.24506540951271383	103.95529764033157
0	1.0	ltm	175	diff_vonmises	-0.7080340580703751	-40.56736327895314	0.052400122013003085	22.19701812301511	0.023331080522367275	24.30050854722665	-0.2380409730186286	-0.4277256585275033	0.18968468550887474	162.6240160419019
1	1.0	perception	175	diff_vonmises	-0.11040200841496547	-6.325569131945321	14.421629509499304	0.6441379520086059	1.0241467201790932e-17	2.993697427971868	0.4904561816579809	-0.4764617437829283	0.9669179254409093	35.68263596826759
2	1.0	wm	175	diff_vonmises	-0.12831103136906655	-7.351680562418227	4.17699133320768	0.4835427306109063	0.1235033979394771	2.423952641402075	-0.0542228005192697	-0.3805932429104434	0.3263704423911737	61.94419032417525
3	2.0	ltm	175	diff_vonmises	-0.12148644645868414	-6.960660650124647	4.474016989530213	0.37456454967439984	3.3296687686502075e-20	1.5099932215412724	0.06569461940079643	-0.2402831051862387	0.3059777245870351	64.63725614447489
4	2.0	perception	175	diff_vonmises	0.01858351803523318	1.0647571519241092	6.36487782000649	1.6436081165337477	0.521547623292901	2.8378376769789404	0.907358677726152	-0.48559198138065657	1.3929506591068086	50.16358278785302
5	2.0	wm	175	diff_vonmises	0.2090181125424088	11.97585569047048	3.219569126071943	0.5177802873650896	0.060045901473649375	1.686683307415569	0.06817479329531145	-0.25806375825957945	0.3262385515548909	73.39279215572043
6	3.0	ltm	175	diff_vonmises	-0.16046821260032482	-9.19415132800663	1.4451626905457722	134.15723018227249	1.4251584117369482	135.11191021947295	0.07477744978434231	-0.2648987643676577	0.339676214152	68.44421694420731
7	3.0	perception	175	diff_vonmises	-0.029085267620316654	-1.6664630806526555	4.137275798542669	2.5483875998215124	0.6774891517287779	3.4050637282842278	1.0412307944279096	-0.4846420292176363	1.5258728236455459	59.81737799435089
8	3.0	wm	175	diff_vonmises	0.18257252129143234	10.460634925061434	1.0969187157832958	139.50229920073332	1.0797088149528475	140.15232920093194	0.2181907760753532	-0.22130911631523986	0.43949989239059306	83.76143969844262
9	4.0	ltm	175	diff_vonmises	-0.5144444283042702	-29.47549453585515	1.8546776156142537	1.648173607503004	0.5066220451832621	3.537812219024248	-0.06506690729758269	-0.40304231782830463	0.33797541053072194	74.28927958409928
10	4.0	perception	175	diff_vonmises	-0.05511457302426223	-3.1578324239558038	1.8777904338916396	4.129594420975336	0.5138195258777566	5.62027757711551	0.6492611472591248	-0.5412106060428039	1.1904717533019287	82.42222671877164
11	4.0	wm	175	diff_vonmises	-0.2668973104335458	-15.292089451235126	0.7477053380642742	169.55055388879148	0.7342762922516541	171.5592206257037	-0.15014044800777526	-0.392544410171233	0.24240396216345772	86.42531920704229
12	5.0	ltm	175	diff_vonmises	-0.0759322030707886	-4.3505947650864965	1.1353529386325523	129.26538419601943	1.1139011413305813	130.05802254874828	0.22972984835739396	-0.2575938064998642	0.48732365485725815	81.8240091097432
13	5.0	perception	175	diff_vonmises	-0.10883776707201666	-6.235944704854478	1.061107579395774	223.2675654429485	1.0391999466118007	224.0620860272964	0.6434884775188152	-0.40700998554639156	1.0504984630652068	88.15838744006487
14	5.0	wm	175	diff_vonmises	0.0849359765256695	4.866472983743096	1.0964765538343126	1.4877882982130515	6.799903238005853e-17	2.1221490639833305	0.19766677645306857	-0.2780046910386073	0.4756714674916759	124.60094838071362
15	6.0	ltm	175	diff_vonmises	-0.45037743560173715	-25.804726247904565	0.796764060582264	126.5771789662919	0.7839050432863159	127.17913988586986	0.12990402427401193	-0.18605822131583594	0.31596224558984787	97.1471031837477
16	6.0	perception	175	diff_vonmises	-0.035840402861159026	-2.0535038199930122	0.49139938065354827	121.79078852639573	0.4730401521706759	122.5119393212607	0.24241011922984512	-0.3237817744097189	0.566191893639564	125.32626599344395
17	6.0	wm	175	diff_vonmises	0.18133881553174017	10.389948791870093	0.10451428856524746	11.10942349883774	1.5419204235524485e-10	11.85043220417641	0.0715066377081246	-0.29773648815668863	0.3692431258648132	173.00838178739326
18	7.0	ltm	175	diff_vonmises	-0.057373315932574026	-3.2872488596071747	1.2491152168179709	143.4627873819608	1.2305488852264652	144.80261108673085	-0.026513725544191402	-0.31676810864803784	0.29025438310384644	70.32433287300532
19	7.0	perception	175	diff_vonmises	-0.18045470150157483	-10.339292789333317	0.7210043786497473	86.69735033065896	0.6811639887990134	88.18155430872802	0.24132780171840906	-0.4389074264305428	0.6802352281489519	102.29163705102681
20	7.0	wm	175	diff_vonmises	0.6728576056498362	38.55190101701351	15.712897983508428	0.2255994412168225	0.06270011170167288	1.5569600970061	0.09009434811334299	-0.25646962133049483	0.3465639694438378	33.78299186426318
0	1.0	ltm	176	diff_vonmises	-0.17423732916878862	-9.98306359500326	0.00023097782426147135	3243.551028858167	1.8034842157869833e-31	3247.010215615751	-0.4313027612853375	-0.6697768112576341	0.2384740499722966	179.11941127888247
1	1.0	perception	176	diff_vonmises	-0.05914890237429082	-3.388982468878198	6.8481686226732625	1.3910995576679486	0.27933916822696386	4.773267493264376	0.4383309604125767	-0.8119767078565961	1.2503076682691727	48.70242338888556
2	1.0	wm	176	diff_vonmises	-0.060308780984832666	-3.4554386180097443	4.099410034727441	0.489240039279985	0.03923931612672706	3.5811155064299673	-0.21135900941289332	-0.5634725422065499	0.35211353279365654	64.76806594633939
3	2.0	ltm	176	diff_vonmises	-0.28037588309424244	-16.06435477855346	0.939893599118757	1.0846001333453366	2.3586524816675556e-28	3.341351645827544	-0.1735355127945601	-0.477114440281689	0.3035789274871289	130.47060745137895
4	2.0	perception	176	diff_vonmises	-0.04810712466449634	-2.7563352077853467	8.688743910199827	1.2330916050781773	0.14382928443356374	3.415314420100433	0.8034579537870775	-0.5651880136205336	1.3686459674076112	45.01636231864788
5	2.0	wm	176	diff_vonmises	0.30578893585553385	17.52041544631874	3.219311809231346	0.6051469765631521	4.385193224384071e-15	2.5918469666078296	-3.696140844483553e-05	-0.4118457336660265	0.41180877225758167	76.51613519102062
6	3.0	ltm	176	diff_vonmises	-0.19020026712191024	-10.89767256834633	1.3412463824114644	0.9995216199425373	2.6030547815988935e-17	2.1799376517842886	0.057793140923576125	-0.3192665042107296	0.37705964513430573	115.49046824488491
7	3.0	perception	176	diff_vonmises	-0.12114972519165017	-6.941367942651303	1.3275972513909668	99.13454087391294	1.2587619098132787	100.12841288697257	0.8542686048905281	-0.5147304379823812	1.3689990428729093	79.34099959900166
8	3.0	wm	176	diff_vonmises	-0.07062696921511658	-4.046627255826572	1.0554091032274597	170.3278411339774	1.0399627195383043	170.90477417768213	0.293962995452155	-0.23257008850406002	0.526533083956215	86.86501981245647
9	4.0	ltm	176	diff_vonmises	-0.11752603102353767	-6.733745560572287	4.909313072587462	0.5700357099686596	0.26495505400144226	3.1146472652102326	-0.14543382619879364	-0.5160937201647923	0.37065989396599863	54.12007046144333
10	4.0	perception	176	diff_vonmises	-0.16794446376545788	-9.622508966348517	2.241617955483743	2.7016857557689096	0.2712279231915675	4.426683673133435	0.5852857818509823	-0.5568107786231629	1.1420965604741453	81.81543805533542
11	4.0	wm	176	diff_vonmises	-0.5977181945723895	-34.24672988717727	0.9017240677679711	145.08354186028185	0.8815169354581616	147.45188413383727	-0.19739867164329183	-0.4713837353096615	0.27398506366636965	77.68728790133592
12	5.0	ltm	176	diff_vonmises	-0.372792029283007	-21.359409914033698	0.5447878321073237	165.25060705141993	0.5315836837428816	166.64478325021886	0.05781130942396118	-0.3595998668348752	0.4174111762588364	113.17213961744501
13	5.0	perception	176	diff_vonmises	-0.09996489549345208	-5.727566611241147	3.18272025311061	2.05301122186888	0.09065033416930467	3.489303547621358	0.7836609891387384	-0.5183479891957432	1.3020089783344817	74.34323380285815
14	5.0	wm	176	diff_vonmises	-0.39537393874388627	-22.653258019488625	0.4819038837040812	163.57516148925745	0.4691805409124476	164.75366781739143	0.10342235898087182	-0.3508752338750263	0.4542975928558981	121.78666696199247
15	6.0	ltm	176	diff_vonmises	-0.26304457220350236	-15.071343811084935	1.4357370167571881	0.6809097766739882	1.6660571536476173e-20	2.126170926367001	-0.05115826608120183	-0.3221287989325737	0.27097053285137185	112.24004038661498
16	6.0	perception	176	diff_vonmises	0.25560542900366895	14.645112302541033	0.00021253105551286992	9113.15994209026	1.6540710436500557e-30	9114.402625287757	0.11048727847355622	-0.5060128711595553	0.6165001496331115	177.86639808991075
17	6.0	wm	176	diff_vonmises	0.33444556806248765	19.16231952683586	0.0003348482312895839	1832.817303079763	4.6200843429992575e-29	1834.2839283153992	-0.13573699576119225	-0.33108796303406507	0.19535096727287282	176.4704771791712
18	7.0	ltm	176	diff_vonmises	-0.49998154824069524	-28.64683254860841	0.5228147464455523	79.77794532013547	0.4979508670635182	80.78440509874588	0.12336469701956787	-0.31326894648413806	0.4366336435037059	118.70030742601139
19	7.0	perception	176	diff_vonmises	-0.20677886124218775	-11.847556041698633	0.5657034569250229	280.7766667958095	0.5538157233716536	282.3643041272995	0.22122892298718	-0.4914996231222801	0.7127285461094601	114.41301711821667
20	7.0	wm	176	diff_vonmises	0.2220540385502317	12.722759232763558	1.9831411610590228	1.3125622955270764	0.25736309647236183	2.5522236006799557	0.15682981404274765	-0.3188351042187305	0.47566491826147816	84.51157639865022
0	1.0	ltm	177	diff_vonmises	0.44184194506877517	25.315678664291973	0.35387986472926725	191.51775652367058	0.33797578768176445	195.82347302476853	-0.3822451780461691	-0.8648004919250312	0.4825553138788621	126.2897581779363
1	1.0	perception	177	diff_vonmises	0.04259009642800681	2.4402327743799934	9.169921891493638	0.8469074867991804	0.05398561697331602	5.093138234731211	0.15320895550982538	-0.82364128581437	0.9768502413241954	44.05806274137487
2	1.0	wm	177	diff_vonmises	0.15300657121271571	8.766630768256489	1.6113921417670933	1.5813296652422406	0.10765364084295588	5.869691525865303	-0.3219638195240998	-0.8190751087252499	0.4971112892011501	93.09578221414603
3	2.0	ltm	177	diff_vonmises	0.2855465824630232	16.36061402951556	0.9632480589007701	0.941755915350446	1.8735442841757832e-17	2.7683123086433725	-0.1253461858697435	-0.39467106987121225	0.26932488400146876	129.38800762011857
4	2.0	perception	177	diff_vonmises	-0.00918810024759752	-0.5264393659304446	6.992226813952441	1.338859141326481	0.27493657441130004	2.8390167733765046	0.8011635399426194	-0.474134257011907	1.2752977969545263	49.283272225793894
5	2.0	wm	177	diff_vonmises	0.0044660507806905045	0.2558858608246723	2.5789696683872743	1.8166589477905208	0.570129124600981	3.3913493745601655	0.20888958005495661	-0.4211626664894217	0.6300522465443783	69.235209583473
6	3.0	ltm	177	diff_vonmises	-0.2839065795644198	-16.26664878503636	1.8134204679671944	0.7578696418346881	0.28274123307038296	1.5665451516152515	0.044140176676742415	-0.1896617899736016	0.23380196665034403	85.25199622540019
7	3.0	perception	177	diff_vonmises	-0.054302963463964335	-3.1113306215382655	4.197571538740557	1.8901196037245032	0.2718163372905362	2.4415696945827037	0.9911884977926312	-0.35919703103333445	1.3503855288259656	63.455322135048476
8	3.0	wm	177	diff_vonmises	-0.06876693943231633	-3.9400553995034833	3.5677009273518636	0.7323925308025043	6.866245319043687e-25	1.406586976488884	0.3049012048685311	-0.22344415592864206	0.5283453607971732	72.6003840898808
9	4.0	ltm	177	diff_vonmises	-0.4432437572291317	-25.395996584750517	0.00045382020766799604	3123.2714342122326	5.662383132413666e-22	3125.209560701358	-0.08285540757765375	-0.5340182315521247	0.45116282397447094	174.43870574980502
10	4.0	perception	177	diff_vonmises	-0.03996928947279163	-2.2900715969276315	2.981704147246592	2.4546027650654487	0.12451297327785288	3.685017714431437	0.9403133419465605	-0.5312341043552232	1.4715474463017837	76.18936425181505
11	4.0	wm	177	diff_vonmises	-0.04788126984689679	-2.7433946799541955	0.6088750537496301	174.83386789846742	0.5931668214205952	176.7336671549907	0.017796754112637814	-0.4426497490278507	0.4604465031404885	104.86442984395022
12	5.0	ltm	177	diff_vonmises	0.134903454195786	7.729398567154956	0.345166870101646	174.01079107055472	0.3339035414848253	176.03865092149329	-0.08394011441541949	-0.4768041366278055	0.39286402221238603	133.84463928731378
13	5.0	perception	177	diff_vonmises	-0.0038214978626021326	-0.21895569894536715	0.9069851647459259	317.56039127135773	0.8882085435876405	319.4879292632605	0.5180271157045269	-0.6206048639379489	1.1386319796424758	91.74460465905338
14	5.0	wm	177	diff_vonmises	-0.07368708893700475	-4.221959200695512	0.29993896457482255	149.6168044077841	0.2842178507537015	151.6392500325927	0.000700787282799098	-0.5506414517351992	0.5513422390179983	142.64436211312693
15	6.0	ltm	177	diff_vonmises	-0.5195946104770125	-29.7705782380768	0.5617905541400643	313.41864362345405	0.5506625803024356	315.7786963965621	0.052212317975573797	-0.5768274733676009	0.6290397913431747	110.12850062104522
16	6.0	perception	177	diff_vonmises	0.0884386067694077	5.067158913904173	0.6250583996562095	240.76821478073077	0.6038277896454537	242.6860728973227	0.4580952675622001	-0.6719561159223879	1.130051383484588	111.07518938711362
17	6.0	wm	177	diff_vonmises	-0.004136827739965788	-0.23702277007268246	0.4116565385976071	270.5968913718979	0.39796616631616877	272.88338820882933	0.1593785396820948	-0.6876458188615757	0.8470243585436705	130.17369267118988
18	7.0	ltm	177	diff_vonmises	-0.7049761943988637	-40.392160596249155	6.642246267234059	0.31963177879907356	7.051079255099999e-33	2.2022800598541608	-0.028597267805214044	-0.35050320997375395	0.3219059421685399	52.82414996798717
19	7.0	perception	177	diff_vonmises	0.09264171570966107	5.307979317014396	0.45889732993709437	270.6319180314406	0.445425196504346	272.72768631166343	0.1800943987683894	-0.6318689140055582	0.8119633127739476	124.90390318218114
20	7.0	wm	177	diff_vonmises	0.18168283001255642	10.409659369712248	0.5223395520828035	152.12762184711002	0.5060467547214322	154.0166564367384	-0.0039997468356602894	-0.4464683509968683	0.44246860416120803	113.26833307169514
0	1.0	ltm	178	diff_vonmises	-0.21349710475079095	-12.232483040482759	2.2480767739062153	0.3779927766137479	1.5712270245981254e-32	2.889386589026302	-0.2506710878212637	-0.45752723523424915	0.20685614741298547	91.65155029672877
1	1.0	perception	178	diff_vonmises	-0.04815567172180305	-2.759116749276801	11.74124254418421	0.6941837023117146	1.8477790690607353e-17	3.5019105645442608	0.38098368060986487	-0.5573463765535016	0.9383300571633665	39.57744401827114
2	1.0	wm	178	diff_vonmises	-0.01817655927796454	-1.041440132696727	3.634902331988993	0.5188828788548357	0.038979640631529255	2.948481696251272	-0.1092226441425343	-0.46061958195888053	0.35139693781634623	69.07410630478898
3	2.0	ltm	178	diff_vonmises	-0.001078492624476809	-0.06179307561850873	3.446950789052932	0.30436938457238977	1.1948287211833083e-49	1.289049692553363	0.010420736188861357	-0.2049400428624592	0.21536077905132056	73.89245241612855
4	2.0	perception	178	diff_vonmises	0.013855278876327561	0.793849003590331	6.998295763123351	1.5754609160050583	0.5432424442895428	2.499806615586049	0.9936298862366529	-0.4378467907752834	1.4314766770119363	48.228360232319915
5	2.0	wm	178	diff_vonmises	0.06320885166227713	3.621600428116958	2.79084741775411	0.9330357838068277	0.4007719392029335	1.9542831721687446	0.13999106240875392	-0.2636731108287511	0.40366417323750503	70.1722655323517
6	3.0	ltm	178	diff_vonmises	-0.22431040945307187	-12.852039762512423	1.5308357572957034	87.62286326687885	1.5125303806648358	88.16311975931421	0.04411980355428824	-0.1544718771725755	0.19859168072686373	66.43554333322342
7	3.0	perception	178	diff_vonmises	-0.02702487461663812	-1.5484112574035929	5.156598492713078	1.937529832050681	0.6962480745597702	2.207995185391571	1.0809306256724973	-0.3391108074223762	1.4200414330948736	55.194161361458356
8	3.0	wm	178	diff_vonmises	0.10203538339037266	5.846196829267614	1.6935383430078215	2.7814354106774717	0.9672335129627776	3.2148845298631548	0.21840561283957594	-0.1716214279732986	0.39002704081287454	77.02382895787414
9	4.0	ltm	178	diff_vonmises	-0.5232418520394233	-29.979549786467643	0.5263749849417835	47.08777248908015	0.49094187974432	48.54792725602623	-0.04555924216520246	-0.3215762895542893	0.27601704738908683	111.40303764043712
10	4.0	perception	178	diff_vonmises	-0.0152205196484322	-0.8720715378511086	3.0139845834602466	2.2963347997823913	0.26293935221985826	3.2040345107835733	0.855999345769061	-0.43505290168769384	1.2910522474567547	73.43270805205046
11	4.0	wm	178	diff_vonmises	0.02054893564870665	1.1773672861568136	0.6859683353988786	161.58895195862257	0.671727255221478	163.21197706511623	-0.014949461630827443	-0.3571330126093244	0.34218355097849695	97.02934438765297
12	5.0	ltm	178	diff_vonmises	0.04082108540263332	2.338875908713982	1.029113445860393	115.39536895532102	1.0061473025974756	116.54233322977721	0.10727114117280223	-0.2949937432253904	0.40226488439819263	82.51540371051416
13	5.0	perception	178	diff_vonmises	-0.06762578877255003	-3.8746722829103044	0.995382482169929	335.8642072982437	0.9809883586414825	336.89422583936425	0.5672006870735089	-0.4351015393276114	1.0023022264011203	89.77200850771229
14	5.0	wm	178	diff_vonmises	0.21301758982703412	12.205008859137955	0.847322337568508	1.9959857272910528	6.977019216935899e-13	2.9776092629550357	0.1501984124830496	-0.35927505377737506	0.5094734662604247	134.70256462650042
15	6.0	ltm	178	diff_vonmises	-0.535219279195532	-30.665805811938053	0.7302226506228661	175.21090570880804	0.7172752381319378	176.0274828127066	0.19770952634082306	-0.26875251754175267	0.4664620438825757	102.12383878689215
16	6.0	perception	178	diff_vonmises	-0.012416114990292729	-0.7113909868928885	0.6990034993799298	225.78599274223765	0.683543081990314	226.6282439730063	0.42803274044462825	-0.3904092240782262	0.8184419645228544	107.32577608068895
17	6.0	wm	178	diff_vonmises	0.08619909921742336	4.938844582987795	0.5807311984568567	3.648746989894616	2.6612571243587333e-19	4.598578483802735	0.22376569092510012	-0.43274033453362776	0.6565060254587278	147.87860938977323
18	7.0	ltm	178	diff_vonmises	0.023876637723494982	1.3680305705191123	1.1116734449890402	125.82601026518505	1.0945296073567312	127.27869939657413	-0.11855249346643859	-0.30873728301391523	0.19018478954747664	70.23565593196358
19	7.0	perception	178	diff_vonmises	-0.016897275044578195	-0.9681425453260606	1.4856826894702524	1.6244658191380297	2.0587726018895724e-19	3.0698714651541055	0.2109820337462131	-0.45274405621162567	0.6637260899578388	110.90778123901202
20	7.0	wm	178	diff_vonmises	0.24170009774828488	13.848395508876175	0.5216325696962846	120.3332165591832	0.508484268609419	121.68646614790651	-0.039660510140961946	-0.2985732321452925	0.2589127220043306	110.81552681412185
0	1.0	ltm	179	diff_vonmises	-0.09256967694271405	-5.3038517997070045	2.063888006412388	0.577197694363676	3.319934168090509e-33	3.0131128041408695	-0.17608733989612568	-0.4746600644216022	0.2985727245254765	95.56527368028888
1	1.0	perception	179	diff_vonmises	-0.10417168866834221	-5.968598105446792	11.834492298548268	0.6941238396597978	0.06026898475618628	3.254683460042089	0.3924715714073619	-0.5308258460163283	0.9232974174236902	38.960614829042214
2	1.0	wm	179	diff_vonmises	-0.0829379703292317	-4.751995661246223	2.7223727085123306	0.8210270823131808	0.13361486297840375	2.992709582049231	-0.03343517120079098	-0.44256740668528466	0.4091322354844937	75.14087196932775
3	2.0	ltm	179	diff_vonmises	0.036816386977195435	2.109423590713705	2.6590413225205958	0.4685177467124029	2.9345062827289155e-24	1.7530536285252212	0.007255406644979423	-0.2776038366354176	0.284859243280397	84.33939784773034
4	2.0	perception	179	diff_vonmises	0.019751868341577036	1.131698693470429	5.85957745187851	1.518150207580718	0.4643761613865273	2.673529273603495	0.7899167844112838	-0.44345549039350174	1.2333722748047855	52.3403719095561
5	2.0	wm	179	diff_vonmises	0.3142227555656166	18.00363772088073	3.1889750171623112	0.6256846004157306	0.09830263486467415	1.6043338460578238	0.1432099424221263	-0.2406632374663038	0.3838731798884301	73.01055945738392
6	3.0	ltm	179	diff_vonmises	-0.22081798650993265	-12.651938667595887	1.2115049047631297	78.28411781225427	1.1822166355695694	79.21826884094459	0.07260930700937962	-0.24293761274961412	0.31554691975899374	75.32027654067022
7	3.0	perception	179	diff_vonmises	-0.05820043935646889	-3.3346395409327605	4.600217550613332	1.8210237955196378	0.2654840655604945	2.690203485752904	0.9614523558478987	-0.40800648455774224	1.369458840405641	60.58739504650316
8	3.0	wm	179	diff_vonmises	0.19734809462245984	11.307212916815367	0.8387603147506265	86.71456844585728	0.8158014143847262	87.08645855078672	0.26602308321984225	-0.19171784305888462	0.45774092627872687	99.08674158742656
9	4.0	ltm	179	diff_vonmises	-0.3325521054733124	-19.053832111810202	4.352585400102504	0.4516913752227771	3.0260691883066395e-20	2.1277907452385048	0.024941781395963203	-0.33858815815234916	0.36352993954831236	65.55329112608624
10	4.0	perception	179	diff_vonmises	-0.041509901333848465	-2.3783421544339833	1.7521489089625153	4.4270831687991725	0.5092352120870259	5.90137508111242	0.6412552565833269	-0.5403298172168698	1.1815850738001967	84.68969542640747
11	4.0	wm	179	diff_vonmises	-0.26628433540037333	-15.256968568887451	0.7639459695127707	203.01658233228255	0.7527932508353536	204.66487392371417	-0.0533443393495574	-0.34631416426725536	0.29296982491769796	89.76674481432349
12	5.0	ltm	179	diff_vonmises	-0.19668833317390005	-11.269411370327452	0.9384224130588356	152.66094430768007	0.9213354107924893	153.67141019189614	0.16579548236025232	-0.2841923878367396	0.44998787019699193	88.30098347292109
13	5.0	perception	179	diff_vonmises	-0.07386081893834041	-4.231913196546848	0.9900196955465834	309.84369431223104	0.9739600332422119	310.9150850413681	0.5818961825911231	-0.45015109766832495	1.032047280259448	90.01804258436621
14	5.0	wm	179	diff_vonmises	-0.03655000836115409	-2.094161220262	0.4290025811278245	73.7239931459713	0.4022900727060612	74.37554567427993	0.21352509973053202	-0.3051365124953689	0.5186616122259009	132.27336229673736
15	6.0	ltm	179	diff_vonmises	-0.47154734599513287	-27.017672766116277	0.7201034616292113	184.0514929450946	0.7072101329387778	185.1384955777426	0.14174737014497651	-0.3038381893299871	0.4455855594749636	100.53808493909041
16	6.0	perception	179	diff_vonmises	-0.00976306379711534	-0.5593823506916767	0.6617105845133321	212.71606355174086	0.6464541975967447	213.84078305426854	0.3083602109338983	-0.4031636275703292	0.7115238385042275	108.08741230154082
17	6.0	wm	179	diff_vonmises	0.22211489740673077	12.726246188386947	0.09295141446409191	14.388719200511472	2.9654928043177176e-17	15.487351505270583	0.04279383181415586	-0.38261933886018706	0.4254131706743429	173.1929840209799
18	7.0	ltm	179	diff_vonmises	-0.14003724637780016	-8.023543192081624	0.9519570023811758	129.62499824640523	0.9312887914023664	131.3413352858702	-0.05505960402030041	-0.36922068884987524	0.31416108482957483	80.2094564535497
19	7.0	perception	179	diff_vonmises	-0.1574544923754817	-9.021477878489902	0.5873826175790842	82.57114550925624	0.541616958874936	84.33325920141137	0.2639616464342893	-0.5540279630464315	0.8179896094807209	114.20811577553857
20	7.0	wm	179	diff_vonmises	0.3982219608719618	22.81643766738722	0.9713067525037358	92.54415561805516	0.9424788631174186	93.90271011320728	0.05697464082081183	-0.32426480813046155	0.3812394489512734	83.44639251399423
0	1.0	ltm	180	diff_vonmises	-0.2868200272642933	-16.43357704207121	0.00041983082914284775	2399.8683052026304	1.0811767573238376e-27	2401.7229874148643	-0.13481484254555198	-0.45551518425673976	0.3207003417111878	177.63769729862673
1	1.0	perception	180	diff_vonmises	-0.11215947616356729	-6.426264616570564	9.692585706437116	0.9152879301136065	0.1369908374029415	2.9049893660051365	0.5933558824744123	-0.4842066441414054	1.0775625266158178	42.65826766489553
2	1.0	wm	180	diff_vonmises	-0.05009191810252138	-2.870055494989442	2.295455812463722	1.0048392961368966	0.25332175796298995	2.5531566594785167	0.04786219951467119	-0.3448778317701173	0.3927400312847885	77.7720538558732
3	2.0	ltm	180	diff_vonmises	-0.0007647003435723874	-0.04381410227890181	2.9319002263029743	0.3950098408066056	4.732539299339543e-15	1.4782770007780228	0.020068699312464744	-0.23454980497612715	0.2546185042885919	80.26715246290371
4	2.0	perception	180	diff_vonmises	0.020720182349783678	1.1871789993840656	5.174084908080231	1.6556269851955359	0.5003937905613918	2.5404699024008726	0.8349917813446657	-0.4028217410560997	1.2378135224007654	55.39399505911027
5	2.0	wm	180	diff_vonmises	0.5457649976866029	31.270030973409483	3.839340691853072	0.5441451428803673	7.126401648652278e-13	1.2271000024882166	0.2137705189330431	-0.19510978570588355	0.40888030463892666	69.89931767118301
6	3.0	ltm	180	diff_vonmises	-0.1583535998515306	-9.072992942196164	1.5699615280074561	1.6549139042841354	0.7031744487447563	2.337403879586945	0.07039371093598412	-0.17680178525779916	0.24719549619378328	79.19529675329557
7	3.0	perception	180	diff_vonmises	-0.07996042649311906	-4.581394966121776	4.295253776176955	1.6113863189331976	0.10922015005834017	2.2121167994835567	0.8961447718827994	-0.33611016209741795	1.2322549339802173	64.41472621129006
8	3.0	wm	180	diff_vonmises	0.3294079851642785	18.873687287821195	0.622595439515933	95.74369463262748	0.6077993159563858	95.63435976412714	0.2977014273839451	-0.13510542421143512	0.43280685159538024	118.77688192395979
9	4.0	ltm	180	diff_vonmises	-0.3096699671839432	-17.742782161594647	6.331285075596123	0.49497352381999504	0.24715346207404323	1.8624477989342423	0.1123913661630927	-0.3115167110773942	0.4239080772404869	50.50495445272679
10	4.0	perception	180	diff_vonmises	-0.06067000875432935	-3.476135444644829	2.112938936707588	2.5323904288103174	0.2581777196608743	3.7077573453575194	0.5989592557988171	-0.4536540450046097	1.0526133008034269	85.04716262672463
11	4.0	wm	180	diff_vonmises	-0.5682058614215144	-32.5557977540481	1.1879300806632753	171.12627885110723	1.1714963563763685	172.460548759743	0.022157192970070128	-0.32241511143957524	0.34457230440964537	73.81280259413954
12	5.0	ltm	180	diff_vonmises	-0.3671366485995021	-21.03538046932906	0.9774223290605188	168.31909945065385	0.9650215186289007	168.9346083144557	0.18953815778481697	-0.20498991969707703	0.394528077481894	88.5560714366503
13	5.0	perception	180	diff_vonmises	-0.12000650441670328	-6.875866217195171	2.601708730544058	2.001000644416147	0.17107684854380753	2.521047387428873	0.7345351393815027	-0.3412907729928189	1.0758259123743217	80.66648255035966
14	5.0	wm	180	diff_vonmises	-0.12511375384365822	-7.168490054280298	0.410316731258985	111.9315077248784	0.3961129175258891	112.07544797113889	0.2591251178559695	-0.209322015797488	0.46844713365345747	135.68942679823994
15	6.0	ltm	180	diff_vonmises	-0.4383534574764114	-25.115803048365777	0.5678297492182596	127.51033244239916	0.5559999100095904	128.14982365416134	0.11982184631678194	-0.2150332162098305	0.33485506252661246	115.0730003045405
16	6.0	perception	180	diff_vonmises	0.15904029391609098	9.112337613912157	0.23193833195793712	174.7747147072675	0.22082736922733817	175.38682299852252	0.21959973818230338	-0.34786485546446855	0.5674645936467719	153.16455927373278
17	6.0	wm	180	diff_vonmises	0.446678525991408	25.592794338432324	0.0001541864140313677	5371.540229102184	3.3993927682188167e-29	5372.189644509987	0.028459151296488017	-0.23516433482052435	0.26362348611701236	173.92917425040355
18	7.0	ltm	180	diff_vonmises	-0.30169174302150004	-17.28566358907736	1.5027053898521818	0.8936455870328599	6.238996483143287e-16	2.1161178271847394	0.05071016828774916	-0.3176014734419278	0.36831164172967695	110.070441873097
19	7.0	perception	180	diff_vonmises	-0.24869069408548533	-14.248927175277373	1.1415987074077016	6.389197807953678	0.49769714037738466	7.560035565379714	0.4910517621748274	-0.4613779466574023	0.9524297088322297	98.74378639899291
20	7.0	wm	180	diff_vonmises	0.26241307568616573	15.035161725864336	1.0240161566320638	43.720541045564985	0.9699493979962002	44.259422958450884	0.2661977702023748	-0.2158447162027044	0.4820424864050792	89.01335312553229
0	1.0	ltm	181	diff_vonmises	-0.728037931196484	-41.713500782994345	2.5028419781928037	0.564148317766683	3.2648608573841684e-32	1.1940799473392874	0.1426550816428963	-0.18781458525927675	0.33046966690217305	86.55331064113719
1	1.0	perception	181	diff_vonmises	-0.07093640915668481	-4.064356858491207	9.980719370761351	1.0270676411379762	2.471381506156064e-16	1.7494977547721455	0.999001667374719	-0.2784412128636039	1.2774428802383229	42.96312374450247
2	1.0	wm	181	diff_vonmises	-0.055567654446471916	-3.1837920772242034	5.047266431237892	0.33222761976640874	3.3347656108740914e-19	0.7909148651501834	0.16364917593614484	-0.1258660508820863	0.28951522681823116	60.76717774435659
3	2.0	ltm	181	diff_vonmises	-0.15575278905118645	-8.923977460024402	1.938713644196259	34.4862889880171	1.8980664708730428	34.63820876407357	0.14696106029549583	-0.09093171657301724	0.23789277686851307	64.57757523669665
4	2.0	perception	181	diff_vonmises	0.017259342244767426	0.9888874677970217	5.941984387875584	1.7788863531538952	0.8927956144100168	1.2328363136326088	1.293972558563792	-0.18629134297355854	1.4802639015373504	52.534290167013864
5	2.0	wm	181	diff_vonmises	0.19395657422388982	11.112893111844777	1.0762119152905247	10.23307111213618	0.961489558058962	10.323236683983282	0.19151263753765013	-0.09100260079358091	0.28251523833123104	91.55175215082002
6	3.0	ltm	181	diff_vonmises	-0.11218867580419684	-6.427937632741935	2.285483505636815	46.95899182358203	2.264441208275478	47.072613466268734	0.08104632485331109	-0.06381969951261723	0.14486602436592833	58.19507042063145
7	3.0	perception	181	diff_vonmises	-0.01362169516109598	-0.7804656425445756	5.773908639856114	1.6028258846752874	0.5431744112681549	1.0433123721514275	1.234093307023453	-0.15744354777545988	1.3915368547989129	54.59680201416046
8	3.0	wm	181	diff_vonmises	0.1738935736470216	9.963367854421692	1.1890871596179553	57.17736748273383	1.1711321429669206	57.01728025852364	0.25002939240741995	-0.05574713332383752	0.30577652573125746	90.01223489101375
9	4.0	ltm	181	diff_vonmises	-0.3931200537563218	-22.524119922193286	14.114942116881352	0.25972088088859746	2.5067158770778176e-15	0.6331483520551714	0.28475528190032046	-0.10076868993985583	0.3855239718401763	36.07905558676316
10	4.0	perception	181	diff_vonmises	-0.03479241470521202	-1.993458521677551	3.330338394971674	1.9818100619877075	4.26381375434246e-17	1.971747389566425	1.0631273722607446	-0.3120504743970882	1.3751778466578328	75.209768245991
11	4.0	wm	181	diff_vonmises	-0.29686709615436285	-17.009231685949384	1.05204679236459	138.93921072398567	1.0369680021706342	139.41637990124423	0.22828104637064683	-0.18706284641928583	0.41534389278993267	86.79267533646046
12	5.0	ltm	181	diff_vonmises	0.05778479224248232	3.3108247155345367	1.7559757046608635	44.65712766297507	1.7259422145551546	44.69344168299951	0.20526822120018906	-0.07666810768629517	0.28193632888648423	70.53451761215328
13	5.0	perception	181	diff_vonmises	-0.10813475939820912	-6.195665332179996	2.225660140359808	2.0074540156730323	0.15418970167312307	1.317603429562046	0.8611300789017899	-0.16579461762933786	1.0269246965311278	89.39038544542558
14	5.0	wm	181	diff_vonmises	0.3513812582821021	20.132663099560755	0.45161662781879436	111.84640523764753	0.4396154415482715	111.657331178182	0.29307240035725	-0.14011193177394432	0.43318433213119434	132.71984406742303
15	6.0	ltm	181	diff_vonmises	-0.5214747730400452	-29.878303617737075	0.49546985767402896	53.87587275080739	0.47973733376607447	53.60185613745834	0.224681520545154	-0.07112738727453394	0.29580890781968794	129.73527727078852
16	6.0	perception	181	diff_vonmises	0.007643638957295395	0.43794825237480345	0.42907165019297305	107.52833331363719	0.414124874870616	107.05113370073492	0.4063223457919918	-0.14559158222676238	0.5519139280187542	137.0469831627998
17	6.0	wm	181	diff_vonmises	0.11142431995487045	6.384143268529397	0.0002449643037433771	5530.9819724452855	1.3673530012295115e-30	5530.631460922688	0.2714319403423815	-0.15983424805347113	0.4312661883958526	179.51219522913382
18	7.0	ltm	181	diff_vonmises	0.16425712752183966	9.41124016194357	1.4481775348405421	69.82080250105145	1.4241444577757552	70.3163539290017	0.0893378755175469	-0.15191438212381847	0.24125225764136538	70.44035344865821
19	7.0	perception	181	diff_vonmises	-0.13297352539900736	-7.618821792338778	3.4130360380141154	1.2319400628965087	1.1766378879634354e-20	1.3429379264790102	0.6539623056210968	-0.2127935180418489	0.8667558236629457	74.27241749415762
20	7.0	wm	181	diff_vonmises	-0.14331396660276605	-8.211285431617327	0.08140713578414335	54.28923147941131	0.06609311785670616	54.6127945712456	0.08205418475451509	-0.17541724813520077	0.25747143288971586	170.94612404637337
0	1.0	ltm	182	diff_vonmises	-0.43280783534943157	-24.79806230571547	0.2884761753281126	2.6373044399123047	2.361325500080382e-11	4.871465645204012	-0.22669426920503588	-0.4672057087218881	0.24051143951685222	159.75899715699725
1	1.0	perception	182	diff_vonmises	-0.11316388345122348	-6.483812915065446	11.865460038787052	0.7666708835673343	0.09380482697853249	3.123449378177885	0.49677345861134636	-0.5173613322498845	1.0141347908612308	38.78132409492312
2	1.0	wm	182	diff_vonmises	-0.1344892180930041	-7.705664586743604	3.58950719809079	0.5692560620065584	0.1141997156167757	2.5331734265498502	-0.038111610865405654	-0.39055361211690653	0.3524420012515009	66.86313937316666
3	2.0	ltm	182	diff_vonmises	-0.08024070404243375	-4.597453686789778	3.292901667785493	0.4723899696773505	5.162173478207063e-14	1.8640425877900375	0.029438870493436797	-0.29622154559770064	0.32566041609113744	75.6501572459417
4	2.0	perception	182	diff_vonmises	0.005683289397692701	0.32562849623923945	6.092012914672641	1.5093108934498178	0.3978552017132993	2.8812581919100113	0.7964008436302165	-0.4796529780289806	1.276053821659197	51.73893583306588
5	2.0	wm	182	diff_vonmises	0.35299375530685456	20.225052373556473	3.370803538303764	0.5137036755433885	5.33753786809118e-15	1.7068820409843954	0.08766942032410485	-0.2712344160276647	0.35890383635176953	74.72966654764738
6	3.0	ltm	182	diff_vonmises	-0.17613255451652216	-10.091652008654606	1.2946222146713124	6.615327696193718	0.932397924921745	7.70488849065416	0.08884525839739066	-0.27874672398273526	0.3675919823801259	78.54984094118944
7	3.0	perception	182	diff_vonmises	-0.06667980777860924	-3.8204715644579066	3.5661115827574217	2.4281898063742684	0.42545093746097773	3.4922607580811804	0.9393020298134193	-0.48398198690961286	1.423284016723032	65.92773191346575
8	3.0	wm	182	diff_vonmises	0.16463547974120732	9.432918147282747	0.8607550964567169	157.91999266333855	0.8471950859422259	158.41222216446297	0.2546464253376399	-0.20999852853598178	0.4646449538736217	96.5020075778119
9	4.0	ltm	182	diff_vonmises	-0.33784679133893125	-19.357195265757735	5.044420730344464	0.519587290929219	0.187222180879413	2.4572405356446048	-0.014859147040344634	-0.396967135191498	0.3821079881511534	55.870566779856915
10	4.0	perception	182	diff_vonmises	-0.09850587223890978	-5.643970736544431	1.3440895983342496	8.508648402493783	0.6868052662303533	10.197060194796965	0.5737482755792853	-0.5765975712947553	1.1503458468740406	87.50792028706556
11	4.0	wm	182	diff_vonmises	-0.4868051917166476	-27.89188293042081	0.9283731699324265	206.12384360504518	0.9154566300812045	208.0204222034565	-0.11115685525868457	-0.3922673984844671	0.28111054322578255	78.96097057495929
12	5.0	ltm	182	diff_vonmises	-0.20179456376515215	-11.561976832426788	0.9480869559611859	139.59060847380846	0.9300758163637316	140.42225495901772	0.20461995359610796	-0.2589129089511406	0.46353286254724857	89.29774993600104
13	5.0	perception	182	diff_vonmises	-0.10264478214567292	-5.881112805986845	1.7059221259952062	4.145024006609145	0.5321675413973724	5.034962407164216	0.6687973062548391	-0.4263776683651713	1.0951749746200106	86.37748774891458
14	5.0	wm	182	diff_vonmises	-0.09943365335111883	-5.697128678585964	0.4798571035987572	117.68870334663542	0.46423045455286	118.27908609690625	0.20041813854318846	-0.2684999760776474	0.4689181146208359	126.36209745312769
15	6.0	ltm	182	diff_vonmises	-0.4057758156445207	-23.249241664909597	0.7109768764504224	135.2140802779268	0.6980129706394648	136.08298533746404	0.08724204908234867	-0.23188335139836624	0.3191254004807149	100.33481122374708
16	6.0	perception	182	diff_vonmises	0.0535479307529135	3.0680704338007323	0.33279155636781843	151.88093956585365	0.31908724838406455	152.77395235573786	0.18440841885121273	-0.37107880549887895	0.5554872243500917	141.4642116084474
17	6.0	wm	182	diff_vonmises	0.263152976287034	15.07755490755328	0.00028865876865717514	3070.375731475139	3.969146765033558e-31	3071.2902025080894	-0.004474961826758772	-0.28658984991199077	0.282114888085232	177.74299641356856
18	7.0	ltm	182	diff_vonmises	-0.25750538105142007	-14.753971536154411	0.9145054343976385	113.93560153637732	0.8928693404654089	115.28488916507403	0.03579551422549798	-0.31357045461193245	0.34936596883743043	85.31902624150557
19	7.0	perception	182	diff_vonmises	-0.2306235748887761	-13.213757497346144	0.6889254790636513	241.97658366429133	0.6729948485164539	243.54736960820452	0.2951518511931397	-0.4878129283548027	0.7829647795479424	104.39934013786488
20	7.0	wm	182	diff_vonmises	0.3763062504547917	21.56075995545248	1.1031488826178344	92.55849749213121	1.075383938641211	93.73129325940333	0.06430159600731145	-0.2903420784421531	0.35464367444946454	78.42118525926026
0	1.0	ltm	183	diff_vonmises	-0.24046400555087166	-13.777572642875347	0.058330631360441414	14.690705967426316	1.7033590039339265e-11	17.066544965246745	-0.23979566050709078	-0.5124818266295526	0.27268616612246177	175.10563909536128
1	1.0	perception	183	diff_vonmises	-0.12556503838703267	-7.194346753975142	11.133371485739975	0.7910587794325074	0.17403593170245973	3.2130268231071946	0.4366067545646033	-0.551773732574097	0.9883804871387003	39.52245306056983
2	1.0	wm	183	diff_vonmises	-0.09188953021339838	-5.26488226266759	2.418956988151233	0.9024922435048476	0.17655150453854987	2.851146709918803	-0.015544819366800078	-0.4061866861145995	0.39064186674779944	77.6265355963794
3	2.0	ltm	183	diff_vonmises	-0.043007276012679	-2.4641354038807304	2.811723747873319	0.49039890071798575	2.598051258067785e-34	1.9768055212216094	-0.005169369191566242	-0.313500382601923	0.30833101341035674	81.99898620138072
4	2.0	perception	183	diff_vonmises	0.0013197251572694565	0.07561468162877867	6.218912812114438	1.3589515788308664	0.3745741118194022	2.752517056698858	0.7070751747866865	-0.4598816317729029	1.1669568065595894	51.293720706462636
5	2.0	wm	183	diff_vonmises	0.4683833866477136	26.836391248958186	3.7203937833460436	0.5292025731682888	2.3044617677983934e-15	1.5514040333211918	0.14410614918444206	-0.24668415433776603	0.3907903035222081	71.03989983372622
6	3.0	ltm	183	diff_vonmises	-0.24785228936732132	-14.20089012340272	3.133468439315858	0.5865169888428201	0.1462469156720483	1.5978979808089113	0.10095673965340207	-0.23678150432671946	0.33773824398012153	71.88457939725967
7	3.0	perception	183	diff_vonmises	-0.09725012358363196	-5.572021638467784	3.820283117301886	1.949912663750754	0.2445033600553295	3.0170570578626625	0.8576680392790273	-0.4410804869577927	1.2987485262368201	66.02372622432927
8	3.0	wm	183	diff_vonmises	0.20012272682035695	11.466187631455979	0.8090060908803416	119.68825916479625	0.7936383076394734	119.88569809653738	0.2915170327358041	-0.16915398997055142	0.4606710227063555	102.43278632644899
9	4.0	ltm	183	diff_vonmises	-0.28168690305272626	-16.139470689032	6.048991364396683	0.46252905522366705	0.1606471651040732	2.1991482223114938	0.035229831235331244	-0.35923760174251024	0.3944674329778415	52.137999827268374
10	4.0	perception	183	diff_vonmises	-0.10365822392958253	-5.939178742987075	1.174697547296607	16.08476289015669	0.8340157268423629	17.77570823069887	0.5100628120629302	-0.5566284890846691	1.0666913011475994	87.12601097136167
11	4.0	wm	183	diff_vonmises	-0.5255092704341671	-30.109463290876786	0.9943947018305671	187.246842427546	0.981703798144711	188.80243530447572	-0.07618238339772176	-0.3309486129251624	0.25476622952744066	77.02491577052618
12	5.0	ltm	183	diff_vonmises	-0.32519708488390936	-18.63242047380559	0.9382348968273412	82.09176592218131	0.9059512579513138	83.13342109231044	0.16679667017372068	-0.2915928884741952	0.45838955864791586	88.6087481322564
13	5.0	perception	183	diff_vonmises	-0.08779403744099779	-5.030227811782703	1.7491612109617838	3.77170206321034	0.4773028802070098	4.97491853764037	0.5872985824179	-0.4642907972927225	1.0515893797106224	85.82057181010418
14	5.0	wm	183	diff_vonmises	-0.21483732759554014	-12.309272153093904	0.4748010225957346	163.52177963947773	0.4632190096336274	164.0806275971296	0.21811034293102693	-0.27247704214301827	0.4905873850740452	126.83301806796048
15	6.0	ltm	183	diff_vonmises	-0.3915301621681673	-22.433025844308677	0.7222435039798564	51.848714951816994	0.677212686314803	53.182508440039456	0.07122230565890142	-0.3284548320546756	0.39967713771357705	98.94705330530506
16	6.0	perception	183	diff_vonmises	0.12727155046932623	7.292122693978644	0.44617060639706135	96.85434714439884	0.41947503248832474	98.19190141257717	0.16753119923441773	-0.44274465873101754	0.6102758579654353	128.0202079271464
17	6.0	wm	183	diff_vonmises	0.4297434378472804	24.622485262091775	0.0001942302916249251	4090.8398111724855	8.515681783574724e-31	4092.118712760675	-0.07708116599610548	-0.3299935729678509	0.25291240697174544	174.35441720903725
18	7.0	ltm	183	diff_vonmises	-0.2573437154112114	-14.744708777278175	0.8224231978428818	142.32258413157038	0.8032481007733798	143.9590804043249	0.023174370252853294	-0.37180328886452507	0.39497765911737837	89.5793791385729
19	7.0	perception	183	diff_vonmises	-0.3037686283490839	-17.404660352880562	0.6144841215035064	239.35696283352692	0.5978646849593134	241.15898316121647	0.27551789533809057	-0.5525307425754811	0.8280486379135716	110.11406233642074
20	7.0	wm	183	diff_vonmises	0.44479761187034655	25.485025897668944	1.2473872666561332	87.17455939776644	1.211939457661573	88.18584400615222	0.18254384303961046	-0.29635587470760605	0.4788997177472165	76.51446514282887
0	1.0	ltm	184	diff_vonmises	-0.207327460221768	-11.878988447873766	1.2043785339628261	0.9761134690093645	1.3605021495803632e-20	3.220767982873293	-0.14173211512517997	-0.4792498272319427	0.33751771210676274	120.29692874335811
1	1.0	perception	184	diff_vonmises	-0.09793799497749005	-5.611433766183634	10.543809069597271	0.7399476746620087	0.0001194257986365414	3.1339379891900974	0.4475768520063212	-0.4987676720981149	0.9463445241044361	41.79192794323441
2	1.0	wm	184	diff_vonmises	-0.09403839574518229	-5.388003188379943	2.8074773293082504	0.8877352888319833	0.17798792813056818	2.9720521871207497	-0.001011688595202953	-0.43577470032811927	0.4347630117329163	72.91471189663125
3	2.0	ltm	184	diff_vonmises	0.09035576793265022	5.177004157204362	2.4815190605805237	0.482926656981642	3.244899904560306e-12	1.6522140384904822	0.020418202828081822	-0.26097671575536896	0.2813949185834508	87.31053998372656
4	2.0	perception	184	diff_vonmises	0.04201960556006836	2.407546055396365	4.730467323592853	1.8668156477570446	0.5756856387369127	2.8105568557224356	0.8379281553481188	-0.43289869383548724	1.270826849183606	56.958305381269554
5	2.0	wm	184	diff_vonmises	0.3748751469256067	21.478763763183903	3.0544430159409393	0.6388409012655033	0.05055789079306651	1.5132097149932773	0.16951219751567442	-0.23036923813816745	0.3998814356538419	76.3380155077802
6	3.0	ltm	184	diff_vonmises	-0.173217055034775	-9.924606193177915	1.16386261429514	143.331511510831	1.1477346381809244	144.31561667454056	0.06613573529471495	-0.2505833574466614	0.31671909274137633	76.40132432815898
7	3.0	perception	184	diff_vonmises	-0.04678651076463997	-2.6806696049572647	4.679340814326146	1.7355014878039767	0.14214885050574186	2.5987063916105324	0.9780382014142044	-0.3980636605879206	1.376101862002125	61.329664143280695
8	3.0	wm	184	diff_vonmises	0.33207488041496386	19.026489130088947	0.5243405967244491	116.66972143849813	0.5083104496499533	116.98570307062724	0.27195573497925096	-0.23630184914257946	0.5082575841218304	123.57555696659418
9	4.0	ltm	184	diff_vonmises	-0.4527786328673808	-25.942304717004298	1.3845533289127	2.2690404820873145	0.4110672149361956	3.9723982498303587	0.021855802461659524	-0.38126680741960994	0.40312260988126947	87.90571007512708
10	4.0	perception	184	diff_vonmises	-0.008181443368156988	-0.46876217532069236	1.3298315746430316	8.167627532784557	0.6516273267676013	9.53718591581398	0.6643706833265357	-0.5433632315075438	1.2077339148340795	89.86557342817261
11	4.0	wm	184	diff_vonmises	-0.3102407845340703	-17.775487586629772	0.8166848606931114	215.03758691891105	0.803691747809694	216.82050827293494	-0.009106949876056092	-0.39265791662218774	0.38355096674613165	88.61725102972562
12	5.0	ltm	184	diff_vonmises	-0.24089302087059944	-13.802153410042203	0.9249197489525793	169.8182155472206	0.9110753599174585	170.52776997793723	0.21686519723827757	-0.2376393028957935	0.45450450013407107	91.15459476129321
13	5.0	perception	184	diff_vonmises	-0.09418198967772537	-5.396230514678348	1.032972454443439	202.31851169721375	1.0094470628296077	202.9536611075553	0.6804421999119796	-0.38943146007225593	1.0698736599842356	90.13789150680788
14	5.0	wm	184	diff_vonmises	0.021863487824147657	1.2526855777593242	0.3619535909791208	106.33097881051037	0.3441997878642993	106.7128668282367	0.25928985729169796	-0.28205100730434474	0.5413408645960427	140.08573419025043
15	6.0	ltm	184	diff_vonmises	-0.5192919426109344	-29.753236646756296	0.6824702799910944	143.0056845558358	0.6697979163437905	143.62280912868067	0.1729389866757174	-0.21985373909021888	0.39279272576593627	106.34160922530283
16	6.0	perception	184	diff_vonmises	-0.07080533939759119	-4.056847114473346	0.610643405689771	195.87017633409957	0.5968070430063546	196.52802334246473	0.3388342970257412	-0.33088679835321066	0.6697210953789519	114.83492162042474
17	6.0	wm	184	diff_vonmises	0.24772519653178482	14.19360824032013	0.0003761080023936061	3583.7050498670073	1.899367997526765e-23	3584.372235156775	0.10835171107282804	-0.3206830445625428	0.42903475563537086	177.97664052050817
18	7.0	ltm	184	diff_vonmises	-0.21136839321823025	-12.110516853866205	2.187414189787641	0.7282727774092931	0.1569169489583057	2.288209489912756	-0.026932159553864354	-0.3222860293549525	0.29535386980108813	81.6146940962882
19	7.0	perception	184	diff_vonmises	-0.13286805800337806	-7.612778955692982	1.1636812615910226	5.018200430661795	0.35098573753384377	6.533668630345765	0.43615990658100423	-0.5315724924445215	0.9677323990255258	102.59297272391446
20	7.0	wm	184	diff_vonmises	0.25483341080802896	14.600878918223557	0.8999649117332172	79.49117854026197	0.8689908242199336	80.73680813227807	0.07460846686936407	-0.3036743833311384	0.37828285020050245	87.69015488962404
0	1.0	ltm	185	diff_vonmises	0.04434508234379297	2.5407860604594417	5.288583353615349	0.5302385364301885	4.32313069891446e-17	3.911108988077739	-0.1488359144833596	-0.6224602506333293	0.47362433614996974	59.33819637478726
1	1.0	perception	185	diff_vonmises	-0.09007338994711693	-5.160825090405898	10.538125141058279	0.6920935808833023	0.04146142321215483	3.951585372156926	0.22988765779486764	-0.6377969431357577	0.8676846009306254	41.31811964892265
2	1.0	wm	185	diff_vonmises	-0.15436638678188463	-8.844542461286048	3.0132634772654407	0.9310339275783575	0.14659106724691456	4.1356799379925295	-0.14673881060616167	-0.6247136363440433	0.47797482573788164	70.41626210190705
3	2.0	ltm	185	diff_vonmises	0.06016182387815583	3.4470185960277075	2.1433928887867273	0.7122462665628079	1.6220986405219462e-16	2.665380070664364	-0.04114452226568316	-0.41894096288852883	0.3777964406228457	93.84656137054657
4	2.0	perception	185	diff_vonmises	0.02571102404539169	1.47313316476032	5.051157807904429	1.636663216457406	0.3846939701098658	3.341488245525379	0.6734958329775128	-0.5338611235697384	1.207356956547251	56.01227650987988
5	2.0	wm	185	diff_vonmises	0.22125515674173082	12.67698667680668	2.702755045960953	0.9741574394245912	0.19695860572415375	2.5474415375254664	0.11190399297482095	-0.3630443699091097	0.47494836288393066	74.96939290595802
6	3.0	ltm	185	diff_vonmises	-0.1816580066857446	-10.408237097852458	0.8989866577374049	64.1203062654099	0.8460421245643688	65.97947404752158	0.06639777194993712	-0.4371749316383289	0.503572703588266	87.33697810460586
7	3.0	perception	185	diff_vonmises	-0.06268317710034563	-3.591481494320894	3.26279218141053	2.6225935253357493	0.277435214530539	4.375818813651861	0.8994923467491198	-0.6152482585110715	1.5147406052601913	69.92101535393581
8	3.0	wm	185	diff_vonmises	0.15601111097523693	8.938778216028192	1.2617904226096102	1.8248673784853178	4.10230386811505e-12	2.9592955524490128	0.24161833558247786	-0.4138554707200004	0.6554738063024783	118.28574837779456
9	4.0	ltm	185	diff_vonmises	-0.25337360576263235	-14.517238250210427	0.5414911462221853	79.25067539781544	0.5043509409033661	81.97280987644248	-0.1219057588102821	-0.57553229691682	0.45362653810653786	108.26414988858932
10	4.0	perception	185	diff_vonmises	-0.04642167201334857	-2.659765884305444	0.8809331166863696	542.8505521686657	0.8684900698195854	545.1231680056218	0.5680637098753039	-0.718377719915452	1.2864414297907558	92.71055802823946
11	4.0	wm	185	diff_vonmises	-0.2511736041969871	-14.391187445576781	0.618484689569659	209.94138949779264	0.6045144245308313	212.61940490668238	-0.15774819330932388	-0.5371307618381991	0.3793825685288752	97.7817945240823
12	5.0	ltm	185	diff_vonmises	-0.2229039598841083	-12.771456138112816	0.7156157916067639	79.10881030881441	0.6786088939439856	80.34590868174493	0.21092451921017386	-0.3710328180218374	0.5819573372320113	102.77114876656944
13	5.0	perception	185	diff_vonmises	-0.07315707734565971	-4.191591773418429	0.967241911853609	413.5711271384967	0.9534705717406233	414.9376236181138	0.6259051001699447	-0.5328346345144084	1.158739734684353	90.48195067936018
14	5.0	wm	185	diff_vonmises	-0.10241256224920549	-5.867807586000296	0.36735018692045474	217.68704791271372	0.3567748895721163	218.72904208410483	0.1890965562878435	-0.40339046660168876	0.5924870228895323	137.01491958127792
15	6.0	ltm	185	diff_vonmises	-0.46389820954479866	-26.579409530592446	0.7141361418204182	214.36773655436906	0.7023784737216728	215.76177717995301	0.08323489991069977	-0.3463979991838251	0.42963289909452484	98.57279158580621
16	6.0	perception	185	diff_vonmises	-0.07369974308988003	-4.2226842302485785	0.5508846164763636	291.27607774465855	0.5396381396275877	292.6845583353032	0.2582076152652064	-0.47650103370536456	0.734708648970571	116.92955324868522
17	6.0	wm	185	diff_vonmises	0.15161462659503777	8.68687821634759	0.49622619428634346	2.9074924119141463	2.367125691627687e-18	4.313707811865953	0.02878651006769073	-0.4213934408285838	0.45017995089627455	151.94349088206275
18	7.0	ltm	185	diff_vonmises	-0.5280420340885692	-30.254579958778162	3.0972304739347996	0.5643740850312983	6.049032449620292e-17	2.592303757740372	-0.036184149910310215	-0.4118098021190373	0.37562565220872707	77.99298801983882
19	7.0	perception	185	diff_vonmises	-0.04616445511435076	-2.6450284415734266	0.4804206763510291	340.54620941130935	0.4679013142783799	342.95142158429167	0.21441052016348294	-0.7188656664751463	0.9332761866386292	122.47208834949417
20	7.0	wm	185	diff_vonmises	0.23633462808038908	13.540976741800286	0.9853253883106765	173.52211129429668	0.9658878928662739	175.61657930625188	-0.06287329608197467	-0.4550451894301446	0.39217189334816993	78.89983593529374
0	1.0	ltm	186	diff_vonmises	0.04257957409416388	2.4396298890601655	2.2574538389943206	0.7142464595970619	3.4394326568661904e-18	3.374554834804151	-0.14083454065076428	-0.5327397840062603	0.39190524335549604	91.50632848170633
1	1.0	perception	186	diff_vonmises	-0.044326247507409065	-2.5397069038268247	12.752115791763208	0.7755126899646265	0.038416266186140455	3.5371035753529423	0.5083516835606197	-0.5717971584984808	1.0801488420591006	37.705030462238625
2	1.0	wm	186	diff_vonmises	-0.09430408528701548	-5.40322607778775	3.7377687588499393	0.5119959045578254	7.325945599522143e-17	3.094156144610756	-0.11320103532157161	-0.49223525405855795	0.37903421873698634	70.88859451098105
3	2.0	ltm	186	diff_vonmises	0.060753020993786246	3.4808916956136384	2.892824849521925	0.5137663921933556	1.222847603121799e-19	1.9521194087022666	0.01884509257597944	-0.309677142966918	0.32852223554289745	80.82095127466994
4	2.0	perception	186	diff_vonmises	-0.013365476011280415	-0.7657853666297136	6.3969701388770845	1.4021987329935919	0.27976912091846823	2.649311808557803	0.8377759259247328	-0.43447464736569785	1.2722505732904308	51.503715795595156
5	2.0	wm	186	diff_vonmises	-0.014531417993603014	-0.8325889213739154	2.6649167504987172	1.2899192222599543	0.43496961913840215	2.6170499864499988	0.17505266328949198	-0.3435903965373187	0.5186430598268107	70.7609700580085
6	3.0	ltm	186	diff_vonmises	-0.22548273465677154	-12.919209048901228	1.0944083470770838	20.458337660017204	0.9792194357494386	21.433973986266103	0.11465182452201539	-0.25903688238940825	0.37368870691142364	82.36965549972471
7	3.0	perception	186	diff_vonmises	-0.04712895431109465	-2.70029017489061	3.462962969439346	2.634982484927956	0.4265400277831811	3.3191646500579726	1.097379530422583	-0.4465110764218829	1.543890606844466	67.4023902023356
8	3.0	wm	186	diff_vonmises	-0.09240805408073377	-5.294591491842709	3.2773786240550415	0.8979261176564861	0.020656016780298	1.7128974696565467	0.3399803194049548	-0.26642461821231783	0.6064049376172727	75.04312182130326
9	4.0	ltm	186	diff_vonmises	-0.15559914623554083	-8.9151743751354	2.090625092133429	0.7574252972934657	5.608744929968773e-22	2.4531378845783802	0.010900766668587636	-0.384296916551741	0.3951976832203286	94.95664868989422
10	4.0	perception	186	diff_vonmises	-0.08747788614633263	-5.0121136769107935	2.331814463473069	3.2184971184842204	0.2385948339502936	4.595731104827065	0.9049605045180205	-0.5859724744098354	1.4909329789278558	82.36493989997956
11	4.0	wm	186	diff_vonmises	-0.19607492186144757	-11.234265491018345	0.6488193440013975	227.69790926003935	0.6377368602363618	229.36121785455936	0.025776084065050497	-0.3871438703172174	0.4129199543822679	101.48927700472183
12	5.0	ltm	186	diff_vonmises	0.012393036365980744	0.7100686791228437	0.7045215985685449	121.82415046354964	0.6863109498308968	122.8937425828321	0.12118263470184587	-0.29265222601228125	0.4138348607141271	101.42312167297072
13	5.0	perception	186	diff_vonmises	-0.02883683822301769	-1.6522291246804464	0.9213474484087334	220.22788837791964	0.8978178045246621	221.28897085672983	0.6444179958822929	-0.48156742637251426	1.1259854222548071	93.96954971672895
14	5.0	wm	186	diff_vonmises	-0.06541062845367038	-3.7477529456936467	0.40144346154315996	65.4763683082932	0.3697664167025447	66.71197043045676	0.1041319035077688	-0.38866038652426305	0.49279229003203184	132.8458607529299
15	6.0	ltm	186	diff_vonmises	-0.45407838344830376	-26.01677493971086	0.5803945449883184	171.7443870416815	0.5666157170931383	173.06622448425267	0.10397311451193048	-0.36056259825393866	0.46453571276586914	111.03223598733277
16	6.0	perception	186	diff_vonmises	0.02273208885050719	1.3024527506504568	0.5681539339249234	256.88159021978225	0.5549807915639947	257.8914221928588	0.37822900996525277	-0.4466817879684051	0.8249107979336578	117.75792845264905
17	6.0	wm	186	diff_vonmises	0.021610091523406042	1.2381670391826018	0.3581850618920027	4.976706264724059	1.5258636800296178e-17	6.208218968141834	0.10967028191562722	-0.45179540877728064	0.5614656906929079	159.76943126076483
18	7.0	ltm	186	diff_vonmises	-0.2538927549657307	-14.546983308485544	0.8986952439284692	119.87031224275005	0.879271207437889	121.22723566899013	0.011104775284437096	-0.30660004418111697	0.31770481946555407	85.14840744075549
19	7.0	perception	186	diff_vonmises	0.022783981631410984	1.3054259879834413	0.4569877076459635	260.5221169062676	0.4441293923848091	262.0714028975994	0.25467513871581815	-0.5447927665786167	0.7994679052944349	126.79386131539637
20	7.0	wm	186	diff_vonmises	0.22862274257995588	13.09911825053733	0.7291761190058412	134.4798900600614	0.7135847438324631	135.8018329926066	0.02037542290232608	-0.3027345425327397	0.32310996543506576	95.48345547738842
0	1.0	ltm	187	diff_vonmises	0.05997252499756041	3.436172569103039	6.055809896657349	0.4409716638093749	0.023828820049079883	3.8626978244108785	-0.20640210308414625	-0.6144209093021955	0.40801880621804926	54.244494008972794
1	1.0	perception	187	diff_vonmises	-0.08885884455603303	-5.091236765469724	13.209450272083439	0.6228193425691094	0.06819922610156127	3.9484429642564978	0.22220114513098077	-0.6495266995352396	0.8717278446662203	36.75347161571443
2	1.0	wm	187	diff_vonmises	-0.1446962592446323	-8.290484966048252	3.1329119755380566	0.7442207396200986	0.0955551723073534	3.8912094875366647	-0.18028511187086016	-0.596329687977689	0.4160445761068289	70.8752070664321
3	2.0	ltm	187	diff_vonmises	0.0027019376678031346	0.15480962487254027	2.069131520275066	0.6879105921069226	2.3221063070653593e-25	2.6162761726452546	-0.05415979086700179	-0.41061538082552207	0.3564555899585203	95.45750981743316
4	2.0	perception	187	diff_vonmises	0.004833756904200189	0.27695386980289344	6.341245667438128	1.405495250669339	0.34772828247632676	3.215542056369691	0.6785000116729637	-0.5399960264191968	1.2184960380921606	50.76411829266192
5	2.0	wm	187	diff_vonmises	0.13196128746243832	7.560824830710341	3.1701270156733217	0.8470728738800929	0.20636914427026956	2.491970933637691	0.09002040578110165	-0.36842570034874156	0.4584461061298432	69.39106677413588
6	3.0	ltm	187	diff_vonmises	-0.25227869758447635	-14.454504632647732	2.1149861084399117	1.3992521174254149	0.3598335099379747	3.0018115836496837	0.08352540912263684	-0.373482351711291	0.45700776083392786	77.77460573442372
7	3.0	perception	187	diff_vonmises	-0.06248799457018268	-3.580298359107872	3.559938424595041	2.633455087357746	0.41341786142552134	4.173228652604449	0.9361518463125796	-0.5864616456311094	1.5226134919436891	65.62816179739929
8	3.0	wm	187	diff_vonmises	0.04134535879359077	2.368914561326856	2.892838416221124	0.9287323458307793	8.534823710927997e-23	2.0606488825607063	0.2677616938298331	-0.3261326297443356	0.5938943235741687	80.81924046697961
9	4.0	ltm	187	diff_vonmises	-0.17580755782265323	-10.07303106974021	0.586663276884352	154.6005077829489	0.5690421908820675	157.12394535627405	-0.1409162938254127	-0.5118903611393115	0.3709740673138988	101.2006527947198
10	4.0	perception	187	diff_vonmises	-0.07765267593278234	-4.449170598845531	0.9977767304034433	369.89916751799683	0.9789433367981007	372.08121937509736	0.5821416458997248	-0.6927294042044423	1.2748710501041671	87.24104807020987
11	4.0	wm	187	diff_vonmises	-0.1707303728927386	-9.782129801448677	0.5810705667510494	151.68502258952955	0.5657161682801958	154.08159017683252	-0.1813117081159703	-0.4650726190739931	0.2837609109580228	98.78796609222003
12	5.0	ltm	187	diff_vonmises	-0.12037257251193482	-6.896840374066332	1.1643447994238152	3.4380955208810473	0.40207031324471126	4.989285122709061	0.1402987520338761	-0.4008479822811119	0.541146734314988	96.79331283534172
13	5.0	perception	187	diff_vonmises	-0.057700453196600505	-3.3059924441573485	0.945984125229534	470.70314747912033	0.9337118389631369	472.4327291957743	0.5284424289122569	-0.5770086574286566	1.1054510863409135	90.05093509641122
14	5.0	wm	187	diff_vonmises	-0.11942785879876326	-6.842712265453469	0.44561420744671676	167.14173173667623	0.43126219188124815	168.47034289251098	0.13271707753654027	-0.4163363642786173	0.5490534418151576	126.85516237047477
15	6.0	ltm	187	diff_vonmises	-0.42319943620736866	-24.247541586998143	0.7680389311417152	225.08463136531154	0.754419969728481	226.8728224465985	0.05788048537048951	-0.4198096661293391	0.47769015149982863	93.68006333193414
16	6.0	perception	187	diff_vonmises	-0.007179538334300273	-0.4113572454077908	0.6133454486161033	218.32406184790472	0.5961862703364205	220.13454890767068	0.22987189458886803	-0.5307665942819249	0.7606384888707929	109.55606696959315
17	6.0	wm	187	diff_vonmises	0.1314502891493152	7.531546784030081	0.710790603548041	2.1398576576082737	3.2590895661657084e-16	3.926463552785023	-0.011614627902427288	-0.4768997107261638	0.4652850828237365	141.32955767728538
18	7.0	ltm	187	diff_vonmises	-0.3605595939743993	-20.658542997683668	0.9925844461889624	157.28782536856193	0.9719179061419182	159.34204845192093	-0.07520780806520122	-0.4432027651042958	0.3679949570390946	78.17177617035098
19	7.0	perception	187	diff_vonmises	-0.05200774897519714	-2.9798245182546284	0.34793130316891785	262.9668136604552	0.33552086646598406	265.3956156415307	0.06475757279963545	-0.6876547500762236	0.752412322875859	136.8849564035762
20	7.0	wm	187	diff_vonmises	0.346447127468057	19.84995822835052	0.9059585695768104	189.13114598016168	0.8902471800237154	191.1884621650264	-0.09412329166365652	-0.4306929175787211	0.33656962591506456	81.14193086518537
0	1.0	ltm	188	diff_vonmises	0.0287410310931846	1.6467397804937483	5.20932577886993	0.503102587869007	1.1130410783468026e-19	3.757657326540196	-0.15220930928424453	-0.5980364180151259	0.4458271087308813	59.7961386741047
1	1.0	perception	188	diff_vonmises	-0.10583992471796358	-6.064180990321673	10.456932031776326	0.6919826962469646	0.04558582792777562	3.8338537295135326	0.2432224878395587	-0.6196933451566555	0.8629158329962142	41.446491504197155
2	1.0	wm	188	diff_vonmises	-0.14856845395483123	-8.512345380395534	2.6803347219740825	1.0942966853721332	0.1987364666335719	4.1116504989319305	-0.11877771833430084	-0.6019713625150132	0.4831936441807123	72.41672855829725
3	2.0	ltm	188	diff_vonmises	0.050612091436603904	2.899859231647619	2.1085171275258285	0.7011667399593978	6.2400586351979285e-18	2.6203894251713957	-0.04361811620540612	-0.4115426794279525	0.36792456322254635	94.59025785104157
4	2.0	perception	188	diff_vonmises	0.03452729740926676	1.9782684195439666	4.8174918700929545	1.7076406264997426	0.4224288698748506	3.3838193346209446	0.6654637636624325	-0.5351397848236505	1.200603548486083	56.84076832790058
5	2.0	wm	188	diff_vonmises	0.32662793840868687	18.714402341876756	3.025135697371922	0.7676852720035958	0.08663268722855161	2.2318839558437547	0.11854308598938645	-0.3355560439707991	0.45409912996018553	74.78772289522715
6	3.0	ltm	188	diff_vonmises	-0.17024856762829174	-9.754524393248689	0.8911493462411572	59.06154929258938	0.8352897524522974	60.91470046329437	0.054057789593898065	-0.43135186741564	0.4854096570095381	87.53187636770869
7	3.0	perception	188	diff_vonmises	-0.07043200948032251	-4.035456885847882	3.3281094578173076	2.4318032214260277	0.23219624878032044	4.229799450380004	0.8511429509775097	-0.6055864480641984	1.456729399041708	69.93390502063767
8	3.0	wm	188	diff_vonmises	0.2666581095936118	15.278384252650923	0.4296200074532267	104.35254405396002	0.4055874101984145	105.29934084702478	0.24475248519006598	-0.39968117559008753	0.6444336607801535	131.03301314706079
9	4.0	ltm	188	diff_vonmises	-0.32318329373833043	-18.5170387403431	0.6574676115022742	58.75273883577898	0.6030880635954555	61.47883035913407	-0.11925076107519672	-0.5633788415719518	0.4441280804967551	97.9509299346648
10	4.0	perception	188	diff_vonmises	-0.0376455704054645	-2.156932301595711	0.8619335371531889	492.2141554552773	0.8489553667994767	494.49001522029903	0.5064280430587189	-0.6976102630152994	1.2040383060740183	93.35071452506693
11	4.0	wm	188	diff_vonmises	-0.3379840844508833	-19.365061581628805	0.7020703189740057	217.87919996223147	0.6879897652441491	220.55988568405587	-0.17208006781526564	-0.5311835703639325	0.35910350254866685	90.71734529113245
12	5.0	ltm	188	diff_vonmises	-0.2819088356204383	-16.1521864884984	0.7695857604856758	57.31060459336975	0.7177035197146949	58.47136622352228	0.23329751062388127	-0.35727419365272883	0.5905717042766101	99.99581176749209
13	5.0	perception	188	diff_vonmises	-0.08813511062895037	-5.049769865957458	0.997648736240779	302.57708282027374	0.9789888635997852	303.8656617378676	0.6339395916230615	-0.5160131123642984	1.1499527039873598	89.39706424912791
14	5.0	wm	188	diff_vonmises	-0.11260673140088345	-6.451890454033902	0.368187085086451	188.15938074187542	0.3564307067935035	188.99943844913093	0.21727361702235726	-0.37019719373751414	0.5874708107598714	137.60148354777925
15	6.0	ltm	188	diff_vonmises	-0.4608096654596677	-26.402448989674348	0.7236428524896591	200.6543495630956	0.7118913787539602	201.9232723987458	0.08577556691644617	-0.3189178676203248	0.404693434536771	98.19782510609276
16	6.0	perception	188	diff_vonmises	-0.07535496905939613	-4.317521692442301	0.5267601564127282	261.2334077325913	0.5152119515607925	262.5794987576398	0.22963520961170047	-0.4538812374845591	0.6835164470962596	119.2249307486991
17	6.0	wm	188	diff_vonmises	0.23112167777306278	13.242296690379064	0.2409809014188456	5.130367620340779	2.1972175679005115e-19	6.43313321025751	0.00023425753234285196	-0.3914086103588774	0.39164286789122027	164.93425627857945
18	7.0	ltm	188	diff_vonmises	-0.5032286161016585	-28.832875832834173	2.6258753454151784	0.6443103852074472	1.8119917183055853e-15	2.6941055930071816	-0.03797814200387323	-0.4267330225679804	0.3887548805641072	84.74721153148975
19	7.0	perception	188	diff_vonmises	-0.11216112512151068	-6.426359094901314	0.5499288452515977	323.85367425278	0.535774490758638	326.25255966468296	0.25398558759656	-0.7058421144883731	0.9598277020849331	115.27442591359319
20	7.0	wm	188	diff_vonmises	0.2674882072518941	15.325945345054192	1.060490899186605	167.0442944511876	1.039256806882927	169.04291199484135	-0.029958834828335057	-0.4501604776003738	0.42020164277203875	76.86314734953444
0	1.0	ltm	189	diff_vonmises	-0.5487863991486539	-31.443144525399664	0.32549377928533263	2.245210391190577	1.318651654140222e-17	3.8140317092304166	-0.12506818648788526	-0.3556635017732097	0.23059531528532445	155.6314949317885
1	1.0	perception	189	diff_vonmises	-0.08066654717065334	-4.6218527007714085	12.50649403433122	0.8802354926248378	0.07700193864758348	2.6546724003621014	0.7730014670657199	-0.43609574504265297	1.209097212108373	37.98553456065767
2	1.0	wm	189	diff_vonmises	-0.12025703329385329	-6.890220464502018	6.318622719761015	0.27758717472696387	7.823279687694042e-12	1.7088584303763839	0.0004142252064330276	-0.2719723813017328	0.2723866065081658	54.17964743796989
3	2.0	ltm	189	diff_vonmises	-0.14756376539099114	-8.454780965962437	6.369567146945264	0.33248471837240695	1.3154561816716485e-19	1.230668717724131	0.13170364757428152	-0.19586604824707435	0.32756969582135587	53.96847045277363
4	2.0	perception	189	diff_vonmises	-0.021489817782648427	-1.2312758614509398	7.52818653845454	1.4069166815077017	0.32821972819969114	2.259915563459172	1.026364040154972	-0.3828082087181421	1.4091722488731142	47.74062589497507
5	2.0	wm	189	diff_vonmises	0.023318535047911735	1.3360536426732332	2.751265342748797	0.5314415686796353	0.0427570307631747	1.5497928891733606	0.07386582860692892	-0.23625537302669025	0.31012120163361917	80.16925869132584
6	3.0	ltm	189	diff_vonmises	-0.15866320532782094	-9.090732029301737	1.4280660360769066	119.28633796462661	1.4115165624944777	119.83509352693817	0.12186720174457122	-0.1743475935427412	0.2962147952873124	71.48522585756965
7	3.0	perception	189	diff_vonmises	-0.041163709842504836	-2.3585068430766536	3.278745748301951	3.2648119007150345	0.8835747954907116	3.50106291419107	1.1295304445162395	-0.38952382573243916	1.5190542702486787	65.07510048695235
8	3.0	wm	189	diff_vonmises	-0.03054441044756856	-1.7500658063609764	1.338423116546641	171.45733322390632	1.3242407430400682	171.8803135112673	0.269591127324162	-0.18814627418597496	0.457737401510137	77.32144231619233
9	4.0	ltm	189	diff_vonmises	-0.3256844675887525	-18.660345445800772	8.570112299375111	0.32395377264732556	0.17881901877583756	1.6250884380568842	0.06561874750195895	-0.27549908798599326	0.3411178354879522	44.30953351630049
10	4.0	perception	189	diff_vonmises	-0.11774174107310058	-6.7461048360108	2.8678905887671675	2.3297354389447493	0.1618075970169247	3.343912438152364	0.8654210915440388	-0.46879132160238224	1.334212413146421	76.89820982693107
11	4.0	wm	189	diff_vonmises	-0.3654362633679678	-20.937955572015767	0.8888312117109548	167.6570239227596	0.8757196849425366	168.99170741998176	-0.0055547810345544235	-0.29592263470023283	0.2903678536656784	84.79343437566936
12	5.0	ltm	189	diff_vonmises	0.015533167122156966	0.889984918570965	1.2101861347969218	35.53338309431061	1.1515278260850406	36.055855230714215	0.19268929889780217	-0.1840869666133953	0.3767762655111975	80.56995271965371
13	5.0	perception	189	diff_vonmises	-0.09001285034970188	-5.157356426980594	2.2440373210344706	2.3278718777461336	0.2138479100943864	2.6714663659394633	0.7663390772112905	-0.33423895925870506	1.1005780364699955	85.62587953859403
14	5.0	wm	189	diff_vonmises	0.006016840678862345	0.34473957690144147	1.2655176008623448	1.095456030052009	1.5754812056591286e-13	1.700304331672516	0.1578974486105365	-0.23651096476208008	0.39440841337261656	118.30212644983682
15	6.0	ltm	189	diff_vonmises	-0.3911285580174451	-22.410015621437363	0.5679051480239194	88.06214274603565	0.553993715912982	88.56169313328425	0.10256341535073688	-0.17318664639038772	0.2757500617411246	115.54611400719023
16	6.0	perception	189	diff_vonmises	0.0903359616234643	5.175869339280276	0.21292718999826776	114.22882064358622	0.19722233416552784	114.57926213278864	0.2441861323972887	-0.29897441420988713	0.5431605466071758	156.23543937271177
17	6.0	wm	189	diff_vonmises	0.07580361626276541	4.343227283685708	0.00025352794965807193	3992.878263137826	9.274327069568161e-32	3993.4117606707605	0.07621209170497423	-0.24600920876582677	0.322221300470801	179.7375959614394
18	7.0	ltm	189	diff_vonmises	-0.14075950122112607	-8.06492534633708	1.099764774202925	99.68295475631317	1.0814453864126121	100.41563549494676	0.08066676512906668	-0.19403233565847877	0.27469910078754545	79.99499276807992
19	7.0	perception	189	diff_vonmises	-0.15260720978904238	-8.74374904417967	0.7419817125171595	177.25147066082283	0.7254505990362011	178.0998105028569	0.31363207244162794	-0.3273776314147039	0.6410097038563318	103.01528408009926
20	7.0	wm	189	diff_vonmises	0.2831740136408008	16.22467584939789	0.8052399261553886	83.90916851917612	0.7886143824963305	84.6204994135327	0.05196248092333633	-0.17777449683730673	0.22973697776064306	93.12961253285579
0	1.0	ltm	190	diff_vonmises	0.05750607382856756	3.2948553267446408	0.5362592044249002	1.7628349388734836	1.5883443171785704e-15	5.360940230164528	-0.40628545530230264	-0.7003011552718879	0.2940156999695852	150.22945322992587
1	1.0	perception	190	diff_vonmises	0.0023832639951040825	0.13655096838495123	6.587062564639641	1.101264159530675	0.09046664387302249	4.7748095693386725	0.274236319512585	-0.7682686880465015	1.0425050075590865	51.392948003622564
2	1.0	wm	190	diff_vonmises	-0.007749286646559565	-0.44400141908494994	2.9133624525535247	0.8148601731133216	0.09308738033808334	4.382879769990655	-0.23916083793579768	-0.6683146036128019	0.42915376567700425	72.99752335040489
3	2.0	ltm	190	diff_vonmises	0.12313986841490136	7.055394749970159	1.7393864054137163	0.5222539952266635	1.6567765176822974e-18	2.1414285343385258	-0.09329289774117638	-0.3331839238436383	0.23989102610246194	103.47741389004719
4	2.0	perception	190	diff_vonmises	0.009036290497137929	0.5177413079401758	6.19496179622952	1.6295238625700024	0.36541720106318826	3.1124957964020963	0.8915541684290096	-0.5166592564352556	1.408213424864265	51.605135546112706
5	2.0	wm	190	diff_vonmises	0.18029770935149017	10.330297801716782	2.4334016377813663	1.0887959466957133	0.25872673278505637	2.581078687327894	0.10825513742803572	-0.35027222824316	0.45852736567119573	76.6341864089903
6	3.0	ltm	190	diff_vonmises	-0.17892642387485563	-10.251728931398038	0.9111851688344719	9.732968125390643	0.7603471918546201	10.611801833921886	0.019914702954381802	-0.20233496211961866	0.22224966507400046	88.78456153683713
7	3.0	perception	190	diff_vonmises	-0.05289215801369054	-3.030497423523524	4.157400486686117	1.9095144956041123	0.31010649279938146	2.556522332985629	0.9576174152292749	-0.3746122578547225	1.3322296730839973	63.241455398655944
8	3.0	wm	190	diff_vonmises	0.060731460157891486	3.4796563507140945	0.9291351194918435	117.90188563243213	0.9110276474975385	118.44310628755619	0.23035159622282464	-0.20627467923499232	0.43662627545781696	92.2440791781774
9	4.0	ltm	190	diff_vonmises	-0.3675366100935673	-21.058296574906738	0.5102070391560795	109.51910512686273	0.49009844547578396	111.77956807508886	-0.14194243447392907	-0.4595946680846552	0.31765223361072614	108.5355556298482
10	4.0	perception	190	diff_vonmises	-0.02531443115500642	-1.4504100659563497	2.7879472997333283	2.192018777659677	0.11171976775470945	3.4350373073420184	0.76702935301666	-0.4943765729950099	1.26140592601167	78.80455110799625
11	4.0	wm	190	diff_vonmises	-0.11315757952034732	-6.483451726431899	0.5886659962150779	196.70465347861963	0.5747871357005565	199.12314343959451	-0.11499052565910262	-0.49960191689387656	0.38461139123477395	101.82883231398486
12	5.0	ltm	190	diff_vonmises	-0.180773229237122	-10.35754308423803	0.6489916578514768	159.62607859175804	0.6346783765178735	160.96518474453924	0.06956964449044989	-0.3349424958165752	0.4045121403070251	103.5039206321286
13	5.0	perception	190	diff_vonmises	-0.08911877480741229	-5.10612967184153	1.089449766106675	62.62972145748158	0.9973430427838396	63.83241975051918	0.6763277125081792	-0.5080913421741675	1.1844190546823468	87.376249741529
14	5.0	wm	190	diff_vonmises	-0.016113185173257615	-0.9232175049404355	0.3132007584137448	203.44534206750438	0.3031291650483307	204.6066163419628	0.12283689130130426	-0.4030842079911423	0.5259210992924466	142.6837021871912
15	6.0	ltm	190	diff_vonmises	-0.5182402972546506	-29.692981806296704	0.5743755824317023	184.27972322447874	0.5635682683414596	185.40290012342044	0.08516517561734815	-0.30550803579529706	0.3906732114126452	111.3636128533804
16	6.0	perception	190	diff_vonmises	0.12811316583606813	7.340343702466311	0.19524644746599762	267.26697146949505	0.18507041619824033	268.29660724477617	0.2741860710452855	-0.5232768721413734	0.7974629431866589	157.34933078344233
17	6.0	wm	190	diff_vonmises	0.1063691366652521	6.094502601369205	0.6866501964235713	2.5542919399162423	5.986337305986162e-18	3.8555219525838376	0.1067210809323087	-0.43118311265881337	0.5379041935911221	142.57044413086493
18	7.0	ltm	190	diff_vonmises	-0.6670876414908677	-38.221306422762865	0.2502013678854141	3.7154995171464673	1.0083463412279265e-16	5.110256597951438	-0.06562286485442803	-0.3600006984864255	0.2943778336319975	156.2142542165913
19	7.0	perception	190	diff_vonmises	-0.013696019645471999	-0.7847241218138076	0.6525774529421446	250.303276848451	0.6366738603623691	252.01512241872445	0.28979213214448407	-0.5266220168501086	0.8164141489945926	107.01413649994014
20	7.0	wm	190	diff_vonmises	0.12511566305540667	7.168599444055681	0.6074712628470832	80.97498326002591	0.5772257799122901	82.67597439655306	0.018800799609230978	-0.39907986321316713	0.4178806628223981	105.79865359228768
0	1.0	ltm	191	diff_vonmises	0.15241598240411622	8.732792522096078	1.0347784830429738	1.1397693560453845	1.2790785663564834e-20	3.7939678090006765	-0.2068750837336673	-0.5537155002065448	0.3468404164728775	126.94289528706885
1	1.0	perception	191	diff_vonmises	-0.06657167406833032	-3.814275959235834	11.610492949988865	0.6961042886127198	0.07927448433135705	3.5042896243285053	0.3327986168295549	-0.5767512776159167	0.9095498944454716	39.1676377718731
2	1.0	wm	191	diff_vonmises	0.024406279146452218	1.3983767887098653	2.1828241230039023	0.9967423565887821	0.09408384705730281	3.3883219512408154	-0.049186633082831555	-0.4929031224485982	0.44371648936576663	84.93688958933015
3	2.0	ltm	191	diff_vonmises	0.23144555847543746	13.260853687690867	1.0296516105269315	0.812613253997245	2.0606363207851388e-32	2.0388339370995774	-0.042262901849004386	-0.28849363070115414	0.24623072885214975	126.90835013001592
4	2.0	perception	191	diff_vonmises	0.004455825142460546	0.2552999749112681	6.743097322575058	1.330862504051862	0.4134299445303833	2.3678519396279785	0.8048379710543565	-0.4027115951912886	1.207549566245645	49.52211536761328
5	2.0	wm	191	diff_vonmises	0.14839036503899952	8.502141637140316	2.871260401765979	0.979571377160929	0.42688498235479655	1.8794665106999837	0.1874052808758765	-0.25130682205076327	0.43871210292663976	69.67860775712464
6	3.0	ltm	191	diff_vonmises	-0.28659428266215525	-16.42064282912084	1.702612319013641	1.9838162247208129	0.9123048189634093	2.6302107490399584	0.07307806020466168	-0.17567049540903057	0.24874855561369225	73.3956682623933
7	3.0	perception	191	diff_vonmises	-0.05670449751494217	-3.2489283870162513	5.006423701414322	1.653109441315471	0.2754624337633275	2.144302832478687	0.9932850977725942	-0.32870371141770355	1.3219888091902978	58.467401169089584
8	3.0	wm	191	diff_vonmises	0.057643311098622356	3.3027184431106775	2.937326010910016	0.7177804878858716	0.060592665313263676	1.0265376211047712	0.29103810836324057	-0.15330087021556751	0.4443389785788081	78.36768071534627
9	4.0	ltm	191	diff_vonmises	-0.2633251419177976	-15.087419271573243	1.7389301234012406	0.7313257110404506	2.705786017206197e-20	2.0432686846883614	0.021364992704182406	-0.3144967415125771	0.3358617342167595	103.37826193536186
10	4.0	perception	191	diff_vonmises	-0.039806409375868136	-2.2807392548072336	2.602579290060747	2.6114686253631265	0.28877791914254336	3.7684113401655384	0.7916018715706925	-0.4856311289373334	1.277233000508026	77.48090293696325
11	4.0	wm	191	diff_vonmises	-0.12280166120898962	-7.036016904470504	0.713862348636558	159.15307295221254	0.7014582262590461	160.39444083212192	0.022813758866952583	-0.28640171868867625	0.30921547755562884	96.62804539091697
12	5.0	ltm	191	diff_vonmises	-0.058905998000998654	-3.3750650734632868	0.80226850273453	132.77512962916143	0.7848498617155845	134.12592924717507	0.03540322148392505	-0.3131064574781206	0.34850967896204565	91.34748851355883
13	5.0	perception	191	diff_vonmises	-0.018292068418732505	-1.048058318957914	0.9093657499664887	361.6993048934774	0.8957164625662623	363.0929482140908	0.49154108310894173	-0.49373004884957794	0.9852711319585197	92.48162247683487
14	5.0	wm	191	diff_vonmises	-0.029263618613447926	-1.6766818398310441	0.9317867970386197	1.875124666504557	2.6098507855558585e-17	2.8890720615037604	0.1566689912970491	-0.36418068244388135	0.5208496737409305	131.476791109683
15	6.0	ltm	191	diff_vonmises	-0.4937327753696658	-28.288804235962576	0.6790845237594314	181.0199505848865	0.6615617205386382	182.6271257088331	0.15807930090349487	-0.4328512910958118	0.5909305919993066	102.9260864341836
16	6.0	perception	191	diff_vonmises	0.02856808077962062	1.6368304574610681	0.8354427611651052	257.9202224304875	0.8172248993374222	259.3922432223363	0.445213105251554	-0.5028146801777638	0.9480277854293178	96.20240131624965
17	6.0	wm	191	diff_vonmises	0.04369184441450989	2.503358284093656	0.8268198067951007	2.4320937660912705	4.39652789977473e-14	3.9215527907719046	0.1267892189454538	-0.48043468299496506	0.6072239019404189	136.1133952307099
18	7.0	ltm	191	diff_vonmises	-0.09736502750105461	-5.578605147985622	0.9127827696459865	185.44549499257573	0.8990395091165735	187.2997244064423	-0.1128167856146689	-0.3810009753901902	0.2681841897755213	79.46355599034501
19	7.0	perception	191	diff_vonmises	-0.06527532689955569	-3.7400007376813145	0.8818304472291622	2.9556538911116172	3.547740779076251e-14	4.75180581542989	0.18734256833892582	-0.594519407600828	0.7818619759397538	133.6330094211421
20	7.0	wm	191	diff_vonmises	0.2809260441428779	16.095876684692765	0.6399761679323197	103.33727615733463	0.6180651267217162	104.75096214792893	0.049408514747184995	-0.34366602970845506	0.39307454445564005	103.7944871006807
0	1.0	ltm	192	diff_vonmises	-0.507204688684754	-29.060688010883226	0.7402150191437065	1.085603343924811	9.739996446357774e-33	2.4973102813357273	-0.08021464407968754	-0.3252734304923757	0.2450587864126882	137.21210632361687
1	1.0	perception	192	diff_vonmises	-0.06606803244659464	-3.785419419923255	11.42280849480486	0.86322146917265	3.1493867847190837e-21	2.53730670302617	0.7467138753275862	-0.4038249037890158	1.150538779116602	40.130714471050084
2	1.0	wm	192	diff_vonmises	-0.032695467945661846	-1.8733123224916919	4.545541031432274	0.3610811348318936	9.94442159420856e-12	1.6488929019760177	0.035098946125098895	-0.26239593386909754	0.29749487999419644	64.1128619769176
3	2.0	ltm	192	diff_vonmises	-0.13201564495509122	-7.563939285624265	6.144149639213271	0.24117084486495896	0.026222842419453943	0.8206640187650579	0.09910361686364019	-0.13009236562586882	0.229195982489509	54.41484022313668
4	2.0	perception	192	diff_vonmises	0.004084814590263426	0.23404263611555495	7.060838338562465	1.5640162649401146	0.5647520161758868	1.8650900514204762	1.1434862767338687	-0.32091955887345647	1.4644058356073253	48.577964677119695
5	2.0	wm	192	diff_vonmises	0.11582821223609283	6.636467709673679	2.4858884729208945	0.7136861169553511	0.28014500004407045	1.3291602162198164	0.14467656938568368	-0.17494010813711364	0.3196166775227973	77.35459351301682
6	3.0	ltm	192	diff_vonmises	-0.1710625987860237	-9.801164942978877	1.8198132918012622	77.87764665965821	1.8037729196159342	78.1575352572707	0.06811355847460732	-0.10077734417199657	0.1688909026466039	62.941253927975936
7	3.0	perception	192	diff_vonmises	-0.0276435455440879	-1.5838584904539095	5.029659925291677	1.8869508248507296	0.7367835008519528	1.7197668782932127	1.1397623052966632	-0.25109278819284875	1.3908550934895119	56.38734656601713
8	3.0	wm	192	diff_vonmises	0.08619274283885626	4.938480389322914	1.3897303676065305	104.70247476762482	1.3742799017243303	104.82797438743678	0.2381555326815743	-0.1084705186656052	0.3466260513471795	78.27961345666077
9	4.0	ltm	192	diff_vonmises	-0.4098714420637285	-23.483903773192484	17.54714309037938	0.21450121499626906	4.161014169667757e-20	1.099382333269988	0.18064571951331246	-0.17497213268781986	0.3556178522011323	32.33599513881194
10	4.0	perception	192	diff_vonmises	-0.04731834590650658	-2.711141513982963	3.6255277265680057	1.8160001911872135	0.027099461041943194	2.2961958394451742	0.9473496997989392	-0.3557353028679938	1.3030850026669332	71.39994614438797
11	4.0	wm	192	diff_vonmises	-0.1869029824379121	-10.70875207210011	0.8313114603824198	154.03644311168262	0.8183294884010573	155.0464615323402	0.07155203293508094	-0.2508350518346312	0.3223870847697121	91.37927867887132
12	5.0	ltm	192	diff_vonmises	0.03568068129446626	2.0443524483243	1.3363700103348046	74.72748454210408	1.3096200809670426	75.21567081720681	0.1670055938355226	-0.17023934453239242	0.337244938367915	75.62864461884104
13	5.0	perception	192	diff_vonmises	-0.08700475650937002	-4.985005345550278	1.459846021044179	5.412721046420872	0.7040619891873855	5.5837007379668675	0.7131459979294337	-0.29626607600161203	1.0094120739310457	89.89598505154135
14	5.0	wm	192	diff_vonmises	0.23379145461794323	13.395263635832467	0.44070375338258266	60.52534828785459	0.4146768281377534	60.91433739730899	0.20083864531861018	-0.22810264076220133	0.4289412860808115	131.46669116433785
15	6.0	ltm	192	diff_vonmises	-0.5081993408682329	-29.11767738308004	0.6013647531667033	105.8098016784438	0.5886296540328249	106.03329376850769	0.19604652597967842	-0.15753511990801705	0.3535816458876955	116.41366123889877
16	6.0	perception	192	diff_vonmises	0.07101323848871086	4.068758854959109	0.4251773861424041	147.7838466766785	0.41051798313961285	147.87339112898658	0.37834324667005603	-0.27097254228877077	0.6493157889588268	134.7475591096943
17	6.0	wm	192	diff_vonmises	0.11060382812412901	6.337132549502949	0.03582815738011647	41.812833782508314	6.509667815352719e-14	42.06678064358191	0.2001148461190354	-0.27667854971032124	0.47679339582935665	177.49613191233234
18	7.0	ltm	192	diff_vonmises	0.07172879728159018	4.10975735378457	1.2302649756837	97.09686382413581	1.2114765093316235	97.90668698010681	0.02717536913603169	-0.20164085015392708	0.22881621928995877	73.13697773388895
19	7.0	perception	192	diff_vonmises	-0.10844281768996505	-6.2133157721416215	2.2996129228798745	1.2683320985987816	1.6123886692266824e-17	1.9772220703125227	0.3967812759742987	-0.30752736061759794	0.7043086365918967	90.66794044232896
20	7.0	wm	192	diff_vonmises	0.13437578439903058	7.699165314824344	0.45528303667161635	72.05958286985997	0.43945309970543256	72.74837597090172	0.04908604177955311	-0.20192966040356453	0.25101570218311764	124.99752350409427
0	1.0	ltm	193	diff_vonmises	-0.0014967277560207026	-0.08575618350007265	0.0003453115165032997	2969.3959498219474	1.1183993087552827e-29	2971.9604078950183	-0.2449401093028314	-0.5713240721190687	0.32638396281623727	179.97298730745572
1	1.0	perception	193	diff_vonmises	-0.04578503997665497	-2.623289555500083	8.464941669060023	1.027149687114044	0.11723334760178061	3.72774310094493	0.5085505682749355	-0.612439517745349	1.1209900860202846	45.53853478017024
2	1.0	wm	193	diff_vonmises	0.011896051267063088	0.6815935304739703	2.75690843801145	0.7194441774306931	0.06943131230625268	3.1226453457095995	-0.08320264987610382	-0.47369172467045684	0.390489074794353	77.24855231523532
3	2.0	ltm	193	diff_vonmises	0.06296045088512098	3.6073681119581402	2.5843754551628897	0.40438887194174594	5.12596445145658e-20	1.6901463961922767	-0.025997829156750946	-0.26761192414031687	0.24161409498356592	85.55934592615557
4	2.0	perception	193	diff_vonmises	-0.0060176343997943756	-0.344785053760958	6.642181423028474	1.4509760885676934	0.33049846904415425	2.529368922634743	0.9161110699769117	-0.42049577422460965	1.3366068442015213	50.4321967830011
5	2.0	wm	193	diff_vonmises	0.21447912219706242	12.288748495562329	2.700364018558346	0.8101654978879438	0.18274264482398653	1.8916427315947033	0.14101805960429364	-0.2682988214292074	0.40931688103350106	76.16141644308306
6	3.0	ltm	193	diff_vonmises	-0.20721969549013347	-11.872813983570747	1.384221608694589	1.6929520634762008	0.6605355077538753	2.319027250112437	0.056140547474930136	-0.1583867789401419	0.21452732641507202	83.19373843983887
7	3.0	perception	193	diff_vonmises	-0.05977221443539369	-3.4246956192989932	4.114057595668401	1.8655711056011257	0.29868863541002016	2.222644827524762	0.9899241136416588	-0.322219219222127	1.3121433328637857	63.99747990618704
8	3.0	wm	193	diff_vonmises	0.02632563690752957	1.5083478877952765	1.0265846674356598	106.20702623733648	1.0085304716151	106.48142443399904	0.2679249511515991	-0.15868267780242107	0.42660762895402016	90.07861560781359
9	4.0	ltm	193	diff_vonmises	-0.22193604442250142	-12.715998667237285	5.007454425160507	0.3766644000311778	7.212522165909353e-17	1.8855510725885616	0.026764058557767423	-0.3000801520847672	0.3268442106425346	61.01477859205485
10	4.0	perception	193	diff_vonmises	-0.06251907840994832	-3.582079331937504	3.063742310729033	1.9972128670619524	0.05261833759937466	2.9948096239257023	0.8216840968539971	-0.45187006181208417	1.2735541586660812	76.89978636385658
11	4.0	wm	193	diff_vonmises	-0.24488403508502743	-14.030821680505648	0.7406628622759971	186.34452218034318	0.7282263584482306	187.86870259857852	0.00032984707547001335	-0.3392024747201994	0.3395323217956694	93.6743472530671
12	5.0	ltm	193	diff_vonmises	-0.1608909506841504	-9.218372436049282	0.7481903312271834	137.80084179765237	0.7339655824674886	138.81690571153433	0.07841463966788353	-0.2581237513508068	0.3365383910186903	96.91356888649776
13	5.0	perception	193	diff_vonmises	-0.07273242621576465	-4.16726105590998	1.9127120472217376	3.2063383323073285	0.3845695689501517	4.082647099756613	0.689825453177931	-0.42649290811468865	1.1163183612926195	86.17499201272011
14	5.0	wm	193	diff_vonmises	-0.07145709894001441	-4.094190185511574	0.37808954585885746	135.32785808618044	0.3645028649217438	136.1633880578701	0.14986621749487483	-0.32005998754425846	0.4699262050391333	135.97199600704573
15	6.0	ltm	193	diff_vonmises	-0.4623311158752871	-26.489621677227763	0.5071902092755892	175.69183287205632	0.4964272544725009	176.70727082666957	0.10363866925661824	-0.3055087653976667	0.40914743465428494	119.18252103811366
16	6.0	perception	193	diff_vonmises	0.15236171749540864	8.72968337185147	0.294452192692996	233.3957746646299	0.2830988214245442	234.19243804120586	0.30760761087496746	-0.4473363614642345	0.754943972339202	146.2020979552129
17	6.0	wm	193	diff_vonmises	0.1026135774066861	5.8793249061420925	0.4268075404435374	3.402569484547899	2.919963398791543e-16	4.434414062964304	0.08752624685741472	-0.36791987690240147	0.4554461237598162	155.82900709146253
18	7.0	ltm	193	diff_vonmises	-0.3587203517436817	-20.553162180361323	1.4400657102181138	0.7457575917641059	6.956074590670157e-16	1.9141550899780033	0.01049871005760411	-0.2869573764444718	0.2974560865020759	111.87734692072337
19	7.0	perception	193	diff_vonmises	-0.0858386888919108	-4.91819459244299	0.6356991256855541	191.45074385687568	0.6169511955776097	192.7492534456696	0.33196078853472955	-0.4623336282558288	0.7942944167905583	110.24715171513321
20	7.0	wm	193	diff_vonmises	0.1499696281918469	8.592626750538994	0.8183311126091505	4.235783706861786	0.37669650526117887	5.344769710157951	0.10403891737086712	-0.3104089473890266	0.4144478647598937	110.61782475062591
0	1.0	ltm	194	diff_vonmises	-0.6411533026087497	-36.735378260355475	1.017000862809964	0.5661710792203479	5.088402648095206e-17	2.8600946635498734	-0.25991421600192943	-0.4296523550573122	0.16973813905538276	124.65246788703013
1	1.0	perception	194	diff_vonmises	-0.05196389177557298	-2.977311685814901	10.57235284884965	0.806226444481698	6.567563620434565e-16	3.445850132792698	0.4844480269632875	-0.5484240811101514	1.0328721080734389	41.7272180734104
2	1.0	wm	194	diff_vonmises	-0.025718153832903948	-1.4735416714935976	4.780605332071217	0.41125840734116276	0.06795410080500974	2.6684243100771488	-0.10591584827539158	-0.422563489942411	0.3166476416670194	59.413822868253476
3	2.0	ltm	194	diff_vonmises	-0.13833996950865163	-7.926296390814235	5.278844697008115	0.24334891127028807	7.295332287894055e-22	1.1737951744000428	0.030379944044724966	-0.18680965861225585	0.2171896026569808	59.38772970740865
4	2.0	perception	194	diff_vonmises	0.012010720150262442	0.6881635735227719	7.128146200505952	1.6869543382328898	0.5553091103624641	2.6031884358379096	1.0934772897918885	-0.4583848168269713	1.5518621066188598	47.846558469986235
5	2.0	wm	194	diff_vonmises	0.09771890187425913	5.598880656048078	2.650722113491174	0.7477469712968396	0.23486815741681508	1.850597481090299	0.08859090951594911	-0.2590724008859314	0.34766331040188053	74.67363592812117
6	3.0	ltm	194	diff_vonmises	-0.17141954161038653	-9.821616260342347	1.5123159580904608	78.41824304996761	1.4938917011134587	78.9256226051247	0.03334973499244853	-0.142058601780775	0.17540833677322354	66.48216108968413
7	3.0	perception	194	diff_vonmises	-0.02415158076633592	-1.3837836464803828	4.882373124779478	2.1083977092760016	0.8388636121195431	2.3052002088074923	1.0879379789019503	-0.3402588865047272	1.4281968654066775	55.75519357513946
8	3.0	wm	194	diff_vonmises	0.11631975309554242	6.664630926378374	1.3309440178788132	118.06400360428013	1.3140608776542393	118.47139060940992	0.19792287725609015	-0.16090288020755317	0.3588257574636433	76.77112148937957
9	4.0	ltm	194	diff_vonmises	-0.6202444484803991	-35.537389164346294	0.8354107199376993	114.56308284437115	0.8162098421232211	116.15480663459574	-0.06830447564738762	-0.3306577728253277	0.2623532971779401	84.98924240968961
10	4.0	perception	194	diff_vonmises	-0.02338778012005626	-1.3400210930591936	3.3052203988644644	1.96400703958201	0.17903505186682245	2.7957382809169387	0.8307577118494727	-0.4002957758127906	1.2310534876622632	71.77701706186198
11	4.0	wm	194	diff_vonmises	-0.005743015816776117	-0.3290505679781488	0.6538045066465468	164.47828276054793	0.6403329110196779	166.32631758630822	-0.08384900916181692	-0.3799709175105903	0.2961219083487734	96.3899547215004
12	5.0	ltm	194	diff_vonmises	0.012468414317679736	0.7143875176235369	1.137408484544578	85.20917077943231	1.1075897395743042	86.12636213169658	0.14238781150409352	-0.2572111088650395	0.399598920369133	79.80770289536
13	5.0	perception	194	diff_vonmises	-0.10783905150959339	-6.17872251819359	1.0970248064318915	207.42676404596511	1.0735666514949331	208.13601302733304	0.6603733044679103	-0.3918976089399884	1.0522709134078987	87.05539836500526
14	5.0	wm	194	diff_vonmises	0.22969354361578137	13.160470630588367	0.9211083917849934	1.70708412967617	6.297778458877634e-13	2.4997040298735693	0.1599320108490052	-0.30945181271212263	0.46938382356112784	131.41754636134766
15	6.0	ltm	194	diff_vonmises	-0.5239025832069536	-30.01740689375988	0.7019182685810889	147.82884565234676	0.6917224979631477	148.28237951612337	0.15890035922797807	-0.17477840224797525	0.3336787614759533	105.55842609492252
16	6.0	perception	194	diff_vonmises	0.09436271852944692	5.4065855151182385	0.2936855900362687	141.45457934824086	0.2775750608193759	141.94424052225915	0.3051255388533427	-0.36278743978739314	0.6679129786407358	147.1821557304997
17	6.0	wm	194	diff_vonmises	0.1244450752321857	7.130177591992254	0.3967452667836466	4.138065399051071	4.124750750319158e-16	4.796943034513251	0.17842446399767742	-0.3374777248795876	0.515902188877265	157.33483808267977
18	7.0	ltm	194	diff_vonmises	-0.024767832713534017	-1.4190922821715524	1.0856264335812442	72.94208704041145	1.0623711664837092	73.99584911875208	-0.05395028479015451	-0.22895102555982483	0.17500074076967032	73.68584459450557
19	7.0	perception	194	diff_vonmises	-0.06838019859323216	-3.917896781658612	2.2139140916840923	1.1740771883011922	4.0088786842960166e-19	2.3278523152060657	0.2733643704092596	-0.362801302539353	0.6361656729486126	92.3765486246659
20	7.0	wm	194	diff_vonmises	0.21576519569276453	12.362435079009696	0.5446282305790945	102.35099362776592	0.5310233208569498	103.48558686304813	-0.024868672431285432	-0.2524243868091016	0.2275557143778162	108.91359330463362
0	1.0	ltm	195	diff_vonmises	-0.162338385354085	-9.301304333757448	8.311222367221221	0.19630978680557548	2.4263296848297096e-14	3.0442167902181354	-0.26235136237390305	-0.4845021365878105	0.22215077421390744	47.13848430034972
1	1.0	perception	195	diff_vonmises	-0.10670849797300205	-6.113946572033318	13.843597953205624	0.605117370736737	1.0473140984124272e-11	3.6282430026557058	0.31233639863511853	-0.5774528086043474	0.889789207239466	36.41968786710029
2	1.0	wm	195	diff_vonmises	-0.13562801060396998	-7.7709125913630555	3.8204552257556768	0.5997291166267505	0.1553882546719614	3.274156106783797	-0.15539996622644453	-0.5131629341333112	0.3577629679068666	62.75882418049406
3	2.0	ltm	195	diff_vonmises	-0.10885837790759581	-6.237125618745401	3.333856540972989	0.4441899134604434	1.2102481763157937e-21	1.9601039137139593	-0.0031679232609924113	-0.31156763590548453	0.3083997126444921	75.16876905690958
4	2.0	perception	195	diff_vonmises	0.023125081755811197	1.324969585502961	6.346917032476824	1.6936422683656636	0.48639709279123217	3.377764399744053	0.8408239347285124	-0.5805255613343263	1.4213494960628386	50.045305622851515
5	2.0	wm	195	diff_vonmises	0.18796774977518832	10.76975874668942	3.1625335685243265	0.6045135168085672	0.09247133202630292	2.152475199447701	0.032991455972974926	-0.32643244020668316	0.3594238961796581	72.38615467673384
6	3.0	ltm	195	diff_vonmises	-0.16724905764060005	-9.582665130346617	1.2207363411913548	144.6233792362371	1.199802280650895	146.0102247811034	0.032608667055001206	-0.34052298019433636	0.37313164724933756	73.10400385493512
7	3.0	perception	195	diff_vonmises	-0.02873507717804418	-1.6463986462846232	3.9326341007185732	2.780627566572491	0.6658725951014671	4.079841949477501	0.9835725829417001	-0.5777294563364125	1.5613020392781127	60.550426983758996
8	3.0	wm	195	diff_vonmises	0.18150388639842924	10.399406655851942	1.0319445130876115	155.96124445303244	1.0135797714253638	156.97708777218483	0.1909520793439512	-0.29383968344757605	0.48479176279152725	84.46218025033824
9	4.0	ltm	195	diff_vonmises	-0.6073056651398079	-34.79605148689624	0.9096867232489128	202.22003463682975	0.8923027541652807	204.86416341688863	-0.17994839181601208	-0.5376362901519478	0.35768789833593573	78.97257335005627
10	4.0	perception	195	diff_vonmises	-0.04191967527032032	-2.4018204715482825	1.4216907432208477	8.513480530616567	0.7295721502126709	10.394228539221782	0.5536191867428757	-0.6085352545727252	1.1621544413156009	84.4489055441681
11	4.0	wm	195	diff_vonmises	-0.07982871579043811	-4.573848498741455	1.7165762480376603	0.6511599440154062	0.09896217307976385	3.4633704354197086	-0.3009261139914663	-0.5009825484998831	0.2000564345084168	87.76834873043148
12	5.0	ltm	195	diff_vonmises	-0.09893434724212237	-5.668520545855367	1.1055006587896106	12.544338736931543	0.8608480584516093	13.706862901764739	0.21435072314666304	-0.33447831577499776	0.5488290389216608	86.26709176342644
13	5.0	perception	195	diff_vonmises	-0.11810122386339333	-6.766701682702161	1.0658406424790068	323.1049076543301	1.0487147792390978	324.3174351679367	0.6155111949850891	-0.48739445996686115	1.1029056549519503	86.44527774767064
14	5.0	wm	195	diff_vonmises	0.05982794607822478	3.427888807218545	1.0447332256725022	1.6385136761784562	4.4614662379120573e-17	2.5621113081976232	0.16594523243309378	-0.3367691456176856	0.5027143780507795	126.70405480563767
15	6.0	ltm	195	diff_vonmises	-0.4332830030347198	-24.825287408643483	0.8302397114022415	145.88995793237365	0.817553576354049	146.72958006040332	0.09559234850116383	-0.22257823302761892	0.31817058152878275	92.81120947446351
16	6.0	perception	195	diff_vonmises	-0.038527171561295245	-2.207444327038668	0.41135189703693714	152.06676357650431	0.3959443126789512	153.13049583623618	0.18820743798834627	-0.39613363543108626	0.5843410734194325	132.26333959667687
17	6.0	wm	195	diff_vonmises	0.20337197145259084	11.652355635488517	0.554820842217592	2.253546183953856	2.105022399771692e-21	3.318187675593524	0.05110641348310396	-0.337149029535802	0.38825544301890597	148.63815493033246
18	7.0	ltm	195	diff_vonmises	-0.21493316866718762	-12.314763442003315	1.0925332669412415	112.62228129352525	1.0691952597419683	114.23691114080663	-0.07961828351382394	-0.352260305460284	0.27264202194646003	73.58326067821096
19	7.0	perception	195	diff_vonmises	-0.13700823173520035	-7.849993436977328	0.6157677104474772	151.83117798173586	0.592975545711426	153.78875599217957	0.13800496510107507	-0.5161837891009728	0.6541887542020479	107.66794111574818
20	7.0	wm	195	diff_vonmises	0.3713084303296965	21.27440595551898	0.9091697136879072	115.59398943205409	0.8881009707282278	117.46013504318827	-0.1341506727173467	-0.3773864919639749	0.24323581924662818	78.67988078785592
0	1.0	ltm	196	diff_vonmises	-0.14272325554104145	-8.177440180868816	1.1995056621704312	0.9135414996304401	5.02047787933987e-21	3.3961091947540734	-0.1942355427061373	-0.5090630419642949	0.31482749925815756	120.60289295686756
1	1.0	perception	196	diff_vonmises	-0.028306643632660142	-1.6218512123322912	9.402067559789485	0.8968247553640672	2.69579944890551e-19	3.590503325554744	0.5100324141361805	-0.5714463450765951	1.0814787592127755	44.287143603046815
2	1.0	wm	196	diff_vonmises	-0.07145194304273138	-4.093894774357653	4.449684480767486	0.4699881074055693	0.015610550108615633	2.9951995344278544	-0.10132203199537837	-0.4733571557836427	0.3720351237882643	63.75595312992047
3	2.0	ltm	196	diff_vonmises	0.09171429968052414	5.254842292692067	2.326030368849705	0.4866245453596355	0.04318581355805827	1.6154357624910698	0.006501874651365536	-0.24410423349541638	0.2506061081467819	86.35542577390203
4	2.0	perception	196	diff_vonmises	0.0119792956271921	0.6863630809776298	5.97557668223211	1.6768307643542701	0.42484416930167046	2.588065861961118	0.995320857855782	-0.42422034425289895	1.4195412021086808	52.535444340372464
5	2.0	wm	196	diff_vonmises	0.045008421764865504	2.5787926096715497	2.0544984290414523	1.5946787243877643	0.5045670119728789	2.750693887015605	0.15504524400505093	-0.3042755225715066	0.4593207665765575	76.8272994998164
6	3.0	ltm	196	diff_vonmises	-0.18879787173522794	-10.817321231480816	1.1772556639794685	115.9783175373039	1.1614293152502215	116.72372646936374	0.06327338231907476	-0.19427913077252335	0.2575525130915981	76.44953367110574
7	3.0	perception	196	diff_vonmises	-0.02639391003957766	-1.5122596501157715	4.350802972576941	2.1019905705641837	0.4135097406257919	2.4670873148058092	1.1222333279862249	-0.35876526736069964	1.4809985953469245	61.43441671932888
8	3.0	wm	196	diff_vonmises	0.02353674719249759	1.3485562775965014	1.0280112855434778	32.396662316475926	0.9550356779536302	32.982834124669836	0.25220074543535276	-0.22114953821931405	0.4733502836546668	88.8028053564334
9	4.0	ltm	196	diff_vonmises	-0.46335325240200964	-26.548185786295125	0.45475535636629	54.50484352577978	0.42049177020160844	56.14521424620972	-0.035279973704229306	-0.3862455876767106	0.35096561397248127	121.11319390349227
10	4.0	perception	196	diff_vonmises	-0.032284769539886876	-1.8497810371880348	2.7551113792561246	2.4871972733682766	0.1132625202228418	3.427387131108089	0.9423179705131207	-0.4892324491688101	1.4315504196819309	79.566087373904
11	4.0	wm	196	diff_vonmises	-0.12213592632971476	-6.997873105613403	0.6477786907811272	240.42524614032507	0.6361981212558939	242.24624816531286	0.03280387164902265	-0.4261385726799958	0.45894244432901843	101.74558456551853
12	5.0	ltm	196	diff_vonmises	-0.018343795724558604	-1.051022075267332	0.8468763642604982	98.52144592013859	0.8254639346541734	99.35481239910433	0.14557630896661067	-0.24055338158178685	0.3861296905483975	93.56633750075977
13	5.0	perception	196	diff_vonmises	-0.0715663579528599	-4.100450265821387	1.0075221187834695	243.15022267743896	0.9873594521440838	243.7613125093539	0.7202792060250545	-0.4022929716067907	1.1225721776318451	91.43030593813006
14	5.0	wm	196	diff_vonmises	0.1454345094823626	8.332783588894728	0.30343897907018585	160.93342718584756	0.2915710427980587	161.827597742852	0.15497303738857227	-0.35742649945308713	0.5123995368416594	144.31060678342865
15	6.0	ltm	196	diff_vonmises	-0.5362781745627442	-30.726476047425265	0.602055430588617	141.1127140914664	0.5896758414512281	141.72713164773637	0.16853763656065723	-0.23036734167847506	0.3989049782391323	113.10025737847656
16	6.0	perception	196	diff_vonmises	-0.009027123697623532	-0.5172160890163583	0.45681794647765916	214.74462556420198	0.4440629142585759	215.20294516480084	0.3992933830765608	-0.3668863109496847	0.7661796940262455	130.43765441457654
17	6.0	wm	196	diff_vonmises	0.06680093496575802	3.827411641065823	0.35278886169982276	5.307154199517907	6.215854511052968e-13	5.9992813601205865	0.21061423013061398	-0.37929731104305	0.589911541173664	159.95685943271334
18	7.0	ltm	196	diff_vonmises	-0.36369586653785296	-20.83823817897224	2.555180881434993	0.3701540606675573	3.2411166244925034e-11	1.5150653878968128	-0.020166570548430796	-0.23979684638178234	0.21963027583335154	85.97600752828727
19	7.0	perception	196	diff_vonmises	0.016878738878587637	0.9670805012464476	0.665639483345243	166.57883927143928	0.6436727209984586	167.82209014871	0.3552441514127551	-0.45271817341222764	0.8079623248249828	108.19568230295707
20	7.0	wm	196	diff_vonmises	0.141370144108231	8.099912606557877	0.6063369292634279	142.2779073146945	0.5936820664264734	143.5318752853521	0.009283628872815086	-0.29105340857141293	0.300337037444228	104.83010116045392
0	1.0	ltm	197	diff_vonmises	-0.21849148587843606	-12.518640000376612	2.2684152555345367	0.4774674731455092	2.6714016951638747e-21	2.821177967048933	-0.1833573623747814	-0.4461596034261526	0.2628022410513712	91.25079575360473
1	1.0	perception	197	diff_vonmises	-0.05317798133627883	-3.0468738935942388	11.081022509309342	0.750222713088697	9.941683221371106e-20	3.360186534409291	0.44977384805112264	-0.5347902964285065	0.9845641444796291	40.75053014074163
2	1.0	wm	197	diff_vonmises	-0.08238850614195888	-4.720513682321904	4.198907853230973	0.48420201685839626	0.042892409831168196	2.814512604250342	-0.08513225944752845	-0.44212739918456107	0.3569951397370326	64.3309152957967
3	2.0	ltm	197	diff_vonmises	0.04038662471672466	2.313983145047057	2.843130154295962	0.3887681179837945	9.261514353012096e-25	1.4020267085300482	0.023765145571206514	-0.22230184597434732	0.24606699154555384	81.53362998909907
4	2.0	perception	197	diff_vonmises	0.019849314901041012	1.1372819700557852	6.28109181925065	1.6620426192438131	0.5164835918899697	2.549883362304171	0.9887946033067905	-0.42975337333190533	1.418547976638696	50.82274527636898
5	2.0	wm	197	diff_vonmises	0.05003309278826677	2.8666850527541223	2.4206796834409006	1.156571737054126	0.44137025189471507	2.2233075162314404	0.14448177558827913	-0.2778364263492903	0.4223182019375694	73.44751507406141
6	3.0	ltm	197	diff_vonmises	-0.20997719513010796	-12.030807074950129	1.4234880432014319	133.23858365507564	1.4081108241841844	133.9627669232872	0.06262880873832444	-0.2013970496842319	0.2640258584225563	69.1375408274902
7	3.0	perception	197	diff_vonmises	-0.020606763420228838	-1.1806805734036816	4.764448404688631	2.1175914986127107	0.5710706616823281	2.533543352945345	1.1305202643495416	-0.379178522417971	1.5096987867675127	57.76188462563593
8	3.0	wm	197	diff_vonmises	0.08665241342103523	4.96481757364809	1.815984545187216	1.7373847296410654	0.5760889935598589	2.3324508951720437	0.23647344562666361	-0.20936161859786906	0.4458350642245327	81.81807263362424
9	4.0	ltm	197	diff_vonmises	-0.509772154684524	-29.20779297671338	0.540564910038031	64.22843706373276	0.5103134944200467	65.81258902453429	-0.029416230890639383	-0.35735137195782674	0.32793514106718735	110.61387390411727
10	4.0	perception	197	diff_vonmises	-0.017868122679553303	-1.0237680173603918	2.5701087196909334	2.7721657989058572	0.27450439247119507	3.79253192932628	0.8810019680525877	-0.48678082157259744	1.367782789625185	78.50680506283791
11	4.0	wm	197	diff_vonmises	-0.05823384209250617	-3.336553376731886	0.6523839814452703	192.26354758448872	0.6391598231969766	194.03810837492426	-0.0013402061947616062	-0.3995277320225803	0.3981875258278187	100.249888419103
12	5.0	ltm	197	diff_vonmises	0.01388074368932174	0.7953080299009873	1.0013636039518485	127.31081121572886	0.9819368019667652	128.1922925751052	0.16999982322400342	-0.25645987914392876	0.4264597023679322	85.92869169319297
13	5.0	perception	197	diff_vonmises	-0.07284721881105242	-4.173838187139323	0.995736543735275	316.5492552486175	0.9807406476383376	317.29217321871675	0.6477230780139394	-0.40390166957776685	1.0516247475917062	91.12301523958317
14	5.0	wm	197	diff_vonmises	0.20586422453191594	11.795151218412329	0.3439850812444903	121.55329215295377	0.3278320882881659	122.40600199065274	0.17133725443200376	-0.3483372507804301	0.5196745052124339	139.8200089504993
15	6.0	ltm	197	diff_vonmises	-0.5399509060315398	-30.936908059872138	0.7094547650673108	151.1937431647437	0.6967421299291172	151.79999148911776	0.1942641868117363	-0.22407096514912261	0.4183351519608589	104.73964727215294
16	6.0	perception	197	diff_vonmises	-0.0555231538246088	-3.181242379405739	0.6449406822440273	279.8222658245335	0.6340769698811678	280.40644599884365	0.41842077886740014	-0.3460475411517301	0.7644683200191302	112.67027423189712
17	6.0	wm	197	diff_vonmises	0.0836079214711915	4.7903810341604895	0.3806282610714967	5.083112317376005	5.8339497639716505e-21	5.794457641515948	0.2197772369844605	-0.3888123444681273	0.6085895814525878	158.385424371397
18	7.0	ltm	197	diff_vonmises	-0.011146777037608233	-0.6386632794282903	1.1219870661471614	114.49874701680184	1.1027513439858938	115.83833396781539	-0.07193860849316991	-0.2936531664187747	0.2217145579256048	72.2205274965585
19	7.0	perception	197	diff_vonmises	-0.0007876073612479502	-0.045126577712943136	1.5587683595402737	1.7818648881193897	2.9523570158300602e-18	3.151528850217293	0.28844400650790647	-0.46661003811093793	0.7550540446188444	108.66197529271459
20	7.0	wm	197	diff_vonmises	0.21883355912817967	12.538239353871246	0.607540504601361	122.18118065291323	0.5938832174304753	123.52216277971057	-0.038716408406727965	-0.2876139641139499	0.24889755570722194	101.96440975467482
0	1.0	ltm	198	diff_vonmises	-0.01738443872228933	-0.9960549679909801	7.721834669222971	0.20576496121361848	0.04360342639132051	3.1756045572339056	-0.30351780889660845	-0.5119902802120899	0.20847247131548147	47.04297643804989
1	1.0	perception	198	diff_vonmises	-0.10668265414734938	-6.112465829896948	13.491738688103837	0.6995091798668353	0.12870970879166307	3.7017361184344417	0.3478649883130165	-0.6294250811752813	0.9772900694882978	36.118081895117
2	1.0	wm	198	diff_vonmises	-0.14805176408765344	-8.48274123168907	3.731494340716362	0.5070779317053066	0.11237646523139157	3.059882129266137	-0.16795334663859368	-0.4780020854748482	0.3100487388362545	64.54687347022326
3	2.0	ltm	198	diff_vonmises	-0.1513021745774391	-8.66897603443884	4.4271714826364965	0.4693445632937689	4.311461566162941e-57	2.3811809251856606	0.0022779709852440155	-0.3789222785302174	0.38120024951546144	64.98935543558005
4	2.0	perception	198	diff_vonmises	-0.01662603083136443	-0.9526013966915651	7.881806315480492	1.348375160395082	0.333997439355746	3.4699386172006332	0.7345020114398866	-0.606005119184472	1.3405071306243586	45.93582228377028
5	2.0	wm	198	diff_vonmises	0.1903686321854333	10.907319175903654	4.0701752859175215	0.4404032599692598	1.0281478304848721e-20	2.2877909755499983	-0.022281190252800953	-0.3640135854591956	0.34173239520639465	67.84921401039318
6	3.0	ltm	198	diff_vonmises	-0.25838533612188597	-14.804389247853244	3.3725761729738224	0.6990452448005054	0.15229337105968205	2.1555515233279405	0.09192372483501587	-0.32436705674854815	0.41629078158356403	68.956685457726
7	3.0	perception	198	diff_vonmises	-0.06817230071903455	-3.9059851108973467	3.016645598834763	3.713679081406057	0.7583021646550415	5.1915361486017515	0.9049319731255603	-0.6186260818467941	1.5235580549723544	65.90018180348494
8	3.0	wm	198	diff_vonmises	0.061117665424239756	3.501784282501576	1.2112281826464335	219.28440819966747	1.1960690129038298	220.33326027279145	0.21675841865084067	-0.31471865096930784	0.5314770696201485	77.8219542053281
9	4.0	ltm	198	diff_vonmises	-0.3106217057545655	-17.797312764891117	1.6402799738180496	2.179567264014334	0.5541380117234157	4.824697280588015	-0.24267755760781928	-0.5272573426006055	0.28457978499278624	71.55603246543909
10	4.0	perception	198	diff_vonmises	-0.14922299341232464	-8.549847728834688	1.0776732530412556	251.15529450224463	1.051327637240846	253.31852949879428	0.4836197588294908	-0.6528666443859201	1.136486403215411	83.30340880072518
11	4.0	wm	198	diff_vonmises	-0.4545695888584522	-26.044918936586363	0.7037795567280998	148.2777570793933	0.689992407433531	150.78377411777336	-0.31872828934455555	-0.4516302781179995	0.13290198877344395	78.47268296429434
12	5.0	ltm	198	diff_vonmises	-0.11821631422252028	-6.7732958745427805	2.033131560567603	1.4550131890113545	0.2757059855765516	2.9096825381343687	0.1594232245555669	-0.36448991947184245	0.5239131440274094	82.76553277770705
13	5.0	perception	198	diff_vonmises	-0.10162641603398959	-5.822764725788241	1.4203958143431357	7.851971177724389	0.713841470223283	9.505185351295829	0.5609914803990121	-0.5610230150287858	1.122014495427798	85.30714959637118
14	5.0	wm	198	diff_vonmises	-0.16571384827628222	-9.494704113102243	0.5808660101340672	58.62269925184728	0.5436983857646019	59.78595355248254	0.1141360906693798	-0.3323619137249194	0.4464980043942992	112.93415110725061
15	6.0	ltm	198	diff_vonmises	-0.32579036387843546	-18.666412856265698	0.8470533126812443	164.2880199429378	0.8325852193035381	165.69053898160595	0.01906744708737307	-0.31850854356570224	0.3375759906530753	88.02308880631219
16	6.0	perception	198	diff_vonmises	0.1462100154080824	8.377216805425858	0.4039604621634539	4.363224509745582	1.160259180818985e-18	5.892426746829806	0.06109043012687709	-0.4925078107841729	0.55359824091105	156.8296020714161
17	6.0	wm	198	diff_vonmises	0.25383915400033435	14.543912199390507	0.7915011594468421	1.0694176950924716	4.0225133416776627e-19	2.5667894690532176	-0.08553824106584124	-0.34218770757943845	0.2566494665135972	136.99790415665467
18	7.0	ltm	198	diff_vonmises	-0.39557751758520243	-22.664922227894206	1.0197309275814004	174.6269290408222	1.0034302027197328	176.15982664307307	0.013120832458469067	-0.3527598743517153	0.36588070681018436	79.59753042457808
19	7.0	perception	198	diff_vonmises	-0.27997009327532557	-16.041104734560147	0.5293336470014437	240.4034188829588	0.5168570276073409	242.41441783664848	0.05999213250500901	-0.5101948033393313	0.5701869358443403	114.28468049620791
20	7.0	wm	198	diff_vonmises	0.4069977537047383	23.319253558586468	1.0346749625607312	57.802599619700416	0.9890829315934648	59.449950336462834	-0.0615273704201762	-0.3576210577876848	0.29609368736750863	76.94440131579742
0	1.0	ltm	199	diff_vonmises	-0.728037931196484	-41.713500782994345	2.5028419781928037	0.564148317766683	3.2648608573841684e-32	1.1940799473392874	0.1426550816428963	-0.18781458525927675	0.33046966690217305	86.55331064113719
1	1.0	perception	199	diff_vonmises	-0.07093640917437323	-4.064356859504679	9.98071937059118	1.027067641566404	2.4711725690494256e-16	1.7494977549938067	0.9990016678608591	-0.27844121289888235	1.2774428807597413	42.9631237448767
2	1.0	wm	199	diff_vonmises	-0.05556765211400446	-3.1837919435836626	5.047266333138109	0.33222762145520546	3.334274653446222e-19	0.7909148660740236	0.16364917427454695	-0.1258660510268371	0.28951522530138407	60.76717834875217
3	2.0	ltm	199	diff_vonmises	-0.15575278905118645	-8.923977460024402	1.938713644196259	34.4862889880171	1.8980664708730428	34.63820876407357	0.14696106029549583	-0.09093171657301724	0.23789277686851307	64.57757523669665
4	2.0	perception	199	diff_vonmises	0.017259342244767426	0.9888874677970217	5.941984387875584	1.7788863531538952	0.8927956144100168	1.2328363136326088	1.293972558563792	-0.18629134297355854	1.4802639015373504	52.534290167013864
5	2.0	wm	199	diff_vonmises	0.19395400526271792	11.112745921211895	1.0723680061079774	10.956877519314672	0.965196278850346	11.047042555868334	0.19151377267041836	-0.0910056011155137	0.28251937378593206	91.55367099738027
6	3.0	ltm	199	diff_vonmises	-0.11218867432005064	-6.427937547706622	2.2855444855006875	46.686905105276665	2.264379711599155	46.800526767370705	0.08104628564512595	-0.06381968096708501	0.14486596661221096	58.195073780328556
7	3.0	perception	199	diff_vonmises	-0.013621695499211056	-0.7804656619171425	5.773909093278901	1.6028257663495447	0.5431742533120552	1.043312254841595	1.2340933192799084	-0.15744353576126902	1.3915368550411773	54.596800620518025
8	3.0	wm	199	diff_vonmises	0.1738935736470216	9.963367854421692	1.1890871596179553	57.17736748273383	1.1711321429669206	57.01728025852364	0.25002939240741995	-0.05574713332383752	0.30577652573125746	90.01223489101375
9	4.0	ltm	199	diff_vonmises	-0.39312005316508897	-22.52411988831814	14.114941576022458	0.25972088387262793	2.5064930249951277e-15	0.633148354600507	0.2847552783775236	-0.10076869034495857	0.3855239687224822	36.079056283924245
10	4.0	perception	199	diff_vonmises	-0.034792414588887696	-1.9934585150126582	3.330338397747745	1.9818100617991934	4.25427522001303e-17	1.971747389929328	1.0631273727151789	-0.3120504744639778	1.3751778471791567	75.20976821392082
11	4.0	wm	199	diff_vonmises	-0.29686733860385134	-17.009245577281817	1.052929098763951	124.39963467694075	1.0360912835877392	124.87680361500139	0.2282810039496539	-0.18706259394605596	0.41534359789570985	86.79262286540357
12	5.0	ltm	199	diff_vonmises	0.057785050029373716	3.3108394856354275	1.7565613792075927	42.98745791308228	1.725361835055301	43.0237719267003	0.20526821835136033	-0.07666798387833929	0.2819362022296996	70.53447833433012
13	5.0	perception	199	diff_vonmises	-0.10813476419997022	-6.195665607300641	2.225659967946033	2.0074542677999903	0.15418989125088073	1.317603682216326	0.8611300772508118	-0.1657946099513444	1.0269246872021562	89.39038537212772
14	5.0	wm	199	diff_vonmises	0.35138108870168394	20.132653383318505	0.45214457305678735	102.81055990911615	0.439087643067336	102.6214858192532	0.29307244674845734	-0.14011196312014107	0.4331844098685984	132.7198159783265
15	6.0	ltm	199	diff_vonmises	-0.5214753820503989	-29.878338511460022	0.4956470210518232	52.68295476587707	0.4795573255358778	52.408938118884706	0.22468144601180207	-0.07112745652297559	0.29580890253477765	129.73534690725182
16	6.0	perception	199	diff_vonmises	0.007643494184700727	0.4379399575161398	0.4291285253460958	106.72748038781057	0.41406934150748115	106.25028075484039	0.406322449584561	-0.14559150177188407	0.551913951356445	137.04691787963264
17	6.0	wm	199	diff_vonmises	0.11141308677283228	6.383499654608107	0.00034323129871185673	3947.4486122998314	5.883085195342954e-31	3947.0981007763958	0.27143641963039045	-0.15982813311325117	0.4312645527436416	179.50669024327414
18	7.0	ltm	199	diff_vonmises	0.16425809389395502	9.41129553098722	1.4480998095873172	70.27170277552435	1.4242204104358178	70.76725427188157	0.08933783105235804	-0.1519143899036539	0.24125222095601195	70.44037075728608
19	7.0	perception	199	diff_vonmises	-0.13297352478588084	-7.618821757209216	3.413036065310818	1.2319400572047647	1.1768329969822764e-20	1.3429379207296102	0.6539623063888682	-0.21279351717834605	0.8667558235672143	74.27241719117703
20	7.0	wm	199	diff_vonmises	-0.14331424923257374	-8.211301625112473	0.08134695443555554	54.743248607011466	0.06615950338843724	55.06681170030784	0.08205483654965029	-0.17541743202211713	0.2574722685717674	170.9457407217459
0	1.0	ltm	200	diff_vonmises	0.03293741905223179	1.8871750997466696	7.438906846557343	0.21880337716034282	4.27588447216163e-17	3.3925344151668386	-0.30614402407292496	-0.5399385409676849	0.23379451689475994	49.862676277667276
1	1.0	perception	200	diff_vonmises	-0.11044085276441314	-6.327794749226603	11.552740218429488	0.7293428559561315	0.15032316287438655	3.8763493616087827	0.26466007918441414	-0.6617914574854641	0.9264515366698782	38.74738734687381
2	1.0	wm	200	diff_vonmises	-0.10469417232085183	-5.9985342136001725	2.7835899549929928	0.7475504004884238	0.1298512669792691	3.4252848325383964	-0.1491021630597668	-0.5141204680453573	0.36501830498559046	73.20665873305137
3	2.0	ltm	200	diff_vonmises	-0.13285664317601156	-7.612124934261011	1.4072552033333758	0.7633716374811306	2.4876094443897262e-33	2.6278036761533863	-0.10008448781751272	-0.39915908738295774	0.299074599565445	113.36476390700643
4	2.0	perception	200	diff_vonmises	-0.008382413152040849	-0.48027689574689386	7.431121667021403	1.326259800094483	0.3598597552600373	3.2280734924933294	0.7029983075583918	-0.5616352820110297	1.2646335895694216	47.10628433022376
5	2.0	wm	200	diff_vonmises	0.33036874161057156	18.928734577333774	3.9138818919297953	0.4988561505682456	0.018852236253036156	2.0209050925884564	0.05128257353788679	-0.3176118475437158	0.3688944210816026	68.16518349939628
6	3.0	ltm	200	diff_vonmises	-0.3114634719083426	-17.84554241283951	4.348987399322269	0.42676873475453997	5.003344523339234e-12	1.6766631264812828	0.076521148630872	-0.2667919060742778	0.3433130547051498	65.5816835070346
7	3.0	perception	200	diff_vonmises	-0.08563443561244395	-4.906491741577834	3.771857014105034	2.3056033499528326	0.46678623174060974	3.579839807776376	0.855409893502376	-0.509585000801822	1.364994894304198	63.5155954906343
8	3.0	wm	200	diff_vonmises	0.12638619275023122	7.241395433315171	1.1061110071336735	165.196150386202	1.090849577671822	165.8227409519303	0.2472585880731515	-0.22609626399464489	0.47335485206779637	83.91084530759079
9	4.0	ltm	200	diff_vonmises	-0.28808163800171543	-16.505862012713884	2.5058454016332408	0.8736738425637567	0.3069123655831749	3.212140942745011	-0.16321712135902233	-0.4617163592768724	0.29849923791785005	69.37805043901093
10	4.0	perception	200	diff_vonmises	-0.107421312290516	-6.154787824003365	1.5206654203588172	6.698560684000938	0.7021486729413465	8.619742544427591	0.46930682674261304	-0.5864789826943957	1.0557858094370087	82.61510668662007
11	4.0	wm	200	diff_vonmises	-0.40796371830864664	-23.374599253549444	0.7380361967508426	151.63462328025386	0.7248104737546616	153.7835961609829	-0.2390026932293523	-0.39756554914764664	0.15856285591829433	80.8042052741631
12	5.0	ltm	200	diff_vonmises	-0.23885075407028072	-13.685140141744254	2.2700134486959986	1.1332501425263486	0.18404030824820397	2.75125435426571	0.1088718906744447	-0.37788657530913594	0.48675846598358063	81.30608848420154
13	5.0	perception	200	diff_vonmises	-0.09304074711451625	-5.330842132405773	1.1262643150049891	28.52720165266185	0.9239262711545251	30.305421083711252	0.5068121173544835	-0.5745352450256651	1.0813473623801486	85.88968677059685
14	5.0	wm	200	diff_vonmises	-0.18859722065604895	-10.805824771489116	0.5126569508055717	142.05330239752843	0.49743359166001366	143.11641187175974	0.14269392608667886	-0.339623006711431	0.48231693279810983	120.09957551445623
15	6.0	ltm	200	diff_vonmises	-0.35944137540834015	-20.59447379327531	0.8050889907132702	190.30380301134156	0.7902616932934046	192.01571543369295	0.02220888633491569	-0.38824169468432856	0.41045058101924425	90.41053955545681
16	6.0	perception	200	diff_vonmises	0.1928471636870375	11.049328570335796	0.7136884908511075	2.9164504429218345	8.435901957313063e-16	4.75744405145856	0.08034016785055664	-0.556220393433831	0.6365605612843876	140.92812378808736
17	6.0	wm	200	diff_vonmises	0.2937251558126366	16.829211764886576	0.5106082444015626	1.7751368800273282	8.146440007917471e-33	3.5565680077241297	-0.12452954931645593	-0.40702984074403936	0.2825002914275834	150.12686605700844
18	7.0	ltm	200	diff_vonmises	-0.40211478473948414	-23.039480045384042	0.8731650169006582	189.3939018091809	0.8583352689913937	191.21673953521056	-0.038109559670488125	-0.39345693051853203	0.3553473708480439	84.57342212400596
19	7.0	perception	200	diff_vonmises	-0.29118347495631003	-16.683584178949868	0.4775081639022915	238.35173984578188	0.4639054867402274	240.54842302307446	0.07583323765062033	-0.5835198419548817	0.659353079605502	120.66193365566708
20	7.0	wm	200	diff_vonmises	0.4678119044805982	26.803647732715483	1.4327254607751048	3.992425312912387	0.7439415150556347	5.694425541736444	0.013886100665634116	-0.39159844024292706	0.4054845409085612	77.44007081569649
0	1.0	ltm	201	diff_vonmises	-0.2030892725935305	-11.636158183991196	3.3902779512397405	0.2849723298806536	2.079109094428296e-18	2.5804498742252644	-0.21072282749228435	-0.41046422889561296	0.1997414014033286	74.523768702578
1	1.0	perception	201	diff_vonmises	-0.07587746832998567	-4.347458695445746	14.77682996542351	0.638973150333581	0.008869129388024808	3.197349340708412	0.4576881759604242	-0.5106118665864301	0.9683000425468543	35.18482473675866
2	1.0	wm	201	diff_vonmises	-0.08508657148481118	-4.875101439317858	4.119730957486103	0.424186977172421	0.026824319541322927	2.5733879232622408	-0.08920696567167125	-0.4049574240877353	0.31575045841606403	65.62954080096316
3	2.0	ltm	201	diff_vonmises	-0.09711205964119918	-5.564111157263449	7.454328041252657	0.27980544917909644	2.7019877907106404e-34	1.3406241321568813	0.0858709687114709	-0.21336685712501485	0.2992378258364857	49.82013425664269
4	2.0	perception	201	diff_vonmises	0.00414085640154217	0.23725359537809568	7.2646576502765114	1.48870295817184	0.4901497273040169	2.5652834270295806	0.9429062669975494	-0.45108980479000443	1.393996071787554	47.53377933597892
5	2.0	wm	201	diff_vonmises	0.04103787061876628	2.351296786659232	3.270204515663745	0.7201826883164809	0.2725824211835394	1.8378317757109586	0.11813822707450766	-0.26902382427181853	0.3871620513463262	67.67188798731908
6	3.0	ltm	201	diff_vonmises	-0.21275043287323403	-12.189701893217638	1.555586546640837	98.97919766782259	1.533812036851565	99.65579140140885	0.0764203007023454	-0.2006491536769559	0.2770694543793013	66.57609417312096
7	3.0	perception	201	diff_vonmises	-0.029280089330612196	-1.6776255424101105	4.387134353784356	2.4489243705790633	0.801160640137974	2.905914269007656	1.0965742905075686	-0.41215814834128717	1.5087324388488557	58.0722854006402
8	3.0	wm	201	diff_vonmises	0.07783886923711406	4.459838689357333	1.58121808045871	5.752346107999996	1.1432039429754515	6.333108938760972	0.23822946127982103	-0.2151956487327713	0.45342511001259234	75.18947315934867
9	4.0	ltm	201	diff_vonmises	-0.4193940759679929	-24.029510505755017	3.4988396202275016	0.38189582068048067	8.785877799684627e-32	1.912569355426109	-0.031644837261367964	-0.30414557297765915	0.2725007357162912	73.31271110100207
10	4.0	perception	201	diff_vonmises	-0.05260815974865807	-3.014225521548125	2.6985309212634405	2.6428026425300195	0.33177740024656877	3.8125544471183788	0.8059133427638703	-0.48876654010381204	1.2946798828676824	75.47721106759334
11	4.0	wm	201	diff_vonmises	-0.04155223176142456	-2.3807675092790777	0.6943773378772726	160.17031919180462	0.6813514351278435	161.7831315570046	-0.05578070717316308	-0.337711710612286	0.2819310034391229	94.32741431766084
12	5.0	ltm	201	diff_vonmises	0.03963619578168535	2.2709867342448073	1.0938292875914535	117.80283655366509	1.0700842250673177	118.86746592110548	0.1469399516651464	-0.29121888639036086	0.43815883805550726	81.00103873021513
13	5.0	perception	201	diff_vonmises	-0.06579227353145307	-3.7696195979225373	0.9828380447771629	332.9933864095847	0.9682716526042093	334.0514455708085	0.5642225428345142	-0.44125019622445194	1.0054727390589662	90.26195576271638
14	5.0	wm	201	diff_vonmises	0.1265783621153432	7.252405926887797	1.0826536794741197	1.5042642562481987	3.317081995443022e-17	2.4805492599419945	0.1426530421312932	-0.3331375870746602	0.4757906292059534	125.08001809705004
15	6.0	ltm	201	diff_vonmises	-0.4747326469039003	-27.200177064667837	0.760348104730803	192.91786321852638	0.7486715002089106	193.84358935872584	0.15804129592662264	-0.27150120901607266	0.4295425049426953	98.62436810364296
16	6.0	perception	201	diff_vonmises	0.0009730492138990425	0.055751613214937615	0.6648519843995645	178.92765542446455	0.6469609864001825	179.87036789235285	0.3499304614506258	-0.3837329917158332	0.733663453166459	109.0874743989116
17	6.0	wm	201	diff_vonmises	0.09131164080782267	5.231771638702778	0.42982609536097316	3.9818975725052397	6.1510986690403006e-18	5.0025507660334565	0.13438651138087465	-0.4022601759661828	0.5366466873470574	155.7139541257586
18	7.0	ltm	201	diff_vonmises	-0.040731163831230516	-2.333723782185417	1.2298769099392157	156.76549759693688	1.2137718345053174	158.1738153343761	-0.0727064377788551	-0.3205720423773002	0.2478656045984451	69.05489724357685
19	7.0	perception	201	diff_vonmises	-0.055367362686425343	-3.172316204702288	1.242896507804076	1.7440069608159476	3.515931214339441e-16	3.207125180588768	0.16455844411081144	-0.4542300064585011	0.6187884505693125	119.10372284369285
20	7.0	wm	201	diff_vonmises	0.3864799117011546	22.14366780706488	0.7183251633215962	90.21678172239852	0.6992976342594035	91.49323413620473	-0.0357476231417202	-0.27031226793120666	0.23456464478948647	93.3979519667833
0	1.0	ltm	202	diff_vonmises	-0.7362777995205363	-42.18561046170608	0.00019939828462769535	2227.0774353095867	2.0149484692291425e-30	2229.3514118692606	-0.29123465965227524	-0.43258751397394235	0.1413528543216671	165.10814204484274
1	1.0	perception	202	diff_vonmises	-0.1036661396788419	-5.9396322820113205	13.829931562891135	0.7156826129197943	0.14500347452347775	3.188275429491707	0.46832032587608563	-0.5467616789134668	1.0150820047895524	35.71650924964655
2	1.0	wm	202	diff_vonmises	-0.0936002002270142	-5.3628964345873635	3.8144666947631176	0.409952940838374	0.04480500078158315	2.325711330079305	-0.07983540952911472	-0.3636945782834632	0.28385916875434847	67.23654024402572
3	2.0	ltm	202	diff_vonmises	-0.09887558453055684	-5.665153690489918	20.148548664509004	0.24243273825933442	8.741063016250272e-25	1.5148698643199732	0.1901308466884875	-0.24109902704747255	0.43122987373596006	30.15795100361956
4	2.0	perception	202	diff_vonmises	-0.016970464500280887	-0.9723359922426845	8.387392214942704	1.3193859523364884	0.41857099602843567	2.7637611954763956	0.8601386545404988	-0.49686770073057634	1.3570063552710752	44.56325441643264
5	2.0	wm	202	diff_vonmises	0.2012779367304279	11.532376283754731	4.291736110601499	0.38401140746493523	0.007381306249022079	1.6139811767960377	0.047950308050976886	-0.2554351121137746	0.3033854201647515	65.61214628957532
6	3.0	ltm	202	diff_vonmises	-0.22141002190100725	-12.68585979682684	2.840840828993788	0.8325480745962597	0.6855839621437542	1.5516464516159592	0.09123500723169126	-0.19871436857922598	0.28994937581091723	64.91101162576015
7	3.0	perception	202	diff_vonmises	-0.05792935460318744	-3.319107528679388	3.915869995252009	2.617850022089334	0.8143614270162015	3.2812264007658754	0.9840669508533073	-0.4406897300187139	1.4247566808720213	60.2516450070209
8	3.0	wm	202	diff_vonmises	0.10001095860211996	5.7302058329590695	1.4996358625949227	156.3671411908861	1.4834307362678683	156.82408791649462	0.247441290591496	-0.19289314901152466	0.44033443960302066	72.33708871858414
9	4.0	ltm	202	diff_vonmises	-0.4287548925058318	-24.56584578616945	17.337562067546813	0.21683558711181472	0.11997431550758376	1.856208068299853	0.025462375213337995	-0.31819021652019	0.34365259173352797	31.828437787417556
10	4.0	perception	202	diff_vonmises	-0.11142414969006037	-6.384133513074379	2.4359092548384416	2.835162117610626	0.45962195338994233	4.264625256049065	0.6253349607423424	-0.5024831219741452	1.1278180827164876	75.52736795645319
11	4.0	wm	202	diff_vonmises	-0.2646405911421222	-15.162788960290799	0.7801172900699256	123.28010651373235	0.7668943867188486	124.83491228492475	-0.15099019208356168	-0.2956726691861	0.14468247710253834	81.29125425116415
12	5.0	ltm	202	diff_vonmises	-0.05520571461150652	-3.1630544522430246	1.1442434941537285	88.0869279339165	1.1108587615198962	89.29878441944302	0.10931324999118175	-0.3152499638745745	0.42456321386575624	78.07988321096198
13	5.0	perception	202	diff_vonmises	-0.08573034354055097	-4.9119868610802095	1.2699527324642228	10.55996485605136	0.8007034134446691	11.899713455708104	0.5245097564182255	-0.48249584352099695	1.0070055999392225	86.7934561807399
14	5.0	wm	202	diff_vonmises	-0.06994294832709338	-4.007435745844052	1.7077340899371332	0.9407296073155256	3.9870254032286144e-13	1.8580840910674996	0.14518489115540673	-0.28123457630768844	0.42641946746309517	104.37007306253813
15	6.0	ltm	202	diff_vonmises	-0.37223164268738124	-21.327302127208636	0.8133838343049536	113.62894366047205	0.792473539773194	114.8706481937957	0.07847072557299128	-0.3053131535110598	0.3837838790840511	92.39666498215499
16	6.0	perception	202	diff_vonmises	0.18871300282925774	10.812458601356832	0.8743128439250174	2.338896363291306	7.78693525408089e-18	3.6449412943418826	0.16325207638178874	-0.4507545277966909	0.6140066041784796	133.6111941823836
17	6.0	wm	202	diff_vonmises	0.19261975603560574	11.036299071679775	0.39610207813773324	2.503915232382441	1.0911608564861389e-13	3.823883601186086	-0.03895847776797712	-0.3506348452042445	0.31167636743626737	156.9325156493853
18	7.0	ltm	202	diff_vonmises	-0.17547502462131867	-10.053978320755766	1.136328281728149	188.65300294848748	1.1226386675324271	190.01475122321483	-0.014968737380399944	-0.31455750643874225	0.2995887690583423	74.22074627103154
19	7.0	perception	202	diff_vonmises	-0.2848584141033741	-16.321184886913223	0.5496693922357584	177.9353981583854	0.5345777931750584	179.4718300346564	0.11585962803314942	-0.4252670030402381	0.5411266310733875	114.25506027192469
20	7.0	wm	202	diff_vonmises	0.6806042372645638	38.99575031398001	8.739692606354414	0.3084189416510717	0.027647271126781527	1.4790375533028204	0.11629589922503233	-0.23652286419044583	0.35281876341547813	45.53834805598507
0	1.0	ltm	203	diff_vonmises	-0.3017378824720246	-17.28830718486147	0.00027569189607917945	3259.9116815619022	1.5561458622913536e-29	3261.8694451228866	-0.1685421836594969	-0.4546135964684481	0.2860714128089512	177.39682364478048
1	1.0	perception	203	diff_vonmises	-0.07108105666479919	-4.072644550223245	8.516162044140831	1.1330298141987185	0.16772453458420325	3.245708777672139	0.6919388929976547	-0.5412217661731414	1.233160659170796	45.25732401048518
2	1.0	wm	203	diff_vonmises	-0.03369394920879243	-1.9305210847919656	3.9093775204881336	0.4677445034943923	0.03950416783638248	2.2237778521239933	-0.01289274727441203	-0.3477566561373796	0.3348639088629676	67.06272331128883
3	2.0	ltm	203	diff_vonmises	-0.07406373478086069	-4.2435394179196	3.4586661677751613	0.33689815025026965	8.306754142651764e-13	1.4349679688576646	0.010681292794095798	-0.22814544568347966	0.23882673847757546	73.76662051154872
4	2.0	perception	203	diff_vonmises	-0.01354107211213806	-0.7758462821078103	6.897807392253617	1.4561483764421075	0.31893579248093756	2.384133787512092	0.9868986785321405	-0.39692432510169906	1.3838230036338395	49.73856837182976
5	2.0	wm	203	diff_vonmises	0.36543891352348434	20.938107414741918	3.0386285061856597	0.5409749757121434	5.114711945478251e-18	1.4856669389607986	0.1204545717968741	-0.23563232750782187	0.35608689930469595	78.78603437326004
6	3.0	ltm	203	diff_vonmises	-0.143099380448547	-8.198990550638632	1.757788994377387	0.8600769713231352	0.5112645398907509	1.386869240276162	0.06514050302445329	-0.13737988559054015	0.20252038861499344	81.02363161400945
7	3.0	perception	203	diff_vonmises	-0.06771386861432926	-3.8797188861044347	3.727436727261462	2.021033444940467	0.40033666220666353	2.26462019829683	0.9779278338396479	-0.3104653862699508	1.2883932201095987	66.0714822955477
8	3.0	wm	203	diff_vonmises	0.06842479290171703	3.9204518473250993	1.0472255796623962	115.22832416447228	1.0335352571396537	115.31575458440376	0.2668683378390284	-0.11780429518033664	0.38467263301936505	91.06165645280743
9	4.0	ltm	203	diff_vonmises	-0.25932824145989053	-14.858413744201261	6.210392081919944	0.43663457040579134	0.27832494230116994	1.8145295367432688	0.0504009659055944	-0.30713361932250394	0.35753458522809833	50.21820795191772
10	4.0	perception	203	diff_vonmises	-0.08879600643648546	-5.08763640642711	3.1765962892136437	1.7572487082358057	0.004807656493213658	2.6627830146548166	0.7630453577618492	-0.41969000379679816	1.1827353615586473	76.89615013012227
11	4.0	wm	203	diff_vonmises	-0.4811418367589533	-27.567396593460433	1.0175933236356132	166.28772867634083	1.0022948988159741	167.6857354812891	0.00247905562430617	-0.3188033562999095	0.3212824119242157	79.33101226332
12	5.0	ltm	203	diff_vonmises	-0.22727784692290876	-13.022061405503056	0.8756242421829024	117.31670044515518	0.8608236281152042	117.98650344636044	0.11998130494932724	-0.19342067889077086	0.3134019838400981	91.83768956316558
13	5.0	perception	203	diff_vonmises	-0.11130576051674815	-6.377350313103546	2.9938380565152545	1.8135423057321505	0.04332608595481945	2.2493744326326217	0.8126498601479808	-0.34023919438861333	1.1528890545365942	78.25581135958629
14	5.0	wm	203	diff_vonmises	-0.10210552516529695	-5.850215656938333	0.4376171795177048	98.72369361071962	0.42186029412343956	99.17652268355164	0.18199096792897862	-0.23146486221125784	0.41345583014023646	131.13337592769597
15	6.0	ltm	203	diff_vonmises	-0.3936147281015509	-22.55246267440831	0.42248498460503814	95.42597299813315	0.40990161476503123	96.01653394741976	0.08519505095716084	-0.2052036494769034	0.29039870043406424	129.4229308991073
16	6.0	perception	203	diff_vonmises	0.21591894678241777	12.371244367542364	0.015143333883261615	121.56106971639619	7.379134946175881e-14	121.99119955332212	0.22561876393395153	-0.3603152661906215	0.585934030124573	177.60360575449528
17	6.0	wm	203	diff_vonmises	0.2539565825159018	14.550640357727007	0.00025553549294905493	3538.7548766832406	9.647429916370046e-32	3539.396275702929	0.04184317114470559	-0.24598843399883208	0.28783160514353767	177.8900823574229
18	7.0	ltm	203	diff_vonmises	-0.4237463046753958	-24.278874842164882	0.8662287784955579	1.1713890167379186	1.382319149094826e-26	1.9686695465372885	0.057166736797926165	-0.24780122328318555	0.3049679600811117	132.6544034162054
19	7.0	perception	203	diff_vonmises	-0.16867845098773057	-9.664563336401274	0.7845213583521433	174.3488099110273	0.764286336484978	175.26320940446746	0.4022639180129701	-0.3738387553300271	0.7761026733429972	100.84482679486963
20	7.0	wm	203	diff_vonmises	0.1578687179283381	9.045211254435046	1.5905344175198026	1.0135018358317995	0.05454403759316949	1.7189196421351465	0.16620332534612475	-0.23996268452866715	0.4061660098747919	104.34694767009452
0	1.0	ltm	204	diff_vonmises	1.5682820028936457	89.85593985212945	712.1361085365003	852.8055750759803	0.3684746699321104	2.0163254309446144	inf	-0.4442432697569554	inf	0.0
1	1.0	perception	204	diff_vonmises	-0.1315549630631521	-7.5375441575180515	19.1501552791215	0.5843602197603125	0.14110978846434447	2.735661737458379	0.5138381709767459	-0.47497817769073186	0.9888163486674777	30.52428580426698
2	1.0	wm	204	diff_vonmises	-0.11134417122934938	-6.379551084823686	3.7411230931214834	0.36782705527327675	0.09495986531639053	1.8282653777807318	-0.04664540137024925	-0.2839139729542307	0.23726857158398146	65.99276785215844
3	2.0	ltm	204	diff_vonmises	-0.15648766517452434	-8.966082760356597	124.44143384809551	0.48728026284672576	3.015017455102564e-45	1.3217407619209482	1.9559649080419512	-0.21036157574576692	2.166326483787718	12.104460564535032
4	2.0	perception	204	diff_vonmises	-0.011099373641672175	-0.6359472649065665	8.526330475001178	1.3773482913133759	0.5600206304804501	2.7981008945526136	0.857377979678392	-0.5271419784162715	1.3845199580946637	43.59218314290317
5	2.0	wm	204	diff_vonmises	0.25933715948922	14.858924709643412	4.831830510630044	0.2842801314761813	1.6488805230903054e-18	1.3969957203324634	0.019705481606687503	-0.22232339165936588	0.24202887326605338	62.13705176223192
6	3.0	ltm	204	diff_vonmises	-0.15148514922805434	-8.679459709676975	1.9712924544227546	60.57918230094839	1.9273039623872101	61.22257210940238	0.0960009323066977	-0.2237866111435025	0.3197875434502002	59.364845371328585
7	3.0	perception	204	diff_vonmises	-0.04080749702796839	-2.338097352195239	3.6836256131217313	3.611098434631761	1.249963307234247	4.332679418857255	0.9709999578265158	-0.5049263033493785	1.4759262611758943	58.034234471780394
8	3.0	wm	204	diff_vonmises	0.20372241525541912	11.672434586347093	1.8405361704054841	123.70989619850958	1.8181618841519265	124.14164775084689	0.23931962602020462	-0.19726054376775082	0.43658016978795544	64.86695648069576
9	4.0	ltm	204	diff_vonmises	-0.48319294871780555	-27.68491665201148	12.218489232341666	0.3231812141911599	0.37157014284394996	1.8794729990128576	0.026659258339945813	-0.36352077624489265	0.39018003458483846	36.26803706626498
10	4.0	perception	204	diff_vonmises	-0.12093085293654952	-6.928827486181525	1.9960856704162244	4.359337773706745	0.7482137532372974	5.8442466094398435	0.5294733380945262	-0.5072108377035112	1.0366841757980374	75.51100722396714
11	4.0	wm	204	diff_vonmises	-0.35149152842809794	-20.13898111353261	0.8897884830066148	94.68701333858225	0.874963353525478	96.1529935067937	-0.1887164194379931	-0.277577037590266	0.08886061815227286	27.006006432027334
12	5.0	ltm	204	diff_vonmises	-0.06925109952172598	-3.9677957292353323	1.4769713421734025	162.51160816154663	1.4542503948460466	163.64028023761847	0.17070978403837955	-0.33914188831995773	0.5098516723583373	69.1946475050924
13	5.0	perception	204	diff_vonmises	-0.10653970741793972	-6.104275585606575	1.060844061191977	181.49926085435612	1.033341519383941	182.86401070143827	0.46513940685980515	-0.4677208412460807	0.9328602481058859	85.51565946833449
14	5.0	wm	204	diff_vonmises	-0.0015548018078677434	-0.089083581570132	2.508878831117748	0.7098664623133967	6.113350045558495e-19	1.4570697715889254	0.18733881412616415	-0.2291247510342412	0.4164635651604054	86.8399479524677
15	6.0	ltm	204	diff_vonmises	-0.3506942607576986	-20.093301040876497	0.9850624828761138	104.90351601529169	0.9613779248220925	106.0007121163773	0.10414988124877311	-0.28171608990181163	0.38586597115058474	84.51466961401532
16	6.0	perception	204	diff_vonmises	0.15994231587854302	9.164019665388766	1.266576169092255	1.4621569441322517	1.2580341430272607e-21	2.8121007463246346	0.12468496435017551	-0.4021182818922254	0.5268032462424009	118.10897561845445
17	6.0	wm	204	diff_vonmises	0.29471321677995116	16.885823488215316	0.44020518375985074	1.8079721628313599	4.051710664050602e-21	3.033560518508103	-0.056815396765043436	-0.30618465173637505	0.2493692549713316	153.68741735872203
18	7.0	ltm	204	diff_vonmises	-0.02042485190650459	-1.1702578114224462	1.4571021326145819	230.56235699355886	1.4430005545211106	232.01297658391536	-0.03918696082317297	-0.3658566494140558	0.32666968859088286	64.62307371400203
19	7.0	perception	204	diff_vonmises	-0.4867492987933254	-27.888680501809798	0.7197483588674962	201.41247806792077	0.7058873924636583	202.9548632133972	0.09176527778881649	-0.3826746893098303	0.4744399670986468	98.22682980828543
20	7.0	wm	204	diff_vonmises	0.7564322269326735	43.340374090924314	12.336887006682177	0.3365663338685396	0.23685307348677642	1.4580503424114322	0.17655291777885807	-0.2608072287645842	0.43736014654344224	37.285064891554185
0	1.0	ltm	205	diff_vonmises	-0.7864654344089146	-45.06115012455368	1.3190223312551743	0.5287722040575283	4.1777360111934763e-13	2.5846664759750726	-0.1993687424280259	-0.3962046737460749	0.19683593131804897	113.2105047586721
1	1.0	perception	205	diff_vonmises	-0.04923734432625021	-2.8210920243265467	9.78857369063854	0.9902073829683188	0.050054402472562445	3.341180272740785	0.660587500751277	-0.5388166105696333	1.1994041113209102	42.97303436307803
2	1.0	wm	205	diff_vonmises	-0.018225993114115747	-1.0442724828733325	5.8941517344917	0.3227451848469425	0.04342156293363648	2.3199541119376206	-0.08009369089884788	-0.36954007504888564	0.28944638415003776	54.496143908150145
3	2.0	ltm	205	diff_vonmises	-0.18090047955947977	-10.364833990650808	5.838676151325137	0.2447809068869277	1.1673160295154003e-10	1.1955130693111855	0.04013309206111415	-0.19026985931808904	0.2304029513792032	56.412265709072585
4	2.0	perception	205	diff_vonmises	-0.008211483374188512	-0.47048334088284627	7.825154663653069	1.568176764074279	0.42256186864380235	2.4544694500475233	1.1494970905599504	-0.4288108670053391	1.5783079575652894	46.493043345436206
5	2.0	wm	205	diff_vonmises	0.09600252928648739	5.50053975069681	2.5081709553867673	0.6397153653910358	0.10522735147320635	1.7868461731191827	0.06264315373988572	-0.2606336835407918	0.3232768372806775	80.59875501365707
6	3.0	ltm	205	diff_vonmises	-0.14624534949087287	-8.379241299242718	1.3584197896476842	67.66007068337296	1.3408228904194817	68.08548472492615	0.04227475512654166	-0.11764030066578535	0.159915055792327	71.22447102818424
7	3.0	perception	205	diff_vonmises	-0.03608280917382383	-2.0673926786360344	4.2408131728951	2.2730057364274807	0.8504547953440408	2.314402447266514	1.0790300617993753	-0.30818915674817426	1.3872192185475496	59.38182923600854
8	3.0	wm	205	diff_vonmises	0.04853510888221691	2.7808568971589436	1.3658032034799539	127.68522329889628	1.350975831047554	128.00352039417803	0.2111116819818406	-0.14456822717368745	0.35567990915552805	76.61993536843107
9	4.0	ltm	205	diff_vonmises	-0.40916209558905053	-23.443261213980954	8.232596101822438	0.26706402947264307	0.1353988477908839	1.751044969123049	-0.01694011050442551	-0.29193566053092784	0.27499555002650233	45.183353280081036
10	4.0	perception	205	diff_vonmises	-0.06356630583194103	-3.6420810434080524	3.76074036571126	1.6819807529044624	0.0199316781325612	2.4031318858694717	0.859991766865916	-0.37504435386012686	1.235036120726043	70.17980308408491
11	4.0	wm	205	diff_vonmises	-0.19221631446699058	-11.013183572517988	0.7415863976081751	165.5768462717724	0.728530583386183	167.25880432132453	-0.07522665691974595	-0.3456154985959472	0.27038884167620125	90.14939987788004
12	5.0	ltm	205	diff_vonmises	0.008691606939692571	0.4979923948310018	1.5291895416190735	2.5247067234012044	0.7731633124085121	3.2743655980664275	0.12893941303610756	-0.21194264114357347	0.34088205417968104	79.82192891794995
13	5.0	perception	205	diff_vonmises	-0.11565266096690222	-6.626409362860891	2.307287492516728	2.523466323322322	0.3426535811358593	2.9832172155786925	0.768669847136902	-0.34613051680070717	1.1148003639376092	81.66864238709488
14	5.0	wm	205	diff_vonmises	0.13959400236845823	7.998147181051874	1.0192958474608897	1.35437238052389	1.1987639586854184e-06	2.0607254371582084	0.13976782197061716	-0.26706853255926666	0.4068363545298838	127.60332886513059
15	6.0	ltm	205	diff_vonmises	-0.4655938441289743	-26.676562235862132	0.5663150575827713	100.49797610347487	0.5551022722861322	100.89189740115994	0.11110268056749462	-0.15371976950032007	0.2648224500678147	116.49313650240178
16	6.0	perception	205	diff_vonmises	0.19784162545593303	11.335490150632953	0.0004936690991720115	3802.6599439227957	4.809399823715027e-27	3802.9691179861734	0.2495996885608065	-0.3479391066698554	0.5975387952306619	178.65052543136346
17	6.0	wm	205	diff_vonmises	0.1330829010900644	7.625088557817673	0.15709852129899515	7.817341904623708	4.2460948434450354e-10	8.375096099829406	0.11393144978608105	-0.2761734579098498	0.39010490769593087	170.47910086809094
18	7.0	ltm	205	diff_vonmises	-0.8824680233432024	-50.56169329281771	0.0002272089460010261	2488.7977884525735	1.6958493571774553e-26	2489.4907816598325	-0.02029233749476589	-0.20028402840085846	0.17999169090609257	158.9762369944408
19	7.0	perception	205	diff_vonmises	-0.09586447189094266	-5.492629644601529	2.1343117612793985	1.1903768984238738	0.03171906051173443	2.0464067886837	0.30246880769321005	-0.30650599711723847	0.6089748048104485	92.44820554294367
20	7.0	wm	205	diff_vonmises	0.19462689459182525	11.151299639849134	0.5824657909569642	79.16218554097124	0.5663169460870167	79.97746587247077	0.02999792152773395	-0.20380638096051928	0.23380430248825324	109.05534633446192
0	1.0	ltm	206	diff_vonmises	-0.015654040264623317	-0.8969104394907704	4.165083915114915	0.45524583840107563	7.56228879380806e-19	3.723980698267577	-0.23487952603458062	-0.5926036555579516	0.35772412952337096	67.05477198644829
1	1.0	perception	206	diff_vonmises	-0.0696964105568411	-3.993310172118031	8.51288703697867	0.8421516188201311	0.05551429802926607	4.105949923827194	0.27475196873121266	-0.6620041418535098	0.9367561105847224	45.781976506696964
2	1.0	wm	206	diff_vonmises	-0.1254284859579388	-7.186522876105803	3.1802153915455578	0.8399569036967613	0.14408023120210015	3.9781792528305746	-0.1588515799301028	-0.6067272532869576	0.44787567335685485	68.68483269949769
3	2.0	ltm	206	diff_vonmises	0.03969838385281306	2.2745498482564845	2.146844850478247	0.6058201553250324	1.4812924092984025e-16	2.400716105319927	-0.05593250806278044	-0.37763217083520295	0.3216996627724225	93.77281508211627
4	2.0	perception	206	diff_vonmises	0.02520225638666382	1.443982925162461	5.187823117621538	1.7436944066953042	0.41079073975514174	3.3830848747138034	0.7629976000893024	-0.5436698168857786	1.3066674169750812	55.29736704199274
5	2.0	wm	206	diff_vonmises	0.2686563391716273	15.392874373969418	2.76266617937008	0.8336731719035936	0.12493213776484649	2.36838142956043	0.09532083115464979	-0.34744915797603076	0.44276998913068055	76.4224503601555
6	3.0	ltm	206	diff_vonmises	-0.15061106157087137	-8.629378175995912	0.874102600340937	77.49384558352669	0.8389760893250482	79.03392984858428	0.04019686202604689	-0.3567508911488044	0.3969477531748513	87.742708781487
7	3.0	perception	206	diff_vonmises	-0.058583912284597514	-3.356610921272054	3.447559475138478	2.436656666376342	0.31339280548686904	3.8022302241425847	0.9179903084725128	-0.5356421381918646	1.4536324466643773	68.02953035395325
8	3.0	wm	206	diff_vonmises	0.18120435051979783	10.382244514193621	0.6282145740820877	137.44883430616076	0.6100812625035829	138.31570886412578	0.24069156105640133	-0.32046362866496736	0.5611551897213687	111.23125896149162
9	4.0	ltm	206	diff_vonmises	-0.3863469732215095	-22.13605099324633	0.6568028879802242	145.98402084962697	0.6359831688257167	148.64323260229767	-0.14679749016916332	-0.5360523997992246	0.38925490963006126	95.36194036569957
10	4.0	perception	206	diff_vonmises	-0.038213295513293354	-2.189460554197914	0.9292686744868927	152.31216715708257	0.8881163705176903	154.20952410575492	0.5852065538533253	-0.638648734565832	1.2238552884191574	91.67188239588273
11	4.0	wm	206	diff_vonmises	-0.27396391514780033	-15.696976076849163	0.655297539862937	210.04476297747738	0.6411115460713904	212.778744832698	-0.18109225184434052	-0.5391537629497485	0.35806151110540796	93.854023155141
12	5.0	ltm	206	diff_vonmises	-0.24250924334234492	-13.894756136427421	0.7312476886570048	167.27821557769926	0.7152557918197183	168.40564422448278	0.18623024150625866	-0.3316550212949547	0.5178852628012134	100.69717103962904
13	5.0	perception	206	diff_vonmises	-0.09866350808636852	-5.653002605303786	1.0394317292544315	247.38545174327916	1.0164066750064058	248.5230657400449	0.6824828718879985	-0.4975236467547539	1.1800065186427524	88.2476321561879
14	5.0	wm	206	diff_vonmises	-0.0655963703789821	-3.7583951740926427	0.3537311029189134	191.36850952997295	0.34275439381497436	192.27354559284802	0.18362007250860302	-0.3675958202174776	0.5512158927260806	138.86089117641063
15	6.0	ltm	206	diff_vonmises	-0.4750154361182944	-27.216379693144436	0.6693445475467306	177.23308577578834	0.6583908039816393	178.27178612176795	0.08197444536381226	-0.2709103929309826	0.3528848382947949	102.76651817287961
16	6.0	perception	206	diff_vonmises	-0.014530305277592526	-0.8325251674427178	0.34223883131516164	203.53424575336615	0.3298408632240644	204.6059091612711	0.22504336637426547	-0.44466423607070027	0.6697076024449657	140.36665502008105
17	6.0	wm	206	diff_vonmises	0.18856287093235582	10.803856677294059	0.36641990141340053	3.5436154148125873	8.021587861027288e-16	4.698591596055127	0.03913837751748728	-0.3696432340526724	0.4087816115701597	158.54657698529968
18	7.0	ltm	206	diff_vonmises	-0.5726362105960077	-32.809638063515834	1.5859600479324227	0.8128629459842281	9.806645304426157e-33	2.4821414916533873	-0.03084158588675867	-0.37977630826452513	0.34893472237776646	106.81986171320187
19	7.0	perception	206	diff_vonmises	-0.07959801239715848	-4.560630167987186	0.6132718277221941	331.3365128517351	0.6000341100046326	333.3784706324528	0.2883883144853172	-0.613285360164241	0.9016736746495582	109.76949497094566
20	7.0	wm	206	diff_vonmises	0.20394324323676916	11.685087097676844	0.9027712552478517	157.21510332249605	0.8832581873824981	159.0969487968616	-0.016859465509156735	-0.4148307691615045	0.3979713036523478	83.9761735410141
0	1.0	ltm	207	diff_vonmises	0.03222888180733872	1.8465789059864692	3.799752536625462	0.34014125515316546	1.4383656508054606e-32	3.8436358658166645	-0.3574712998422694	-0.6116063350721295	0.2541350352298601	70.28911970436533
1	1.0	perception	207	diff_vonmises	-0.04236935522678132	-2.427585235185125	8.684512708462652	0.8422862171777109	0.08953250477350364	4.41009441298954	0.208837561040488	-0.7210885174657095	0.9299260785061975	44.91118573417896
2	1.0	wm	207	diff_vonmises	-0.020346207305565276	-1.165751807707133	2.7938119387212668	0.8085371522935348	0.09741700857461966	4.0964392938861245	-0.20861226411381018	-0.6206201986449013	0.4120079345310911	74.31076240492195
3	2.0	ltm	207	diff_vonmises	0.08426946064482509	4.828284436792266	1.3466223152277887	0.636116769414888	1.914197533507072e-30	2.251228942657134	-0.10009267385995169	-0.34082381619564545	0.24073114233569376	115.42051763208603
4	2.0	perception	207	diff_vonmises	0.004289582534911546	0.2457749751234607	6.922036018240071	1.4738826337427102	0.3883441494106922	3.0363172635803473	0.8304012783263449	-0.520828022758269	1.351229301084614	48.783339045772095
5	2.0	wm	207	diff_vonmises	0.19652489504848303	11.260047055529528	2.9462637583606344	0.8137673667901032	0.20182334820495273	2.228986203441398	0.09779494319619936	-0.32372491602747194	0.4215198592236713	72.00697087411172
6	3.0	ltm	207	diff_vonmises	-0.25124678400223693	-14.395380339563186	1.513825818353551	1.5169770495278434	0.586578125223763	2.41564944957284	0.02537415195390147	-0.2084006205887569	0.23377477254265838	80.62157949391218
7	3.0	perception	207	diff_vonmises	-0.05916806378529499	-3.3900803368582526	4.516811328170387	1.86335483842173	0.38875015310907174	2.6169251383310774	0.938207011650485	-0.392584588900702	1.330791600551187	60.059050764343255
8	3.0	wm	207	diff_vonmises	0.08784806428607032	5.033323321985767	1.0663790995030549	115.45810709729689	1.0472795573101636	115.9904802722885	0.2282170180604126	-0.19895398220304195	0.42717100026345456	85.89852144317209
9	4.0	ltm	207	diff_vonmises	-0.3242086865810599	-18.57578942257442	0.5898847818996942	101.8647623439969	0.5684194725745088	104.00221223266792	-0.14190993736723456	-0.4232591830285237	0.28134924566128916	99.6702665321009
10	4.0	perception	207	diff_vonmises	-0.03580226294052428	-2.0513185635096773	2.6301174671760825	2.380009087411189	0.25915916771443787	3.7823397576285256	0.6778194311037027	-0.5009048375433811	1.1787242686470838	77.204458300964
11	4.0	wm	207	diff_vonmises	-0.07853579332526422	-4.499769498249341	0.6048193188514511	164.851907736351	0.5911321574261339	167.02320683251625	-0.14600072767457561	-0.4283060463036712	0.2823053186290956	97.8477577035973
12	5.0	ltm	207	diff_vonmises	-0.14034488115072677	-8.041169366201784	0.7479611356543551	126.21796018974592	0.7269806711142544	127.81533001726892	0.042622083145516854	-0.3724035104711909	0.41502559361670777	94.97851394401421
13	5.0	perception	207	diff_vonmises	-0.0807471425610356	-4.626470476488521	1.023803789095587	303.65382361868956	1.0047880490382755	305.2078584793578	0.5584446306998814	-0.5442837589664755	1.102728389666357	87.13381837368647
14	5.0	wm	207	diff_vonmises	-0.03947720080520864	-2.26187699312891	0.3944104775537079	106.55249827601554	0.3743448761083887	107.76937045646743	0.11887621145934091	-0.394162119128179	0.5130383305875199	133.28351910526936
15	6.0	ltm	207	diff_vonmises	-0.4725767155768497	-27.076651298707798	0.6749515478938706	217.97094624325348	0.6632994267471785	219.44769080315206	0.07342498717878243	-0.3643567531961551	0.43778174037493756	101.1401102510816
16	6.0	perception	207	diff_vonmises	0.1321945949263938	7.57419236372389	0.36941224911086246	151.34387772196564	0.3489134119028124	152.83967991239794	0.23636529852752375	-0.5558761351200765	0.7922414336476002	137.00308017113434
17	6.0	wm	207	diff_vonmises	0.12021133705366847	6.887602262799812	0.8453098384591512	2.0168838990887688	2.765142318525399e-16	3.649845681037379	0.04897084669647711	-0.46474079673260377	0.5137116434290809	135.12394876296554
18	7.0	ltm	207	diff_vonmises	-0.5248647360325626	-30.07253418991386	2.977188196332504	0.4022048082666166	8.944742875235926e-18	2.096283240682562	-0.07135179381915463	-0.33295335602201526	0.2616015622028606	79.5671048723884
19	7.0	perception	207	diff_vonmises	-0.0809496761831689	-4.638074798246256	0.5146811435158827	146.9916255227944	0.4916510266552137	148.94281939971694	0.154606328471111	-0.5596879656329765	0.7142942941040875	118.81812054832204
20	7.0	wm	207	diff_vonmises	0.24831189628826084	14.227223660207558	0.6598030592657647	108.18943349366026	0.6368993109311554	109.97951009995563	-0.016987908671506347	-0.39575738281288686	0.3787694741413805	99.42160927156752
0	1.0	ltm	208	diff_vonmises	-0.047806773385563744	-2.7391263471311524	7.3670754019588465	0.20842378147295904	0.023448639643177106	3.3759531655151465	-0.3284021727866725	-0.5398120430851968	0.21140987029852432	48.816655348534994
1	1.0	perception	208	diff_vonmises	-0.09228262602896163	-5.287404993843618	13.726239099574206	0.5958805527901029	0.05596563297175398	3.8800426335613842	0.2197232738280377	-0.6346702406322872	0.8543935144603249	36.145585507501636
2	1.0	wm	208	diff_vonmises	-0.08944649812155263	-5.124906834589812	3.318353564480819	0.6117033661399587	0.09780840503725073	3.4756303815539416	-0.1844020714864641	-0.5365105240777993	0.3521084525913352	68.6994207532137
3	2.0	ltm	208	diff_vonmises	-0.0907572864067538	-5.2000094711670295	5.207732355443724	0.33359411890049323	1.0169321967107801e-51	1.8641196204633985	-0.0010869215047421554	-0.2966749938471121	0.29558807234236995	59.80145004884906
4	2.0	perception	208	diff_vonmises	0.006533343009647473	0.3743329805640993	7.320312565041973	1.4760815968155228	0.46391542962939725	3.146449029843879	0.8086850054817294	-0.5586788691834225	1.367363874665152	47.030663890884284
5	2.0	wm	208	diff_vonmises	0.15238099105803352	8.730787665646057	3.5285967109260987	0.6172729164824036	0.15627324035253023	2.0633988199049402	0.061305907308173035	-0.31348825559514354	0.3747941629033166	67.18909257801647
6	3.0	ltm	208	diff_vonmises	-0.2222687356596931	-12.735060471009355	1.4876218582428826	5.172588328392066	1.0551273422666432	6.227580804004626	0.03648694219924664	-0.2648715733505038	0.30135851554975046	71.85320059659941
7	3.0	perception	208	diff_vonmises	-0.042873846635935346	-2.456490463730258	4.382481093451191	2.359874291869097	0.6756551873687896	3.3490249433338626	0.9689222234657947	-0.4954830386490633	1.464405262114858	58.14543752138346
8	3.0	wm	208	diff_vonmises	0.13325628022093977	7.635022450272478	1.3233399493637528	21.649861372273705	1.1964257123328303	22.40154115343246	0.21824248725621942	-0.24735504011294385	0.46559752736916327	77.08510119371834
9	4.0	ltm	208	diff_vonmises	-0.4003279179035157	-22.937100117131155	0.7137150511695668	127.33445874359298	0.6947805942475985	129.56354422659163	-0.17246072322984674	-0.43187773294202714	0.2594170097121804	88.36566086711235
10	4.0	perception	208	diff_vonmises	-0.04982953740130671	-2.8550221881841584	2.1539601178891923	3.4623263055151035	0.5079636527504696	5.1239902407163775	0.5958237984804233	-0.5527530549090178	1.1485768533894412	77.84712073667893
11	4.0	wm	208	diff_vonmises	0.21374380045114916	12.246617662937307	14.011570357012394	0.1807741172956893	4.373950643985439e-39	2.4220996105449157	-0.11805979640241482	-0.3854891256789972	0.26742932927658236	36.2019633756513
12	5.0	ltm	208	diff_vonmises	-0.0594635131692806	-3.407008339620368	0.9717656884060955	66.93553283425115	0.9223433950965904	68.56859772040448	0.09432887568440051	-0.3980146706242982	0.4923435463086987	84.5176828486155
13	5.0	perception	208	diff_vonmises	-0.08813362426464699	-5.049684703556056	1.0126920468294105	388.18998649353864	0.9981757613988103	389.88757440941225	0.48600379797545656	-0.5501978412723929	1.0362016392478495	86.7154237482248
14	5.0	wm	208	diff_vonmises	0.015743228904301628	0.9020205721248507	1.2422624524116972	1.4174587080386705	3.0725099976321763e-15	2.632369811125935	0.12948580160669854	-0.3732336786057695	0.502719480212468	119.1365630221332
15	6.0	ltm	208	diff_vonmises	-0.4218807355367849	-24.171985604132622	0.8351791237331391	216.34477801638957	0.8221725616602112	217.80089566169556	0.08888459133233084	-0.3560893391663811	0.4449739304987119	90.78945506311125
16	6.0	perception	208	diff_vonmises	0.03911298349811477	2.241008878606811	0.687321814863481	12.71953069031016	0.4371100088042748	14.396705379282121	0.2048238846333983	-0.5040205212147092	0.7088444058481075	114.17486889486653
17	6.0	wm	208	diff_vonmises	0.16980510261968973	9.729115719894061	0.8938471768565596	1.7656448831806757	2.1667610908961392e-15	3.4192034184065943	0.023555708344097925	-0.4491726513802069	0.4727283597243048	132.82516970923947
18	7.0	ltm	208	diff_vonmises	-0.23227373112913982	-13.30830448545616	1.0773086016236173	183.62244501741517	1.0621828927875712	185.48972513862404	-0.13816775376346868	-0.39547152013907194	0.25730376637560326	71.98527305535177
19	7.0	perception	208	diff_vonmises	-0.1319784809877255	-7.561809947144247	0.44242151759737974	41.114224707563075	0.37658072031475764	43.20327249309476	0.02976895964830817	-0.5497481098408867	0.5795170694891949	127.5937714117321
20	7.0	wm	208	diff_vonmises	0.677310512601915	38.807033791932085	8.630021352011413	0.3103761654221939	0.0401536558827833	2.1765545067060965	-0.002299687108648696	-0.3498951577000778	0.3475954705914291	45.462502567778984
0	1.0	ltm	209	diff_vonmises	2.381596778110122	136.4554438876648	2.0586721912125145e-27	2167.4568323002663	0.00027419532658765565	2168.7266579046213	-0.10746626202239895	-0.29674475516299026	0.1892784931405913	164.19730377904574
1	1.0	perception	209	diff_vonmises	-0.08747784021658851	-5.012111045330301	13.030823131596033	0.8004953405773568	0.005591268950423703	2.361715098718118	0.7633545300245104	-0.37638652641180226	1.1397410564363126	37.5147823413123
2	1.0	wm	209	diff_vonmises	-0.03157689764418923	-1.8092229651286347	5.277432862160355	0.29683477048928064	0.04434823863990426	1.4101530625312344	0.030393912308073784	-0.22306405135811042	0.2534579636661842	57.942715073022526
3	2.0	ltm	209	diff_vonmises	-0.16113178341823056	-9.232171135280673	112.75204736431293	0.2886544813816364	5.49757380920073e-48	0.6852533291459136	1.1112338524272043	-0.10906145460374972	1.2202953070309541	12.732484615247586
4	2.0	perception	209	diff_vonmises	-0.0009985252825105164	-0.05721128442496078	7.7795484380174535	1.5550720515147787	0.6431566658555539	1.9213418470269032	1.1747696004782862	-0.34670555912049467	1.5214751595987808	46.11109282197407
5	2.0	wm	209	diff_vonmises	0.14432218762136362	8.269052240799349	3.2321537801730433	0.3861409633430549	0.010871181920527963	1.0430897725588644	0.09598244900735362	-0.16382399587706203	0.2598064448844156	75.76174100454128
6	3.0	ltm	209	diff_vonmises	-0.144817533825282	-8.2974334876817	2.12948492661381	66.55073798578694	2.109448161912052	66.80085335607737	0.06874629292136802	-0.10100329588802381	0.16974958880939184	58.109091364814304
7	3.0	perception	209	diff_vonmises	-0.027092939273149323	-1.5523110749556925	4.489391636432881	2.4718366562980005	1.256034343623784	2.3022510248236374	1.1263774222553127	-0.28698482949406845	1.4133622517493811	56.14351776600867
8	3.0	wm	209	diff_vonmises	0.13042054391343738	7.472546728040579	1.6656385121320083	109.18155775233595	1.6504600759828234	109.30741012401596	0.22228111297008013	-0.10448397685890498	0.3267650898289851	71.05986160700621
9	4.0	ltm	209	diff_vonmises	-0.44764169074091253	-25.64797961355471	15.759526625920692	0.23305129544326617	0.21027854345528826	1.1424773363841667	0.14404458982335416	-0.20515242254148106	0.34919701236483525	33.25353120406177
10	4.0	perception	209	diff_vonmises	-0.060453017382072115	-3.463702754823737	3.7069188494571774	1.723698981182407	0.12668991303280022	2.2816141527137543	0.8604088987038537	-0.338049042603156	1.1984579413070098	68.96779945601779
11	4.0	wm	209	diff_vonmises	-0.23157071760025075	-13.268024777310218	0.9030321346954623	128.63404521366058	0.8894868736203227	129.67166622963794	-0.0008820119517736202	-0.23154395746826317	0.23066194551648955	84.2890066256295
12	5.0	ltm	209	diff_vonmises	0.04310606558125724	2.4697956292201817	1.5828982339649103	96.23103054139362	1.5586745642243485	96.70635553145347	0.1909059352360316	-0.18274973694418684	0.37365567218021845	69.48295968928417
13	5.0	perception	209	diff_vonmises	-0.11041989068689567	-6.326593710655026	1.8567904322432571	3.120746869668173	0.5313515827309004	3.336016644188296	0.6962964434761308	-0.2861423727326623	0.9824388162087931	85.86369548669956
14	5.0	wm	209	diff_vonmises	0.2250231105644008	12.892874528245853	1.2596885789454146	1.1087404145252306	1.4883821498203396e-15	1.4632367503750145	0.19965115769541078	-0.19805812944359882	0.3977092871390096	118.21521189998404
15	6.0	ltm	209	diff_vonmises	-0.47286572467610294	-27.093210300335883	0.6818923057918946	74.26156470140289	0.6661414916864872	74.46170050952658	0.16699118456827122	-0.12675879648666122	0.29374998105493244	110.1271876405395
16	6.0	perception	209	diff_vonmises	0.15434221174174356	8.843157333516405	0.2518923694234927	110.88868143117945	0.23547893185778102	111.04033301040099	0.2900030473727355	-0.2695568814160474	0.5595599287887829	152.01307530515206
17	6.0	wm	209	diff_vonmises	0.14399171332095906	8.25011745814863	0.0005814715959348664	2086.011746418861	6.128195963847181e-24	2086.293056435573	0.1483023727267323	-0.23779000829580355	0.38609238102253585	179.22256396637806
18	7.0	ltm	209	diff_vonmises	0.09189208214485557	5.265028477569694	1.4209213159684448	100.89264615002854	1.402103549434976	101.63118440420976	0.030970646367130428	-0.19626811470692296	0.22723876107405339	68.0523414545822
19	7.0	perception	209	diff_vonmises	-0.167754832939215	-9.611643920339223	2.628091826721665	0.9876862724733924	5.36106824363531e-17	1.6726224049196288	0.3331334542187752	-0.2630800886554028	0.5962135428741779	84.82998877729833
20	7.0	wm	209	diff_vonmises	0.28091271249658833	16.09511283762641	0.6129880860692696	47.248720010110674	0.5906077193630146	47.86592527051761	0.037370322963406366	-0.15978685636071166	0.19715717932411803	107.49445435664836
0	1.0	ltm	210	diff_vonmises	-0.40621950426788006	-23.27466315044606	0.00019905372636667328	3064.1162460317473	3.37510295219139e-33	3066.3374288332902	-0.25643612683495576	-0.45057865705217637	0.1941425302172206	175.32610082907746
1	1.0	perception	210	diff_vonmises	-0.11775155899309273	-6.746667361389947	11.856529029536102	0.7791107940220916	0.18922495560581742	3.1531082662701553	0.4574133376386449	-0.547949042116508	1.005362379755153	38.290575706379116
2	1.0	wm	210	diff_vonmises	-0.05906240013707777	-3.3840262557674508	2.7836227974656222	0.6391378061661344	0.10495470266725808	2.4245117402791196	-0.0264074069580717	-0.3626133445352752	0.3362059375772035	75.6101527441524
3	2.0	ltm	210	diff_vonmises	-0.07163544066114919	-4.104408413443696	12.477469189539383	0.24326261169088878	6.402933766238873e-36	1.498467056477229	0.10074432801150834	-0.2384884390937847	0.33923276710529304	38.378776709334886
4	2.0	perception	210	diff_vonmises	-0.011490408525714344	-0.6583519134045703	7.7953253160572205	1.2822675661814145	0.4129554254318568	2.5812499833037066	0.8084389445457552	-0.45583081244826046	1.2642697569940156	46.16517164560207
5	2.0	wm	210	diff_vonmises	0.4179705803674411	23.94795021568796	3.962396958388986	0.4325087809700431	1.8149654454889835e-13	1.3974621630390112	0.10841273432197321	-0.2222933627537949	0.33070609707576815	68.78560420953008
6	3.0	ltm	210	diff_vonmises	-0.2728046535427625	-15.630555279528933	4.361241599866546	0.371714712291615	0.25835039848522384	1.028965101510135	0.09096160176238377	-0.16050609572483582	0.2514676974872196	60.10678155822956
7	3.0	perception	210	diff_vonmises	-0.08155011345363611	-4.672477319706383	4.517103078323122	1.8131832204535094	0.44794213925084786	2.4623301297754985	0.9052281139362409	-0.3677704489331355	1.2729985628693763	59.63765692314948
8	3.0	wm	210	diff_vonmises	0.16586996688525443	9.503649050499805	1.3078673467009911	128.91485236391202	1.2942615793240921	129.05429652408958	0.26345169408211433	-0.12073477107931474	0.38418646516142907	80.74940916770163
9	4.0	ltm	210	diff_vonmises	-0.36111141148623577	-20.69015981217331	9.845122883632639	0.3072287950760355	0.1915509030947471	1.7670860030512867	0.0418800579120146	-0.3053513446029241	0.3472314025149387	41.29011548569605
10	4.0	perception	210	diff_vonmises	-0.09767827330186865	-5.5965528103224615	2.377298149251126	2.5634499040251018	0.415642835004876	3.9073101222811006	0.5636130276968468	-0.4645977934661113	1.0282108211629581	77.03196149240438
11	4.0	wm	210	diff_vonmises	-0.4496675952790529	-25.764055393286554	0.9411416809824501	135.68771967497432	0.9280846684164242	137.0106476107379	-0.09722591395448887	-0.26944871774211165	0.17222280378762278	76.986508543903
12	5.0	ltm	210	diff_vonmises	-0.2218797601693795	-12.712773817080352	1.0961098296585292	106.72521058105339	1.0708714973489057	107.88283113555069	0.09422383847270055	-0.29576169917018724	0.3899855376428878	79.4844253599245
13	5.0	perception	210	diff_vonmises	-0.09020690991619659	-5.168475221114879	1.7307582591134971	3.8709320757077896	0.5257468512784405	5.1553318977682805	0.5322261112566347	-0.4620899211468209	0.9943160324034556	84.54370594013955
14	5.0	wm	210	diff_vonmises	-0.14355537376551933	-8.225117043187318	0.5659794261758136	58.91640297787908	0.5348955658995501	59.560733448382855	0.18151045216798956	-0.25343101450328653	0.4349414666712761	117.87745275385929
15	6.0	ltm	210	diff_vonmises	-0.39063591240514633	-22.381789107057003	1.4401956338063349	1.7061444635293375	0.3020433121847373	3.015429783644211	0.08644925644193191	-0.3202785783545482	0.4067278347964801	92.88344708393599
16	6.0	perception	210	diff_vonmises	0.24845110835755907	14.23519992423563	0.7603041507059504	2.697435517951386	3.143297826416622e-16	4.059089445915263	0.15258436254896202	-0.4714629554093609	0.6240473179583229	138.4501499665111
17	6.0	wm	210	diff_vonmises	0.4041142373483566	23.154040241208858	0.0001967964423172667	4238.818142135741	3.942210714046525e-30	4240.143602747804	-0.07818299715472676	-0.34371115580449896	0.2655281586497722	174.97178859613317
18	7.0	ltm	210	diff_vonmises	-0.18185947930466345	-10.419780628603954	0.9561835880463534	180.38045568161607	0.9420513991448236	181.86624282172758	-0.00727440418896208	-0.3321283192429867	0.3248539150540246	81.58074245263958
19	7.0	perception	210	diff_vonmises	-0.3356597950811136	-19.23188961037388	0.5858927450512896	152.35526695714506	0.564838080306107	153.95143664270017	0.1923050361577907	-0.47162289204768904	0.6639279282054797	112.26859395071921
20	7.0	wm	210	diff_vonmises	0.6723826162472976	38.524686128934604	9.702318943839092	0.4232501879624226	0.07191884598922958	1.439170375359957	0.27284309005561913	-0.23390736136447654	0.5067504514200957	43.01048303315383
0	1.0	ltm	211	diff_vonmises	-0.10009404254051932	-5.734966191974677	5.609974837136546	0.2879437593625227	4.842518264068423e-22	3.1875274863129492	-0.2419154865887987	-0.507307197875316	0.2653917112865173	57.571635436789165
1	1.0	perception	211	diff_vonmises	-0.1206939421756636	-6.915253499461529	12.110721400702538	0.630733591099539	0.0036447657585358065	3.630508634981022	0.2863406788961216	-0.5782633165291357	0.8646039954252572	38.916373728462105
2	1.0	wm	211	diff_vonmises	-0.12365180363875228	-7.084726477680901	2.7840548285482125	0.9458740182794538	0.22151834263728942	3.5925938899892937	-0.11137035308491705	-0.5291000543812413	0.41772970129632425	70.41552676703648
3	2.0	ltm	211	diff_vonmises	-0.01202993185707724	-0.6892643232405025	2.272862138739063	0.5173657608165035	3.160977849843302e-18	2.0597088402300368	-0.03961815641416777	-0.32475417741108725	0.2851360209969195	91.20148632728876
4	2.0	perception	211	diff_vonmises	0.041299752468892954	2.366301511402568	5.34100456293694	1.8143056339358994	0.5339445431179586	3.354543448758747	0.7802092003974023	-0.5503571853528941	1.3305663857502963	53.68349810305392
5	2.0	wm	211	diff_vonmises	0.39034334013761335	22.365025950924792	3.491169783695575	0.5583301729123673	0.02774937406502053	1.8379927451615998	0.09754630356940086	-0.28632864225200844	0.3838749458214093	71.93211599403483
6	3.0	ltm	211	diff_vonmises	-0.16686530503146177	-9.56067772546586	1.0809081100985183	141.4109185557112	1.0617530240750135	142.80575019531355	0.01591656875876879	-0.3261525833269836	0.3420691520857524	77.38351058688178
7	3.0	perception	211	diff_vonmises	-0.05147636691542475	-2.9493785689207024	4.5479257636864086	1.9348479184285108	0.31746280331809107	3.292182414109408	0.8928228382855217	-0.5027739604627475	1.3955967987482691	59.962411350499394
8	3.0	wm	211	diff_vonmises	0.3589365275246127	20.565548140241614	0.7052901124089113	97.3873985033154	0.6829636267925866	98.0330736861755	0.23265923386837883	-0.2523758611737632	0.48503509504214204	105.87804713111274
9	4.0	ltm	211	diff_vonmises	-0.6079254490598631	-34.83156248972548	0.9625538054574967	270.6773870915325	0.9483113706737066	273.2382934753419	-0.11816692343589352	-0.5424437356934959	0.4242768122576024	78.57615194461742
10	4.0	perception	211	diff_vonmises	-0.005507419851658897	-0.31555191350662076	0.9872518758326243	168.4379025361495	0.952872961464066	170.28291205689672	0.4840783666503157	-0.5836401842420003	1.067718550892316	88.03333840730161
11	4.0	wm	211	diff_vonmises	-0.39513804956306076	-22.639742564994524	0.7639830167856444	182.6232841383728	0.7485466666100244	185.29872330986066	-0.2478923369445667	-0.5100809368285582	0.26218859988399146	82.94422893491856
12	5.0	ltm	211	diff_vonmises	-0.24878319063386434	-14.254226837119019	0.9280776848267862	136.78104499807878	0.9060001025023804	137.87599572038098	0.2200093358240096	-0.3232458667011411	0.5432552025251507	89.66505464300445
13	5.0	perception	211	diff_vonmises	-0.12520351977849656	-7.17363326349058	1.0875341598090134	235.06586824704507	1.0642468645271084	236.1958885306831	0.6279001716998351	-0.4726701760517926	1.1005703477516278	85.95913538266157
14	5.0	wm	211	diff_vonmises	0.0009407794704685355	0.05390269311039955	0.412431197863134	68.79372785965755	0.3838320202522516	69.43011169329391	0.21744310341493822	-0.3081952904441634	0.5256383938591016	134.2545276763341
15	6.0	ltm	211	diff_vonmises	-0.46620418229385835	-26.711532036785744	0.784530151149815	152.50520855087626	0.7722299546362323	153.34454478795092	0.10780828544336885	-0.22941915128130042	0.33722743672466926	96.02450794838155
16	6.0	perception	211	diff_vonmises	-0.0370764427048654	-2.1243236863473975	0.4384842385087653	169.59204792813597	0.4241807047214334	170.6783961194461	0.19517855672468443	-0.39823789849896585	0.5934164552236503	129.17215366313206
17	6.0	wm	211	diff_vonmises	0.3443762256901577	19.73130429669075	0.00033561333962307013	3375.188229214206	5.424129732200343e-30	3376.22444748459	0.015377947588149254	-0.3451862157578489	0.36056416334599817	176.27200854334103
18	7.0	ltm	211	diff_vonmises	-1.1507131688038013	-65.93100800258287	0.00020562077325332723	4523.148530994666	3.238417819847499e-29	4524.979983419016	-0.14345462530741315	-0.43949956922449473	0.2960449439170816	145.54816557768845
19	7.0	perception	211	diff_vonmises	-0.18443137719670524	-10.567139523156543	0.6949081024426884	112.82929923042957	0.656373429991815	114.93008145610551	0.24729126373097898	-0.5837585725515453	0.8310498362825243	103.10913115933242
20	7.0	wm	211	diff_vonmises	0.4071216532264435	23.326352478263868	1.0529567948740368	102.23157925726193	1.0221936346980116	104.10831471968704	-0.05632673455000514	-0.41376137594348883	0.3574346413934837	76.4389311680257
0	1.0	ltm	212	diff_vonmises	-0.32113322062957306	-18.399578203518036	0.09246630689102948	11.188536478789144	2.8701159588337976e-09	12.729322383945822	-0.07688793848877129	-0.4059571108045159	0.3290691723157446	172.04240262928147
1	1.0	perception	212	diff_vonmises	-0.1272293153263519	-7.289702798539084	11.119066574975419	0.842155285798329	0.13766862315758244	2.515819681477211	0.6496699108773224	-0.4227644816495063	1.0724343925268287	39.96166507693084
2	1.0	wm	212	diff_vonmises	-0.0945218509440168	-5.415703130856818	2.736099222687188	0.7473992965850041	0.18128221536393524	1.9864769958533834	0.08836192164757234	-0.2852002188510053	0.37356214049857767	75.03472398094456
3	2.0	ltm	212	diff_vonmises	-0.013508875728657733	-0.7740015652188028	3.343858987242138	0.42318650959542253	8.966978057254477e-17	1.3823575905452923	0.07467696872018778	-0.21964180946961423	0.294318778189802	75.05488462594104
4	2.0	perception	212	diff_vonmises	0.017973315461982865	1.0297951198288435	5.023728244002316	1.613211804652341	0.49739466694977064	2.405951001137132	0.809939183077141	-0.3766013023738055	1.1865404854509465	56.22209101487641
5	2.0	wm	212	diff_vonmises	0.5455746649904154	31.259125713214594	3.5216128991489932	0.5454643005621804	4.067901325200696e-15	1.114717625659039	0.21355144886157806	-0.177071364665794	0.39062281352737205	73.05378099413113
6	3.0	ltm	212	diff_vonmises	-0.16168140787892368	-9.263662297195543	1.2287412874330899	32.19249930016934	1.16623086497919	32.89137257924413	0.11124464603630102	-0.1990326669220961	0.3102773129583971	77.20345017374075
7	3.0	perception	212	diff_vonmises	-0.07878245763887325	-4.51390232237563	3.970181003231781	1.7935963542414204	0.13391360606873629	2.486871230861327	0.922709942714216	-0.37195979250120953	1.2946697352154255	66.56920765790403
8	3.0	wm	212	diff_vonmises	0.3331891711126324	19.090333284216044	0.5341311924858636	110.51283726602942	0.5206492611584325	110.36344311365697	0.31703465035838363	-0.1507954461407639	0.46783009649914753	125.77141221219728
9	4.0	ltm	212	diff_vonmises	-0.301278331010804	-17.26197682566446	6.99070123315364	0.4943944382182576	0.24205056442650888	1.720594496420566	0.16764319174469106	-0.2900032198704914	0.45764641161518244	48.60223938541097
10	4.0	perception	212	diff_vonmises	-0.08577060372801827	-4.914293599904491	1.5064445647571936	5.076287790931556	0.5235019263367596	6.364651152272528	0.606114685579207	-0.500521214689843	1.10663590026905	89.32417781739005
11	4.0	wm	212	diff_vonmises	-0.5696806713196928	-32.64029813679784	1.2386853817364767	181.66800653720557	1.2235306777544865	182.8278263011216	0.06136957706948465	-0.2958347495477369	0.35720432661722157	73.47076420874045
12	5.0	ltm	212	diff_vonmises	-0.3219572957560911	-18.44679423026923	1.0378302270111923	165.7564718219197	1.0255937292557613	166.21195255619267	0.2247051355158689	-0.18133696029778612	0.406042095813655	87.45389079161708
13	5.0	perception	212	diff_vonmises	-0.10644028959800733	-6.098579364116058	2.3313236938059525	2.144649132386456	0.1947937744744997	2.5540709115139153	0.7236178653345269	-0.3291643599482241	1.052782225282751	84.44975337051542
14	5.0	wm	212	diff_vonmises	-0.13210098746447965	-7.568829051225278	0.44827058319831725	101.76244040910633	0.43285998169240225	101.82600012542936	0.2751963999956466	-0.19233535957914327	0.4675317595747899	132.5343271251428
15	6.0	ltm	212	diff_vonmises	-0.42076182147600005	-24.107876550811806	0.5974269920647282	83.98652578602884	0.5790558004235965	84.60386795379237	0.13019107575665956	-0.21135325159042662	0.3415443273470862	113.0102190819224
16	6.0	perception	212	diff_vonmises	0.06447290511223237	3.694025355878344	0.42429068016902716	164.15677767645883	0.4119470118505289	164.72284969827618	0.24273424167964208	-0.30213068447098834	0.5448649261506304	132.50189221589898
17	6.0	wm	212	diff_vonmises	0.38398043793781117	22.00045850942162	0.00016939862013492845	4609.594508856089	8.725878027385789e-34	4610.1622716533975	0.033920568735197776	-0.2146345539021013	0.24855512263729906	175.43477809422836
18	7.0	ltm	212	diff_vonmises	-0.12027024670257633	-6.890977537054829	0.9043174476966906	71.99674172924058	0.8693794045525004	73.2049288745742	0.09650084394315428	-0.3032237667205768	0.3997246106637311	88.26871194825205
19	7.0	perception	212	diff_vonmises	-0.27745877559953863	-15.897216830720952	0.8297563257078261	221.44733656917361	0.8097321862153262	222.53370875876698	0.5147628622305263	-0.4503258718855001	0.9650887341160264	98.22367175065264
20	7.0	wm	212	diff_vonmises	0.3596495516220958	20.60640141171852	1.308807760812967	78.95374019915664	1.2793977335054358	79.3314795544127	0.2737583326413109	-0.17863402494915626	0.45239235759046714	78.85164935601196
0	1.0	ltm	213	diff_vonmises	-0.7905510985325747	-45.295241435347414	0.04050917730990004	13.277466399215708	4.473743102037277e-09	15.451262183551165	-0.25951356562059935	-0.4306937772793953	0.17118021165879593	161.24255266729017
1	1.0	perception	213	diff_vonmises	-0.08201685056793236	-4.699219386497673	13.333067801639398	0.7310457661303005	0.005597374342164295	3.1855169220563977	0.5445592772982838	-0.5078019024447964	1.0523611797430803	37.0760467849432
2	1.0	wm	213	diff_vonmises	-0.10026630549380135	-5.744836132164197	5.52404451425949	0.36108097640773007	0.08657775824327539	2.45114827477157	-0.09449341871244427	-0.39275185446122957	0.2982584357487853	55.00438801531399
3	2.0	ltm	213	diff_vonmises	-0.1568818189265372	-8.98866610682618	5.552718059637721	0.33577927737337937	2.3772050940193235e-17	1.476801512618621	0.07278983347397458	-0.23503563389013848	0.3078254673641131	57.870057531793805
4	2.0	perception	213	diff_vonmises	0.0017979448900146849	0.10301465399495444	7.173443612107914	1.5884602731691566	0.4499255807300867	2.823136500950619	0.9952524410679019	-0.4911179863069058	1.4863704273748077	47.957399223422726
5	2.0	wm	213	diff_vonmises	0.04231152364804618	2.424271729801023	2.9178084309872525	0.6153907504749888	0.11297675075168262	1.9748671472972272	0.04589430809640166	-0.29434640622164876	0.3402407143180504	74.56291596391264
6	3.0	ltm	213	diff_vonmises	-0.15883953700449988	-9.100835090169905	1.4087199219548237	129.88368794882524	1.3905320093672249	130.72494952731986	0.07355082019151382	-0.23307649431616895	0.30662731450768277	69.5820918939032
7	3.0	perception	213	diff_vonmises	-0.024879004607314716	-1.4254619624856633	3.624884658439972	3.2701545788096995	0.9427667985777154	3.866583711837371	1.1023513638022937	-0.47389134533034494	1.5762427091326385	61.28931178140209
8	3.0	wm	213	diff_vonmises	0.06425232772515663	3.68138720254288	1.2823663577531703	172.12968824710399	1.2661061585775106	172.88448398548658	0.21562536453221526	-0.24785725480359488	0.46348261933581014	76.55391068113602
9	4.0	ltm	213	diff_vonmises	-0.4754327477936878	-27.240289890886014	8.616549846404846	0.283346871637954	0.06398845850592175	2.1789606669011157	-0.0426359435908778	-0.35370846150105645	0.31107251791017865	45.04358881127601
10	4.0	perception	213	diff_vonmises	-0.07433942969685439	-4.2593355730392535	2.5644634505820196	2.660118295117114	0.2988245656385055	3.9648024361882293	0.7592047082521676	-0.5082735303486989	1.2674782386008665	77.53015853969492
11	4.0	wm	213	diff_vonmises	-0.16200097326591806	-9.281972045148786	0.6709924303457002	187.3471744549314	0.6593269063017366	189.40793542723605	-0.1546554819291046	-0.3997438198164822	0.2450883378873776	91.3755713183263
12	5.0	ltm	213	diff_vonmises	0.004817695732035376	0.2760336324238167	1.176482706578509	24.116077076859824	1.0666136889887026	24.944440280264207	0.20120745339447232	-0.2560478859272717	0.457255339321744	81.34246604971048
13	5.0	perception	213	diff_vonmises	-0.10581219970365445	-6.06259246401482	1.0776598873879564	154.566735163666	1.0452419320139623	155.31393368189168	0.680538011968622	-0.4093617215215364	1.0898997334901583	87.98880070557215
14	5.0	wm	213	diff_vonmises	0.11024992146779185	6.316855191753243	1.1063031774632737	1.3784599001123814	4.4019332094666785e-14	2.2169178042785402	0.14576803780528458	-0.29827705105528685	0.4440450888605714	124.17894034347131
15	6.0	ltm	213	diff_vonmises	-0.44048637582567496	-25.23801026782459	0.7367080747779464	130.41556007766587	0.7257284123707359	130.98514249851405	0.10835644532069466	-0.17343873724672143	0.2817951825674161	100.65614001651454
16	6.0	perception	213	diff_vonmises	0.04074718699789519	2.3346418420097375	0.2765595796301345	100.54228000062444	0.2569388534782428	101.14335328733391	0.22782442158635519	-0.34024414488799515	0.5680685664743503	149.0096726661695
17	6.0	wm	213	diff_vonmises	0.1164625866831082	6.6728146881186055	0.16813378299959555	7.2077221256093065	1.4103953020867444e-10	7.938234529036399	0.0842270083548069	-0.300609612197413	0.3848366205522199	169.97256520528373
18	7.0	ltm	213	diff_vonmises	-0.13893575617347204	-7.96043245219862	1.1680265987604743	113.45064339403928	1.149821320985556	114.49300181765479	-0.0017288982470944347	-0.24533434428703949	0.24360544603994505	73.69313056651808
19	7.0	perception	213	diff_vonmises	-0.11489653460965059	-6.5830865138117725	0.6911861403821752	85.23895392366596	0.6565084923289621	86.49754942758408	0.21489550835832816	-0.3819228883957262	0.5968183967540543	104.61040706390864
20	7.0	wm	213	diff_vonmises	0.30727799833051217	17.605732441566303	0.7706261509852993	90.87468285579419	0.7532616548421069	92.02986861403889	-0.039167905537510705	-0.24210800627205664	0.20294010073454594	89.42024464690738
0	1.0	ltm	214	diff_vonmises	-0.3059093177737394	-17.52731282216161	0.0003859354959667092	2359.740957487788	3.8804098653039975e-32	2361.718006101439	-0.16970436352687557	-0.45958179002269617	0.2898774264958206	177.3205212963738
1	1.0	perception	214	diff_vonmises	-0.09211108423746177	-5.277576373180562	9.279149155885442	1.096086065118215	0.23645238992572754	3.1612820186275274	0.6844379046823504	-0.5458471318491709	1.2302850365315212	43.04799330211367
2	1.0	wm	214	diff_vonmises	-0.10648363662092036	-6.101062965583432	4.487209757571659	0.3941665191695716	3.4627794823533955e-11	2.1023008511629135	-0.012050010382345377	-0.334550735595234	0.32250072521288864	64.53966621009062
3	2.0	ltm	214	diff_vonmises	-0.09663689417560502	-5.536886181514534	3.6536950382324425	0.4344485314558591	2.2138553139222536e-18	1.7678679829041977	0.036420219509721574	-0.2811517817765354	0.31757200128625696	71.72465523024513
4	2.0	perception	214	diff_vonmises	-0.035867487997888775	-2.0550556840151617	7.228259470476586	1.2883773048017657	0.20651322123235158	2.557363247191005	0.8611627536718918	-0.420525768776071	1.2816885224479628	49.06758006014985
5	2.0	wm	214	diff_vonmises	0.3210053082846909	18.39224936600867	2.8056603217079825	0.5459127434411483	3.4529134800870647e-15	1.6784806996201787	0.07692130593732638	-0.26588037040699997	0.34280167634432634	82.04849891057799
6	3.0	ltm	214	diff_vonmises	-0.1698568683711741	-9.732081678977439	2.575532484430346	0.6072798571030303	0.07267973482605089	1.3902026353505044	0.12657269551681685	-0.20562586351820883	0.3321985590350257	81.90599614016048
7	3.0	perception	214	diff_vonmises	-0.0891398140471146	-5.107335131480637	2.610346249888029	3.3103951857183467	0.5872469718752863	3.915645319026483	0.9706009360213297	-0.42715312551755924	1.397754061538889	73.6843086614222
8	3.0	wm	214	diff_vonmises	-0.04401748216033404	-2.5220159525795336	1.0596018644031628	148.08730107026128	1.045287980243314	148.32923848792512	0.3142079355458307	-0.16735086841388913	0.48155880395971984	89.20432403986607
9	4.0	ltm	214	diff_vonmises	-0.18699650397695705	-10.714110461580953	5.29258231165745	0.5829346564777227	0.37103751915684613	2.132082822639067	0.045699449482502985	-0.3592101891879044	0.4049096386704074	52.714164023346456
10	4.0	perception	214	diff_vonmises	-0.15581673987148545	-8.927641572123933	2.2020823155375213	2.9093364370615697	0.2845527510491707	4.258953781393295	0.7073609249434876	-0.5200782170198776	1.227439141963365	82.92589703362978
11	4.0	wm	214	diff_vonmises	-0.558779529097262	-32.01570869558069	1.0703806926241095	185.61355976088734	1.0561701599913431	187.04066953726362	-0.0068737116824877376	-0.32651127767455534	0.3196375659920676	76.8996365768271
12	5.0	ltm	214	diff_vonmises	-0.23295612451293796	-13.347402746315446	0.8049233754134429	129.4244882134847	0.7904851196973254	130.140776825025	0.14065176963755732	-0.21505924091614936	0.3557110105537067	96.3270669822331
13	5.0	perception	214	diff_vonmises	-0.09201664232990196	-5.272165250468221	2.9413092449270795	1.82963942430228	3.9654997077212434e-14	2.4874086986101904	0.7889708301300038	-0.3925804171006465	1.1815512472306504	80.13721015349316
14	5.0	wm	214	diff_vonmises	-0.2649278636550192	-15.179248462849916	0.5224968679488771	104.57095852618946	0.5060771482389402	105.17753986040182	0.17125183668918353	-0.24587296478317633	0.41712480147235986	121.34193626332893
15	6.0	ltm	214	diff_vonmises	-0.31201843095533843	-17.87733922403497	1.1144713500918886	0.9128007757855429	7.16777902979583e-17	1.815838546459238	0.04256756149777813	-0.2533088774602622	0.29587643895804033	123.3366359239593
16	6.0	perception	214	diff_vonmises	0.17698045807449822	10.14023330396076	0.07916648422352357	206.2049564097434	0.07048311182298025	206.89319115569555	0.1778309430154792	-0.37588664853223364	0.5537175915477128	170.4030141382816
17	6.0	wm	214	diff_vonmises	0.2103822907577717	12.054017344714465	0.00020716484230477286	3362.2441460099994	6.144305224647613e-33	3363.1006801216413	-0.025458356398303295	-0.24717343631402855	0.22171507991572525	178.5077225112021
18	7.0	ltm	214	diff_vonmises	-0.31818119640656745	-18.23043967451943	0.6967408632198281	104.55493969385138	0.6783406223042472	105.41533692417207	0.12518454190828976	-0.24906653801418166	0.3742510799224714	102.91714123254904
19	7.0	perception	214	diff_vonmises	-0.22041977454296519	-12.629122802537049	0.684767050034383	286.1378503909516	0.6726584798852767	287.2295083441009	0.3547128152706591	-0.4121611369009841	0.7668739521716432	106.70402318809907
20	7.0	wm	214	diff_vonmises	0.2640431586367671	15.128558599190026	1.0048136007690183	29.899906782605743	0.9334422263492982	30.58502042636666	0.17921066475364889	-0.21653124619802933	0.3957419109516782	88.07099024838169
0	1.0	ltm	215	diff_vonmises	-0.5166768666984023	-29.603403833861883	1.0479925028552375	1.0589382810297756	1.690013608718151e-16	1.3406135427851322	0.15806855272174525	-0.1676955325287513	0.32576408525049655	124.6560059131843
1	1.0	perception	215	diff_vonmises	-0.10248956430614727	-5.872219478876886	14.584066312418795	0.8201240685762707	9.93771666846284e-20	1.1758018126695315	1.0512426066537093	-0.1871346705825004	1.2383772772362096	35.47607809689802
2	1.0	wm	215	diff_vonmises	-0.17965231117480895	-10.293319210087509	5.804008916869548	0.30212858929508296	5.699709443569759e-15	0.3472105008017293	0.22824535980259264	-0.05525768921853558	0.2835030490211282	56.58118808170531
3	2.0	ltm	215	diff_vonmises	-0.1089780936669391	-6.243984826496976	2.2395429688197415	54.42122429777399	2.2083547189254507	54.378005669238334	0.2744063080100325	-0.08022723432305945	0.35463354233309197	63.39084537868348
4	2.0	perception	215	diff_vonmises	0.0005750682547674311	0.03294898393012778	5.383116203735281	1.6174691848619345	0.7522997016301338	1.1822464864653797	1.1104760418584674	-0.17239628546490857	1.282872327323376	55.31692672619147
5	2.0	wm	215	diff_vonmises	0.10618442867675279	6.083919613185843	1.5524732904378233	1.1125904966660032	0.7462570737058819	0.9754148115468608	0.20590860476439365	-0.04567341823363237	0.251582022998026	91.13602207403758
6	3.0	ltm	215	diff_vonmises	-0.15448804719780895	-8.851513089652316	2.5790698430714127	87.27390521503169	2.5571181693989584	87.33711640861283	0.22353159786381838	-0.09965978367426764	0.323191381538086	56.990112564338204
7	3.0	perception	215	diff_vonmises	-0.011554924922575194	-0.6620484306540881	4.088163682779348	2.3630155921479004	0.6441457290345951	2.0548492988107605	1.275539131907005	-0.2689659564646784	1.5445050883716835	62.50183997324032
8	3.0	wm	215	diff_vonmises	0.07862419745798209	4.50483468194559	1.1040181094148298	57.21795457855277	1.084456562374432	56.98522077443585	0.2929024339896742	-0.06075346033240825	0.35365589432208244	94.23460568432733
9	4.0	ltm	215	diff_vonmises	-0.3520272760669328	-20.16967719212194	16.35817897733225	0.30134759495639596	2.953335996382597e-14	0.5281434707495897	0.39832067809656524	-0.08405664403150158	0.48237732212806683	33.48347593936819
10	4.0	perception	215	diff_vonmises	-0.0969875541699129	-5.556977519232458	2.540545985862333	2.6919345537278376	0.1315065491339993	3.0924673867864776	1.0425143572770477	-0.4257172958933167	1.4682316531703643	82.76666814708818
11	4.0	wm	215	diff_vonmises	-0.41332718385149503	-23.6819031927185	1.2783105377365112	102.01125283404706	1.2585501772568526	102.25811503186114	0.27210504831132454	-0.14816617388449416	0.4202712221958187	80.75112134202782
12	5.0	ltm	215	diff_vonmises	0.061870070753890574	3.5448939323737174	1.9770499807578426	52.39888118191895	1.9522089545239856	52.22341043148864	0.29384994483596216	-0.05199083252911496	0.3458407773650771	70.28732068369331
13	5.0	perception	215	diff_vonmises	-0.06659458832583447	-3.8155888494814976	1.610600925940073	2.825573464063905	0.32663295004937654	2.1235383553705875	0.8216497612073115	-0.18642172416267158	1.008071485369983	99.30518097594125
14	5.0	wm	215	diff_vonmises	0.21593037894914047	12.371899382446264	0.4930152609630321	64.43519569696443	0.4741063568258341	64.15673151947827	0.2944767591289068	-0.11329127528959226	0.40776803441849907	130.93023090140133
15	6.0	ltm	215	diff_vonmises	-0.4325980990665249	-24.786045301894156	0.5091322325838129	62.167133428347306	0.493427050463762	62.07341344224519	0.20552531783451755	-0.1014137480548234	0.30693906588934095	127.42130316813316
16	6.0	perception	215	diff_vonmises	-0.08317986918513	-4.765855444758239	0.7262304990995743	125.35687055274141	0.7134947726660289	125.05621452012379	0.3908556657923654	-0.1253040985538263	0.5161597643461917	113.34560253339639
17	6.0	wm	215	diff_vonmises	0.037290919183062606	2.136612283352927	0.0001496795472869077	7352.0112550422355	9.215447833128818e-32	7351.795712404988	0.2094521070441715	-0.14082964732256187	0.35028175436673337	179.90576269286214
18	7.0	ltm	215	diff_vonmises	0.14336038589358746	8.213945061069385	1.6999302731697612	124.5649883632276	1.6783990033059162	125.14682739633557	0.1802589526049374	-0.2137166785134248	0.3939756311183622	66.05411878004816
19	7.0	perception	215	diff_vonmises	-0.20304012627952603	-11.633342307620115	1.567628875830024	3.668741302883141	0.6264132946963364	3.7416601368332203	0.6198331331115285	-0.24019916901757282	0.8600323021291014	89.82310282806525
20	7.0	wm	215	diff_vonmises	0.2967749447341192	17.003951798493286	0.9813913049564114	38.75108457179327	0.9567142645817818	38.925981685111616	0.12302209755115001	-0.08437092233617971	0.20739301988732972	91.43067193201702
0	1.0	ltm	216	diff_vonmises	0.12287152854117865	7.0400200077307735	0.007105102760526376	114.45780878253245	3.07826059485093e-14	118.16070268044977	-0.4596742522280124	-0.7185336790489139	0.25885942682090146	179.03371649017663
1	1.0	perception	216	diff_vonmises	0.026262951335885607	1.5047562691037126	6.863131398208872	1.2200141130780973	0.09099388274166749	5.048526456379307	0.3715234746481918	-0.8137897915716272	1.185313266219819	50.46412934002964
2	1.0	wm	216	diff_vonmises	0.011381117563874365	0.6520900025522143	4.411983625384719	0.4768137912368287	0.01750403961295589	4.276215635263364	-0.30594370330965076	-0.6763392326563633	0.37039552934671255	63.549944916517234
3	2.0	ltm	216	diff_vonmises	0.07977479484223131	4.570759055981862	1.9115586517848642	0.4575874441702442	6.923288549114639e-17	2.0747605128906375	-0.10053547390122805	-0.32518730567914933	0.22465183177792128	99.10162429183794
4	2.0	perception	216	diff_vonmises	-0.00990834401607123	-0.5677062940845858	7.200416133449806	1.571092069961548	0.29110833439095096	3.121448062890958	0.9994081571735183	-0.5245583689043744	1.5239665260778925	48.623044681155534
5	2.0	wm	216	diff_vonmises	0.04888964630287992	2.801170395042388	2.227622306863916	1.361448599893029	0.3195080361724054	3.096108248084545	0.08808228418349928	-0.4007129298256597	0.488795214009159	77.25155557294687
6	3.0	ltm	216	diff_vonmises	-0.15737183035545813	-9.016741693616524	1.3043530972760609	1.1458900120316404	0.4334051316035282	1.8549642456212374	0.02162608706566177	-0.16376075444670873	0.1853868415123705	89.73948886688643
7	3.0	perception	216	diff_vonmises	-0.047631802414587275	-2.7291012489568947	3.7740976566847304	2.226842162261474	0.5045927982413786	2.6339023766856138	1.006229176801436	-0.358580548465558	1.364809725266994	64.4573531508479
8	3.0	wm	216	diff_vonmises	-0.03286241722803676	-1.8828778117645122	1.118892501414692	108.90380902932837	1.0974828727582486	109.49701342875024	0.22250305913274104	-0.2099867038438088	0.43248976297654984	83.3515950963218
9	4.0	ltm	216	diff_vonmises	-0.35917590304157787	-20.57926334708248	0.4243417608125189	89.95755113576432	0.40399737449132794	92.21834025405562	-0.18084124052014516	-0.4526347269027493	0.27179348638260414	117.43672295877491
10	4.0	perception	216	diff_vonmises	-0.05019117932703903	-2.875742744223604	3.3953067857647348	1.939707448122449	4.353411863291726e-14	2.9804784899217176	0.8879682997966212	-0.47282622562934473	1.360794525425966	74.4681770252129
11	4.0	wm	216	diff_vonmises	-0.06915862180450069	-3.9624971463393193	0.5714579784346299	203.11680626331608	0.5576215349615937	205.6042556651091	-0.11073851198630535	-0.5194975278178262	0.40875901583152086	103.83725936358267
12	5.0	ltm	216	diff_vonmises	-0.0643152869350623	-3.684994499551954	0.609641998828095	83.74701181507288	0.5850571414484614	85.09833986873643	0.03454356300279571	-0.3263216095062429	0.3608651725090386	106.18979936420621
13	5.0	perception	216	diff_vonmises	-0.08615272901745943	-4.936187766234685	1.8677299909090284	4.027089758855892	0.47791930867142246	5.1813159869658305	0.7360460552265626	-0.49958764047495785	1.2356336957015204	84.34392892964286
14	5.0	wm	216	diff_vonmises	0.013749150353478717	0.7877682871451345	0.30752155149463983	166.08962461440328	0.29561022194799375	167.52240547477194	0.054240367379712495	-0.4276596720858521	0.4819000394655646	142.39960862552613
15	6.0	ltm	216	diff_vonmises	-0.5020735313934028	-28.766694354071024	0.5053168749865098	177.27262160376532	0.49550260184903083	178.34076293583055	0.06253883261330628	-0.29364530907672126	0.35618414169002754	117.86549854204719
16	6.0	perception	216	diff_vonmises	0.1653327300433629	9.472867646860482	0.04740290982926951	277.5807865892114	0.03807229870388183	278.44540968439713	0.2779134487048722	-0.5356262042192057	0.8135396529240779	174.2007762455002
17	6.0	wm	216	diff_vonmises	0.06981776889158328	4.000263492507494	0.3144504154966528	42.25462819352876	0.2637274366365614	43.53676083974207	0.12117207881749792	-0.44007153188266823	0.5612436107001662	144.83390188390987
18	7.0	ltm	216	diff_vonmises	-0.623526143309964	-35.725416427730266	0.6278226978677716	1.3469395687769314	3.515218635294208e-16	2.3832872909274454	-0.014524539573009199	-0.27538546767977856	0.26086092810676936	140.38075171816985
19	7.0	perception	216	diff_vonmises	0.03479045770238966	1.9933463936753344	0.6967653508501515	259.3410057977792	0.6832909419549759	260.7498598069249	0.2693313311760619	-0.43768941525188154	0.7070207464279434	103.74972032723605
20	7.0	wm	216	diff_vonmises	0.14033685891749986	8.040709726095614	0.5893045384890585	140.43733506933202	0.5750335601508567	141.82899936875853	0.01564454181754371	-0.3279854889289098	0.3436300307464535	106.79548606444877
0	1.0	ltm	217	diff_vonmises	-0.10917740636874924	-6.255404603114046	5.694061288957353	0.2753731132446237	5.060693428161268e-20	3.5048261788229125	-0.3019990529083098	-0.5578075125584891	0.25580845965017934	57.136304959302294
1	1.0	perception	217	diff_vonmises	-0.0440084431417936	-2.521498054966226	10.65943519136913	0.7702253957102801	0.0014220746601680408	4.158915536157876	0.3276913634508978	-0.6619409948380807	0.9896323582889784	41.54350428397805
2	1.0	wm	217	diff_vonmises	-0.11675000279384593	-6.689282418227942	5.014442752331866	0.4796538772700476	0.08227714435889304	3.7525954747490737	-0.23083032431331396	-0.5989383785412185	0.3681080542279045	57.18066753463441
3	2.0	ltm	217	diff_vonmises	-0.033908340394522986	-1.9428047948991318	2.6619320526888153	0.4829897329614948	8.246191454236662e-18	2.073720406657259	-0.034750372364581394	-0.3286036281676247	0.2938532558030433	84.29366171009676
4	2.0	perception	217	diff_vonmises	0.008830746104197955	0.5059644817221367	6.521879320237639	1.6679124611915779	0.3877786671598804	3.3262830400697783	0.9120132552854974	-0.5624343244079291	1.4744475796934264	50.17716501819129
5	2.0	wm	217	diff_vonmises	0.02117232529438143	1.2130848818461342	2.4782672905819667	1.1002384842120392	0.2661050863640047	2.876247091762218	0.05821401755512057	-0.39601501929459104	0.4542290368497116	74.99589099273254
6	3.0	ltm	217	diff_vonmises	-0.17852851637981607	-10.228930511295648	1.0548131172895185	151.4904145613079	1.0376842273479128	152.77505376824365	0.040612388273238764	-0.30649118372937423	0.347103572002613	79.21855285664091
7	3.0	perception	217	diff_vonmises	-0.02822815222121163	-1.6173539857282664	3.5944546937418442	3.011723236655873	0.666662523082063	3.9985980890153536	1.070799504505646	-0.529520029037392	1.600319533543038	63.36629637176705
8	3.0	wm	217	diff_vonmises	0.024366850474827353	1.3961176922339533	1.062064848766477	100.15564206069365	1.0299568466279154	101.29542807446815	0.20973791643407225	-0.32837530861505293	0.5381132250491252	83.39885557111782
9	4.0	ltm	217	diff_vonmises	-0.4431970725909643	-25.39332175201543	0.5584381054034832	190.74327607035616	0.5454018399589821	193.3705193134054	-0.20248583984403012	-0.5093775632533806	0.30689172340935045	100.6117741630348
10	4.0	perception	217	diff_vonmises	-0.047887560636698016	-2.7437551156596096	2.1932593569948144	3.330240280299602	0.32684792206613333	4.952563874730795	0.7517009124393268	-0.5909830566794099	1.3426839691187367	81.80552289873859
11	4.0	wm	217	diff_vonmises	-0.031847177865917134	-1.8247088811195038	0.7325587636483681	5.4764858255888935	0.335010255315753	8.343086472721865	-0.21287348153079622	-0.5632125420289001	0.3503390604981039	105.05294794616117
12	5.0	ltm	217	diff_vonmises	-0.02871412239207105	-1.645198025487763	1.2755171046535205	2.960756375216004	0.46836850620372367	4.155484014523042	0.1627614854172308	-0.3244626479499124	0.4872241333671432	92.43738294556235
13	5.0	perception	217	diff_vonmises	-0.09599898262572991	-5.5003365420040415	1.038267156770645	324.6037638288693	1.0207452468449092	325.73924027923107	0.680493503532773	-0.4962085182868705	1.1767020218196436	88.17756322392376
14	5.0	wm	217	diff_vonmises	0.08536739749636926	4.891191584557629	0.3602109265397857	105.78315487723076	0.3405317293628117	107.04061186479282	0.1041591598436753	-0.4037816415686457	0.507940801412321	137.06124371500493
15	6.0	ltm	217	diff_vonmises	-0.4781195358348595	-27.394231506091373	0.6991430591280324	146.75429575534716	0.6870646746523587	147.63812995074713	0.0884107714626694	-0.23665569463536507	0.32506646609803447	101.18740832202715
16	6.0	perception	217	diff_vonmises	-0.005593581513502239	-0.3204886130860776	0.29146821420465013	205.67834666777003	0.27957719959275545	206.58662068828735	0.24824833556463233	-0.43440401497752745	0.6826523505421598	146.57183008392417
17	6.0	wm	217	diff_vonmises	0.10883541400309177	6.235809883936178	0.4799936258782325	3.3205996616510784	2.5647273554056825e-14	4.417000557223041	0.10393166827551803	-0.39401742301190246	0.4979490912874205	152.99285920998665
18	7.0	ltm	217	diff_vonmises	-0.5884834877311583	-33.71762016013413	3.714996457886176	0.33119225820149517	1.1673750254057472e-16	1.667107572781433	-0.02081856329363671	-0.2651833565699486	0.24436479327631191	71.08317419793767
19	7.0	perception	217	diff_vonmises	0.012558565388700918	0.7195527935116348	0.5864588112750597	233.49893125546916	0.5719580623915755	235.22401198709545	0.19050729912768105	-0.4988006633277138	0.6893079624553948	111.56884121492965
20	7.0	wm	217	diff_vonmises	0.1810379090545961	10.372708120701589	0.7429776220093499	168.05096329900002	0.7304876038714654	169.7416594765511	-0.09036708785673397	-0.3422255345082057	0.2518584466514717	89.1772598785883
0	1.0	ltm	218	diff_vonmises	-0.13226624582367888	-7.578297657736651	0.0003347527402771438	2985.1846881616107	7.172117886211574e-29	2987.5919750276908	-0.224079268384628	-0.5421573227570775	0.3180780543724495	179.4820873421437
1	1.0	perception	218	diff_vonmises	-0.07721817697481226	-4.424275642351013	8.404303887401753	1.0267059282339046	0.15945591685731605	3.5395885528194664	0.5118854089822904	-0.5899335565414701	1.1018189655237605	45.40433127140477
2	1.0	wm	218	diff_vonmises	-0.021122679653930995	-1.2102403961771002	2.4629826674470405	0.8874083757090672	0.15024453233995322	3.0276117326802416	-0.03840362563336441	-0.4380208167596001	0.39961719112623567	77.76809152139239
3	2.0	ltm	218	diff_vonmises	0.016712518837742905	0.9575567944355523	2.6269849182378686	0.41855707928396774	2.6105325273139142e-17	1.752909327292277	-0.025046060767802025	-0.2776569168413545	0.2526108560735525	84.85805286659036
4	2.0	perception	218	diff_vonmises	0.00017889664297287956	0.010250022611404716	6.13308905759801	1.4792876366409602	0.3602961518030727	2.624882822168617	0.8490808391660829	-0.43235582443049453	1.2814366635965775	52.03688327982678
5	2.0	wm	218	diff_vonmises	0.40167070303697006	23.014036038071	3.3811825254819547	0.5722949986323546	3.0773728195348907e-12	1.5688660818900588	0.15131831621550482	-0.24922902623890603	0.4005473424544108	74.60595782375776
6	3.0	ltm	218	diff_vonmises	-0.1852639148946228	-10.614840419532756	1.939898108645947	0.7475052332753319	0.3271072974502132	1.473288589907864	0.061871555329994166	-0.17697281113859445	0.23884436646858861	82.24969014114842
7	3.0	perception	218	diff_vonmises	-0.07697405661764561	-4.410288576192138	3.9050018199152037	1.8365086311161092	0.23246110172808568	2.3945516460779834	0.9190317895120259	-0.3485948576463135	1.2676266471583393	66.00643556873376
8	3.0	wm	218	diff_vonmises	0.1285974780001151	7.3680927454330485	0.8513265589466764	114.54731084817541	0.8366768671382762	114.68714359192181	0.27680162123562013	-0.14621909012637957	0.4230207113619997	100.34808991242829
9	4.0	ltm	218	diff_vonmises	-0.25630178968350475	-14.685010830514486	6.859180892631936	0.3706491048442885	0.06467209896484385	1.9480310828635956	0.04921845703679889	-0.3126643227202382	0.3618827797570371	50.60153868435441
10	4.0	perception	218	diff_vonmises	-0.07052508891931714	-4.04078994486172	2.590060444046179	2.138520452839547	0.14338279387676237	3.3221433287815203	0.6796383213912819	-0.4632061621083885	1.1428444834996703	80.69033099096288
11	4.0	wm	218	diff_vonmises	-0.41941109871081184	-24.03048583707428	0.9050499695629457	186.9503617261192	0.8918764081362546	188.48925171540122	-0.025157718847829358	-0.3358595638012396	0.31070184495341024	83.24965244118522
12	5.0	ltm	218	diff_vonmises	-0.30847972454763656	-17.674586281937753	0.8127409827293299	181.48195875682228	0.8011851527256527	182.40347016218152	0.12044576631092241	-0.25119558334739267	0.3716413496583151	94.2886532905176
13	5.0	perception	218	diff_vonmises	-0.09575136070843376	-5.486148851228035	2.335541270017534	2.404055604008277	0.25184522704164736	3.24246081285938	0.7074915372326688	-0.4075968070494661	1.1150883442821349	82.34768711583826
14	5.0	wm	218	diff_vonmises	-0.1494382274806051	-8.562179732554588	0.3998440565390436	153.4185852398218	0.3883177744048393	153.9840097299624	0.19615500528075813	-0.2767095880449606	0.47286459332571873	134.55269218572244
15	6.0	ltm	218	diff_vonmises	-0.43202072121043905	-24.752963987556125	0.526772194540259	134.93915329000788	0.5138301660077115	135.90555694078375	0.0864419226589348	-0.2796846011502847	0.3661265238092195	116.94523677541052
16	6.0	perception	218	diff_vonmises	0.1885246212085099	10.801665129550146	0.2027749629367714	228.61851894393877	0.19287004989388	229.45916003039167	0.23139495846950808	-0.43096744966278067	0.6623624081322887	156.10327301417243
17	6.0	wm	218	diff_vonmises	0.30330228541442544	17.377940870918884	0.00021972705989925382	4712.218687427642	7.092307826307688e-30	4713.20074896912	0.008494856551919838	-0.32107665128194185	0.3295715078338617	177.0666953095651
18	7.0	ltm	218	diff_vonmises	-0.3804353202222537	-21.797338226443117	1.191104909860102	1.0314202357333477	3.8235279002441566e-21	2.2577061557839313	0.03002577732361178	-0.3233694530236087	0.3533952303472205	120.19960908467583
19	7.0	perception	218	diff_vonmises	-0.17512791962436233	-10.034090669382268	0.6726780732945268	220.23683399860485	0.6549168203955933	221.59119374031206	0.3703717665911981	-0.4818196438426483	0.8521914104338464	107.25746791070155
20	7.0	wm	218	diff_vonmises	0.17774473921046324	10.18402338741302	1.5646652400106447	1.3587525732019317	0.1486925997930263	2.322285138401683	0.17731336694944538	-0.290641637965427	0.4679550049148724	99.2264101843588
0	1.0	ltm	219	diff_vonmises	-0.35445997280530256	-20.30906044806577	0.000307760410399487	2461.7132297562284	2.233448418246385e-28	2463.198393760029	-0.11578504127180622	-0.356938790157983	0.2411537488861768	176.42175680734545
1	1.0	perception	219	diff_vonmises	-0.07625052774721472	-4.36883342556058	12.269696302305913	0.9278877816223203	0.15916876678821476	2.606868916573189	0.7991828472222224	-0.44490802934966417	1.2440908765718866	38.053174073914306
2	1.0	wm	219	diff_vonmises	-0.06688145508547691	-3.8320251040916036	4.277646871411528	0.3372403642803352	2.3753912506856967e-15	1.6086505294015676	0.012894949750678286	-0.25597290828206115	0.26886785803273944	66.14246822343776
3	2.0	ltm	219	diff_vonmises	-0.12856953191965625	-7.366491552968824	11.864733922666643	0.2586991494864836	1.1797213471279003e-25	1.072400542467263	0.1808345966191246	-0.1706778472906939	0.3515124439098185	39.37292076560928
4	2.0	perception	219	diff_vonmises	-0.03438209587232487	-1.9699489842983837	8.525257840780766	1.2596111913530808	0.2844113220280778	2.0244942504628543	1.024768657913337	-0.3456912002342955	1.3704598581476326	45.22358116225641
5	2.0	wm	219	diff_vonmises	0.0387427481522663	2.2197959558631273	3.4377912932216095	0.4487686095488669	0.02768541320580109	1.280134490294317	0.10795717690175874	-0.19908461932696547	0.3070417962287242	72.64887951764842
6	3.0	ltm	219	diff_vonmises	-0.20069412452001367	-11.498926308069793	1.5060347754145373	51.24320171495439	1.475413035569002	51.60576316059587	0.11951628156653626	-0.12900120598253295	0.24851748754906922	70.85168693131817
7	3.0	perception	219	diff_vonmises	-0.054256958891588235	-3.108694753702811	3.52678616360979	2.7489680147165023	0.8360566713939135	2.7690743617045697	1.1121260912312492	-0.3240987070963305	1.4362247983275798	64.16460723612323
8	3.0	wm	219	diff_vonmises	-0.04928483326025533	-2.8238129398186156	1.5131772635070353	144.19202120895434	1.4977624648760703	144.4049032725687	0.29625122675557947	-0.1486711468909956	0.44492237364657505	74.32323350539463
9	4.0	ltm	219	diff_vonmises	-0.20826475565435598	-11.932691520317945	5.022425737764969	0.45187979467465517	0.37848990931732285	1.4493087085200544	0.06773313708511369	-0.23971426660162773	0.3074474036867414	54.31793167920799
10	4.0	perception	219	diff_vonmises	-0.12497358195472105	-7.160458796637821	3.286496053236773	2.077105574122471	0.13007011494915152	2.9215204983575918	0.9051132957621604	-0.425465631686435	1.3305789274485953	72.83987295984
11	4.0	wm	219	diff_vonmises	-0.3445601694225696	-19.74184349622584	0.8999221155028947	122.97716855535796	0.885426538140901	123.93948838273235	0.031734863505207045	-0.22558624387302473	0.2573211073782318	86.16385587478821
12	5.0	ltm	219	diff_vonmises	0.05214403504206853	2.9876331346927967	1.2071153617423234	66.36996483571457	1.1768550311735808	66.98905685719707	0.13935774009842916	-0.18910626021860555	0.3284640003170347	78.50082214526822
13	5.0	perception	219	diff_vonmises	-0.06466688777559651	-3.705139743787816	2.412566322743083	1.9933354286962157	0.1017683385526399	2.490667398300543	0.7126431541233665	-0.3495110493300459	1.0621542034534124	85.31072542896263
14	5.0	wm	219	diff_vonmises	-0.0746104480263086	-4.274863779487666	1.5764410781930975	0.8686262760269585	1.4971630128171815e-13	1.5278642963517837	0.14459591421474674	-0.22659790409780442	0.37119381831255116	108.11963912801367
15	6.0	ltm	219	diff_vonmises	-0.3685732846679987	-21.11769365275018	0.5140813659736595	50.653418066824536	0.48420454751067976	51.395880204768176	0.1018048095059303	-0.23953291189531267	0.34133772140124297	120.52692281237547
16	6.0	perception	219	diff_vonmises	0.17237991671261954	9.876641700449744	0.6418900195700483	3.145113274425189	1.0002433403113721e-19	3.6318795219274027	0.2821540078283842	-0.33976953289446526	0.6219235407228494	144.4878907352852
17	6.0	wm	219	diff_vonmises	0.05981937203757666	3.427397550876034	0.000528265510948506	2053.237428084439	1.4447917634177642e-27	2053.936891843997	0.061323002381982405	-0.2839236404093981	0.3452466427913805	179.80044395570434
18	7.0	ltm	219	diff_vonmises	-0.1131496173360789	-6.482995526877613	1.068882156385045	126.98616566986706	1.0542314201345893	127.73797830564604	0.08522494663919389	-0.1991601006793573	0.2843850473185512	81.23090609915798
19	7.0	perception	219	diff_vonmises	-0.16819997043175064	-9.63714841996455	0.6606399449588145	150.07954426390978	0.6428935900926208	150.89559585999095	0.28290251612436634	-0.32304097096487006	0.6059434870892364	109.18537206058609
20	7.0	wm	219	diff_vonmises	0.3048806261996846	17.468373136547598	0.7492623890964253	44.6901867947246	0.7190638288219678	45.28723622377788	0.08545861248422071	-0.16907765747267955	0.25453626995690026	99.39782098985086
0	1.0	ltm	220	diff_vonmises	-0.10738729789315982	-6.152838942592175	2.4267757017487734	0.5939396084491559	5.810451178955397e-27	3.914921016539899	-0.2791112947038471	-0.6203958218896667	0.3412845271858196	88.28484993087952
1	1.0	perception	220	diff_vonmises	0.006060841492728376	0.3472606378311058	5.873209694928833	0.9093736637294864	1.4111604557163298e-08	4.373544457711851	0.16256656672763625	-0.6960644096163631	0.8586309763439993	56.242765415404136
2	1.0	wm	220	diff_vonmises	-0.05031795689647529	-2.883006563889228	2.4201542741382593	1.2835695157922529	0.21148678932170453	4.635911702346705	-0.15933095875902992	-0.6637042579811552	0.5043732992221253	74.72525164342937
3	2.0	ltm	220	diff_vonmises	0.25174079970753616	14.42368535449001	1.4200489214137164	0.6322233237823404	0.030948333753550734	1.9432311213642657	-0.053995385094780135	-0.28430031164155317	0.23030492654677304	109.11976879078787
4	2.0	perception	220	diff_vonmises	0.05791479346435871	3.3182732368795977	4.674018795558032	2.107609861107295	0.6237703247237525	3.2574824064909467	0.8830392925078736	-0.5022689865028934	1.3853082790107671	56.68278999011034
5	2.0	wm	220	diff_vonmises	0.2793426610033268	16.00515551344431	2.392776202150418	1.0320054081075662	0.2916833993031992	2.144407132925937	0.14539115865223023	-0.2820357736850687	0.42742693233729895	77.20795825875462
6	3.0	ltm	220	diff_vonmises	-0.18335907899916795	-10.50570136205817	1.0444195011204522	109.03040685372304	1.0269340037351962	110.05945309093941	0.002560941395302052	-0.23612290731841767	0.23868384871371973	78.33547456631811
7	3.0	perception	220	diff_vonmises	-0.03221076661187593	-1.8455409817413968	5.765402379699109	1.4972952524146759	0.12423362201573862	2.3343893655359103	0.9810893490579584	-0.36692037645355874	1.348009725511517	55.57694222435268
8	3.0	wm	220	diff_vonmises	0.32497146115969333	18.619493186649986	0.5975581450701557	105.49593337772703	0.5797555367492183	106.00509302149291	0.22178921869613433	-0.2372447009532639	0.4590339196493982	115.52342181936561
9	4.0	ltm	220	diff_vonmises	-0.5794981916349358	-33.202800616145204	0.670536679723362	213.22398721507372	0.6558420055104286	215.5246575105577	-0.03930187845108435	-0.4996678099878764	0.46036593153679206	97.65522180464536
10	4.0	perception	220	diff_vonmises	0.07100191584160638	4.068110115067106	1.4895281793523119	6.969832115596593	0.6681198906283181	8.255186095109032	0.70726165451758	-0.5309685385951582	1.2382301931127384	86.53306307163692
11	4.0	wm	220	diff_vonmises	-0.029787080425132832	-1.7066739923768612	1.0985601255373114	2.276141781373658	0.17260976178962825	4.8924361686570546	-0.0984949807409321	-0.5600083228993211	0.461513342158389	106.41085151460655
12	5.0	ltm	220	diff_vonmises	-0.22728075664224268	-13.022228120140458	0.8059272842232148	164.2144494103455	0.7901861154859127	165.30335131119733	0.16504572524659267	-0.3066595883651182	0.47170531361171086	95.35358453885357
13	5.0	perception	220	diff_vonmises	-0.10765947275862943	-6.1684334136731245	1.0619534622837528	274.21431166902295	1.0426521265565105	275.14716033636813	0.6699565797262466	-0.446414506190127	1.1163710859163736	87.72757515262265
14	5.0	wm	220	diff_vonmises	0.12390437399667946	7.099197693220237	0.29254746401243686	98.10952412961572	0.2706328273680478	98.8340921636693	0.23420058642066977	-0.37484749868341893	0.6090480851040887	146.94873266665257
15	6.0	ltm	220	diff_vonmises	-0.6167531385368051	-35.337351839606306	0.7099028177518356	156.83876420853275	0.6972709776727306	157.47885652816242	0.19585057725920763	-0.23212163383416318	0.4279722110933708	104.5276932835429
16	6.0	perception	220	diff_vonmises	-0.09505338488724786	-5.446157782471905	0.5933387270264237	178.7528075300855	0.5754754643550026	179.5498084422376	0.39541798119547167	-0.3994060624306339	0.7948240436261056	116.47448287991571
17	6.0	wm	220	diff_vonmises	0.159967765579558	9.165477825846795	0.559315084334026	3.574298822294971	1.6114828875956088e-23	4.441300568923762	0.21485418081147145	-0.4057062333118731	0.6205604141233445	148.66479165339362
18	7.0	ltm	220	diff_vonmises	-1.0355614353510367	-59.333299672124056	0.00018050295777891204	4747.429822705985	4.5927233626988976e-30	4749.264448498624	-0.1556020480850293	-0.4283651711469929	0.2727631230619636	151.63297218185647
19	7.0	perception	220	diff_vonmises	-0.025329502912747576	-1.4512736140647615	2.0006871469128678	2.023307992397023	2.9052217048760177e-11	3.957341422389175	0.41411659386434985	-0.6107337810521155	1.0248503749164652	97.00658675769313
20	7.0	wm	220	diff_vonmises	-0.3537411809328021	-20.26787670742319	0.0002983190350405498	4310.125281245302	5.499299284732008e-29	4312.19073799158	-0.12407440905542444	-0.5333503700683195	0.4092759610128951	176.43635423864754
0	1.0	ltm	221	diff_vonmises	0.028815567130739277	1.6510103808672598	3.5809368072333405	0.5726129463777911	1.0266083841651997e-33	3.917358358690001	-0.2092338797006617	-0.623145624788575	0.41391174508791334	72.46573684865689
1	1.0	perception	221	diff_vonmises	-0.0956115412893186	-5.478137788618765	8.505607524481238	0.7394275736164739	0.0647764936312298	3.997695540278029	0.16855255686972337	-0.6471255631479172	0.8156781200176406	45.62898048183149
2	1.0	wm	221	diff_vonmises	-0.044599861494052304	-2.555383830477231	1.2854675726654388	4.606946990772472	0.5187566848749557	7.593639485905474	-0.08142591737349392	-0.6318401120785397	0.5504141947050458	84.17296454207602
3	2.0	ltm	221	diff_vonmises	0.15983833743272532	9.158062139283084	1.5467012667715363	0.6730936404809086	3.29379330232736e-18	2.366860730917087	-0.07967477566301162	-0.3632282155609447	0.2835534398979331	108.93042418125248
4	2.0	perception	221	diff_vonmises	0.054084265801853666	3.098800168509946	4.535870585253533	1.795395080955493	0.5326027693926807	3.179899651033982	0.6736790056290215	-0.49214512768619756	1.165824133315219	57.577433049275214
5	2.0	wm	221	diff_vonmises	0.4765847230804443	27.306293212920533	3.677308333858791	0.6189753119025624	0.001406230364614899	1.6494975682613031	0.19150993545937095	-0.26186597238995407	0.453375907849325	71.3995026329236
6	3.0	ltm	221	diff_vonmises	-0.20436604172920575	-11.709311666877953	1.1913372189682232	3.259950262171179	0.6024783720710513	4.573199840523964	0.014152380538495768	-0.29582519282447234	0.3099775733629681	85.8904854348566
7	3.0	perception	221	diff_vonmises	-0.08085292464517783	-4.632531343457969	4.789284138411293	1.4643979939571616	7.970925465166889e-11	2.7549342067043026	0.8023797283857652	-0.4383755187628924	1.2407552471486576	62.424550177059785
8	3.0	wm	221	diff_vonmises	0.38825247997006057	22.245228487772	0.45360855906709846	112.6823638254965	0.43622401309058695	112.98090391597795	0.29254893618689337	-0.2608947995061559	0.5534437356930493	130.02637544389347
9	4.0	ltm	221	diff_vonmises	-0.41992719957120245	-24.060056238177733	0.7349812439970151	176.09753974847763	0.7170857056568085	178.3721769113523	-0.0534379348644336	-0.4853629982881138	0.4319250634236802	92.57678232797896
10	4.0	perception	221	diff_vonmises	0.029980417619013877	1.7177513976091476	0.927659941740476	273.529634082254	0.9073870741917568	275.29061547167	0.4843633979874227	-0.5692232956306746	1.0535866936180973	90.79197118721459
11	4.0	wm	221	diff_vonmises	-0.34238285045809186	-19.61709230890747	0.7758437092923758	209.58218195640353	0.7622542575693243	211.8148427178512	-0.11800230362040764	-0.4535908115041991	0.33558850788379146	87.25963747743835
12	5.0	ltm	221	diff_vonmises	-0.42609014754794416	-24.413167146603723	1.5178332664842809	2.3879227154936586	0.3882715861985133	3.68255234049232	0.20925265767117918	-0.3589701670173976	0.5682228246885768	89.94411150939995
13	5.0	perception	221	diff_vonmises	-0.09796005603638044	-5.612697771749643	1.0340172080946315	257.0012710299155	1.0125534349889713	258.3401860840436	0.5805646666500195	-0.5045335850340606	1.0850982516840801	87.38897884023766
14	5.0	wm	221	diff_vonmises	-0.10987436480823057	-6.2953373801923505	0.32194766772875133	174.982734361304	0.3098060279309901	175.55251615904098	0.2611028329551246	-0.34299022189909323	0.6040930548542178	143.5720784134009
15	6.0	ltm	221	diff_vonmises	-0.5113594128466084	-29.29873617039851	0.7001811014406358	220.43897151217968	0.6884115743446413	221.76095079371134	0.12111252625685154	-0.3487429889519049	0.46985551520875646	100.81531185507687
16	6.0	perception	221	diff_vonmises	-0.032640143543715985	-1.8701424677561087	0.614687812321065	225.57607254678334	0.5991678890662029	227.08531262483618	0.26250652877147473	-0.47938685744885845	0.7418933862203332	110.53468832754443
17	6.0	wm	221	diff_vonmises	0.45001610338517317	25.784023436893342	0.00016656569756264337	7936.547646601625	1.7702257625430314e-30	7937.942661700354	-0.011620356324783643	-0.43240921910182806	0.4207888627770444	173.84156580966095
18	7.0	ltm	221	diff_vonmises	-0.7096256720318992	-40.65855604156256	0.0003463584741920003	3312.1678739716417	5.2135561047550115e-24	3314.4874725833433	-0.1865808816506842	-0.5517386712430152	0.36515778959233103	166.12042731669084
19	7.0	perception	221	diff_vonmises	-0.17306793339792534	-9.916062152752346	1.0946634296373998	4.7782535446537135	0.2074271881880561	7.197948692640643	0.3233377045323489	-0.728657287278931	1.0519949918112799	110.47955416239074
20	7.0	wm	221	diff_vonmises	0.3068532867151537	17.58139825849608	0.9902181851889008	104.45669861292829	0.9550187402397465	106.21431134039429	0.11145242110212195	-0.43264053217921905	0.544092953281341	83.54106902141027
0	1.0	ltm	222	diff_vonmises	-0.966425054893022	-55.37207686106907	0.00030887930611488796	1536.3104082447403	1.5251883462459225e-26	1538.4347482623314	-0.26257046599067735	-0.41361630022913687	0.15104583423845952	155.05563090332285
1	1.0	perception	222	diff_vonmises	-0.10799263180325805	-6.187522020836955	13.815466417569366	0.7096518001632819	0.09892075889455192	3.0892199039971953	0.5009091366024373	-0.5163269021250422	1.0172360387274795	35.95215800396832
2	1.0	wm	222	diff_vonmises	-0.08056936635817911	-4.616284650366983	4.258221961206002	0.394557935289374	0.08553949719220592	2.220251982700843	-0.07039072445837924	-0.34896022694818857	0.27856950248980933	62.31062818582325
3	2.0	ltm	222	diff_vonmises	-0.10391194381074183	-5.953715821356063	25.212907932201922	0.21565690871909055	7.346778008746051e-33	1.384654406630537	0.20944243760096057	-0.22037459328922523	0.4298170308901858	26.939545445254083
4	2.0	perception	222	diff_vonmises	-0.007251979772717077	-0.4155078340909305	7.978735583587753	1.435109268812801	0.4687826558164128	2.7921064965841755	0.9172379474014041	-0.5027379351491524	1.4199758825505566	45.45691922294225
5	2.0	wm	222	diff_vonmises	0.23460587165955818	13.441926295080535	3.9290559022206435	0.3790879803018741	5.540272318332203e-12	1.5879398800857933	0.035865626553064966	-0.2526168837693329	0.28848251032239786	69.09379223131108
6	3.0	ltm	222	diff_vonmises	-0.15982432996576793	-9.157259570544754	1.526715737867183	59.86950971450166	1.4907316480747537	60.5810948100522	0.06911139414497924	-0.20561677147956914	0.2747281656245484	67.0850175589998
7	3.0	perception	222	diff_vonmises	-0.046502455433375986	-2.6643944333276477	3.95981162362411	2.7077361254167247	0.8928062446789519	3.333908717722814	0.9989265767533515	-0.44398239362751046	1.442908970380862	59.42390021227618
8	3.0	wm	222	diff_vonmises	0.13853984645954034	7.937748496522103	1.468740626446429	162.33223967188488	1.4539664038536206	162.7868127667381	0.22967616609416552	-0.18573405962574796	0.4154102257199135	72.9223475542397
9	4.0	ltm	222	diff_vonmises	-0.4514760646715362	-25.867673056854436	9.303723771509539	0.32261089461209386	0.24528987519691647	2.0352205184615326	-0.020799856034538655	-0.3603349310632767	0.33953507502873803	41.649744759513396
10	4.0	perception	222	diff_vonmises	-0.09426519960371207	-5.400998092250982	2.5175283765874847	2.587924885745054	0.41561911565177123	3.947017866076551	0.6193256775883534	-0.48136678898071716	1.1006924665690705	75.4168594834108
11	4.0	wm	222	diff_vonmises	-0.3460181140553099	-19.825377570445607	0.8160916122177206	137.54273888162496	0.8029248153408343	139.2674982785448	-0.17885716944474694	-0.32811440741654607	0.14925723797179913	78.4060171074094
12	5.0	ltm	222	diff_vonmises	-0.05897258020938051	-3.378879952994228	1.2145089529667408	103.08391001299007	1.1859558137599073	104.11400740475892	0.15578098710315658	-0.29098752805467143	0.446768515157828	76.95340941399371
13	5.0	perception	222	diff_vonmises	-0.10941002405284533	-6.26873261465286	1.4296911527831035	7.32616651331147	0.7668949550835434	8.413031718752045	0.581179100242013	-0.4429344914963943	1.0241135917384074	85.38180274494977
14	5.0	wm	222	diff_vonmises	0.0016635109407365121	0.09531215607803935	1.5890283235596918	0.9787441516899659	6.675793767208399e-17	1.7376481731017965	0.1624898086591436	-0.2582617211590692	0.4207515298182128	107.75960809799004
15	6.0	ltm	222	diff_vonmises	-0.3843646418577184	-22.022471772504687	0.8172222691166617	139.90666383984316	0.803797209788144	140.7806059598278	0.09266029924983599	-0.22942562988281168	0.32208592913264766	93.38375794730139
16	6.0	perception	222	diff_vonmises	0.19547848238125243	11.200092026068187	0.4420972723235094	4.011326724198177	1.184977441217221e-12	5.002354118190426	0.15039377724851344	-0.405180718993236	0.5555744962417495	154.48576156375822
17	6.0	wm	222	diff_vonmises	0.2257275781985282	12.93323755048492	0.19068454485938893	4.97824274922451	4.6011069148189195e-12	5.999289541242069	-0.0047139455298081945	-0.30596682892931015	0.30125288339950196	167.74652757480914
18	7.0	ltm	222	diff_vonmises	-0.13056535345160067	-7.480843703410574	1.1761996692494907	153.7477652045519	1.1606367103886783	154.97041791873818	-0.010653142968038765	-0.2862634705484872	0.27561032758044846	73.05253325137431
19	7.0	perception	222	diff_vonmises	-0.274275617249756	-15.714835291756579	0.6575374250500977	149.11559999950396	0.6385226979600546	150.51816412495833	0.15611014359255648	-0.3903116801075317	0.5464218237000882	105.19041183572833
20	7.0	wm	222	diff_vonmises	0.6923095969518266	39.66641802174274	12.761234016100515	0.2506031762562151	0.013466998721715612	1.3895024491523182	0.12930328225159451	-0.2221754946887593	0.3514787769403538	37.82496405797042
0	1.0	ltm	223	diff_vonmises	0.21974054668434606	12.590205912910465	1.1810558284703985	0.6546386698842018	1.814715739618968e-17	4.294037652611569	-0.4375210041720886	-0.6602473094189942	0.22272630524690562	121.08591619307262
1	1.0	perception	223	diff_vonmises	-0.04761401955234328	-2.7280823660026514	8.354792720730776	0.9960268738081538	0.18100652120468522	4.619085093655909	0.25636688218428694	-0.7808900570238201	1.037256939208107	44.92754058544713
2	1.0	wm	223	diff_vonmises	0.00041742877221875136	0.02391690689546224	2.817855175210937	0.7085390187857079	0.062096215351312795	4.006770117001564	-0.23019617039150275	-0.6140588968934877	0.38386272650198494	75.84368818792018
3	2.0	ltm	223	diff_vonmises	-0.05498732053642012	-3.150541393469911	0.5087153572328018	1.5876552040257221	5.162233129513108e-32	3.467350506328981	-0.15752330403762255	-0.40928891444262716	0.2517656104050046	151.69729842774956
4	2.0	perception	223	diff_vonmises	-0.02397842639651444	-1.3738626318853644	8.220039350236275	1.2845970566759557	0.28156275043743306	3.1028116291458887	0.8036960451829434	-0.5341566671031129	1.3378527122860562	45.507668130478294
5	2.0	wm	223	diff_vonmises	0.19240004023168394	11.023710283422732	3.329124546395137	0.6941498454487786	0.11633303619114543	2.3169274740958103	0.06934414037745751	-0.35087526914672273	0.42021940952418024	70.14487912298739
6	3.0	ltm	223	diff_vonmises	-0.3038938320078331	-17.411833994106484	2.731621046340318	0.40015258092730377	2.8304608077595836e-09	1.2805072465353977	0.04452763372086971	-0.20274605633141515	0.24727369005228486	83.16953835173295
7	3.0	perception	223	diff_vonmises	-0.0841115397492265	-4.819236235977541	3.6940807586294637	2.184908014282713	0.4704850028448538	2.928441860673297	0.9016423092452155	-0.40471594494715984	1.3063582541923753	64.78922457479666
8	3.0	wm	223	diff_vonmises	0.006706595779282766	0.38425963305315386	1.1770984315238329	160.50774919749207	1.1623137754709225	161.01947105652366	0.2498097428928432	-0.2009053927903146	0.4507151356831578	81.90390136453144
9	4.0	ltm	223	diff_vonmises	-0.0894156073980944	-5.12313692650955	2.383956518035928	0.695119356031228	0.18721586892412223	2.8049159184954	-0.13528936708512646	-0.4058633045991178	0.27057393751399134	75.22885671605087
10	4.0	perception	223	diff_vonmises	-0.09135571928932172	-5.234297149660019	2.859632566990401	2.159161688042112	0.22334446545944475	3.630801739214873	0.6623260056745089	-0.5013361797711297	1.1636621854456386	75.014251735821
11	4.0	wm	223	diff_vonmises	-0.17971343055255487	-10.296821092478815	0.6367525937000891	163.56173898793008	0.6245911153445242	165.54872353002196	-0.15940542323491513	-0.3811966942717149	0.22179127103679974	93.17273265901476
12	5.0	ltm	223	diff_vonmises	-0.15896143093246679	-9.107819097790681	0.6784290210298495	24.77536134847647	0.5839263103026892	26.57447492292709	-0.028011435791835737	-0.39429493883564115	0.3662835030438054	100.45772505883721
13	5.0	perception	223	diff_vonmises	-0.07112891233969226	-4.075386478420368	1.7907063379958972	4.126928130653235	0.47528776933438305	5.931494264660729	0.5547266505615918	-0.5805694471366205	1.1352960976982123	83.86285114085203
14	5.0	wm	223	diff_vonmises	-0.21503253634552955	-12.320456790592322	0.46347955775162375	170.47822586534085	0.45043565250445466	171.89900328305262	0.07515566519561645	-0.39732490505092954	0.472480570246546	123.1585882688318
15	6.0	ltm	223	diff_vonmises	-0.39387599760959263	-22.56743231453456	0.624602667294033	210.90985167094516	0.6120586807893907	212.82446687516207	-0.011238962956646503	-0.429528835634283	0.4182898726776365	102.2476412845065
16	6.0	perception	223	diff_vonmises	0.2747711444733516	15.743226910302441	0.40727538770796284	6.176930881821806	1.266861126274552e-13	7.95591550839538	0.1516663578279447	-0.6383224255176868	0.7899887833456315	155.60009831647181
17	6.0	wm	223	diff_vonmises	0.10329938485694855	5.918618778600759	0.9403934093162092	1.4460771998047282	2.411372201976952e-10	3.4278064928423966	-0.06775761310247441	-0.4727028017426324	0.404945188640158	130.99007503193315
18	7.0	ltm	223	diff_vonmises	-0.5156574483427099	-29.544995464522543	2.3874934570629707	0.5803458793743215	2.064572551557051e-07	2.1030017782817665	-0.001855824303520881	-0.331894005453527	0.3300381811500061	88.806601226383
19	7.0	perception	223	diff_vonmises	-0.1559491372732464	-8.935227384463335	0.4337789194322915	208.8528316224801	0.4195729395096837	210.72670355034424	0.11297279205794553	-0.5437894428800263	0.6567622349379718	127.12299449203566
20	7.0	wm	223	diff_vonmises	0.2773916450366757	15.893370532792567	0.7201151979538676	49.85894655999766	0.6692258823104545	51.44469656688412	0.04152789874614271	-0.3720523061052514	0.41358020485139413	98.02106508727826
0	1.0	ltm	224	diff_vonmises	-0.18002844178297386	-10.314869906481048	0.0003636808857462302	3427.6972768553755	2.2833091241396397e-27	3428.833104454379	0.017643101848989318	-0.3791521805320599	0.3967952823810492	179.0543523973963
1	1.0	perception	224	diff_vonmises	-0.1520976159561228	-8.714551468287484	12.10917819461397	0.7870396151138799	0.22908260438515596	2.0788818139045193	0.6700795822204066	-0.36629682293625226	1.0363764051566589	38.07558763870156
2	1.0	wm	224	diff_vonmises	-0.029628627960704854	-1.6975953349116912	1.1619909122753085	6.274271629775093	0.8093241356668075	7.012717786927877	0.19276124429323493	-0.23258519435079206	0.425346438644027	87.48821809828965
3	2.0	ltm	224	diff_vonmises	0.07523597543209573	4.310703859809036	4.11359376292412	0.3672218542871348	1.0003871544759118e-18	1.0218220938376916	0.12403745670850624	-0.1625514059621685	0.28658886267067474	67.48551097663025
4	2.0	perception	224	diff_vonmises	0.03019433500949885	1.7300079612483885	4.624829945116747	1.5409671106280587	0.6086781292883577	2.0226047053604144	0.7411166204986966	-0.3027935839657084	1.043910204464405	57.82734016460415
5	2.0	wm	224	diff_vonmises	0.6522215100349739	37.36953983265347	3.4358210796619773	0.5953816479251058	1.5072625161497789e-24	0.6692636185803125	0.3143925511424645	-0.10608016344661314	0.42047271458907765	73.95815648105236
6	3.0	ltm	224	diff_vonmises	-0.213714322422823	-12.244928696325852	2.8640517705709696	0.739086567983976	0.6822537325032781	1.1768314530877928	0.1404844245132172	-0.1440926751694942	0.2845770996827114	66.76938389931829
7	3.0	perception	224	diff_vonmises	-0.09556570820174555	-5.475511746138776	4.274717127369339	1.4979402479028592	7.75470412788867e-17	2.045455612616463	0.8683347779332895	-0.32531310331835883	1.1936478812516484	66.17341185703015
8	3.0	wm	224	diff_vonmises	0.41411557395873105	23.72707461847299	0.465009697856292	50.989917289202396	0.43975412163512134	50.378156388289035	0.3828354617235803	-0.0914982019064503	0.4743336636300306	134.07096591800322
9	4.0	ltm	224	diff_vonmises	-0.3011222839885868	-17.25303598988583	11.657209314959369	0.370157897628695	0.1111818242978725	1.08126449539323	0.3067700464951199	-0.17991972716977866	0.4866897736648986	39.18061079200703
10	4.0	perception	224	diff_vonmises	-0.0708262938809072	-4.058047717929231	1.2989177115181736	8.02969041379227	0.6992538582660495	9.166683937126711	0.5827900364171321	-0.46207045069449526	1.0448604871116274	89.49965687995186
11	4.0	wm	224	diff_vonmises	-0.5693647976204155	-32.62219990697007	1.3753479064052705	134.95643787981496	1.360161216548215	135.55960592656902	0.12172342565148853	-0.18571927429625035	0.3074426999477389	72.63471014041667
12	5.0	ltm	224	diff_vonmises	-0.4417105487102876	-25.308150207507246	1.3027499749979226	123.5848715023018	1.2856609066942484	123.93251870310866	0.24699169341612048	-0.16275568482048364	0.4097473782366041	78.79094806677467
13	5.0	perception	224	diff_vonmises	-0.07179400621878662	-4.11349355067246	1.7379748075082528	2.897395433835769	0.38867269842678137	3.344434709777841	0.6162639401268044	-0.3212365770004384	0.9375005171272428	90.35769363130163
14	5.0	wm	224	diff_vonmises	-0.19240908308439683	-11.024228400717938	0.4372397979484019	109.79571717790702	0.4236360734577716	109.5217843733769	0.3394621768708781	-0.1514122117339909	0.490874388604869	135.1559513431613
15	6.0	ltm	224	diff_vonmises	-0.45443815028733764	-26.037388061196264	1.6738048377227812	1.0775867753762034	9.087186395278823e-18	1.8631724054459167	0.2023844854191818	-0.2789869937159121	0.4813714791350939	104.78258124372505
16	6.0	perception	224	diff_vonmises	0.020252383938825787	1.160376124773252	0.8272852113463163	181.98630834588153	0.8112526258702247	182.71141550756937	0.3353568117291488	-0.29714734993247127	0.63250416166162	98.16932757050935
17	6.0	wm	224	diff_vonmises	-0.41305929028115407	-23.666554021779273	1.0645443164436648	76.81427953775642	1.0451853839771188	77.3882291264128	0.0787995382403821	-0.15644437045610715	0.23524390869648926	82.07549038750375
18	7.0	ltm	224	diff_vonmises	0.04474025692911316	2.563427896369121	1.04516275835283	144.02614583313112	1.021919873990493	145.50469551622072	0.11991433234496185	-0.37494952664635406	0.4948638589913159	81.47918470569883
19	7.0	perception	224	diff_vonmises	-0.3550564745336424	-20.343237479571904	1.482396861859085	3.8077405514442573	0.3212306765538784	4.811301399762566	0.6084453589428844	-0.46434844319891655	1.0727938021418009	96.6967569054939
20	7.0	wm	224	diff_vonmises	0.4758138321663992	27.262124417080766	2.0302875496998563	14.916273380332497	1.890438067940864	14.585202982221706	0.4934167913585057	-0.07858466290045318	0.5720014542589589	70.93036612587105
0	1.0	ltm	225	diff_vonmises	0.006000425313861532	0.34379904576772813	0.5561809751492207	2.4355837553991995	8.926663385773344e-20	4.726939962657658	-0.12569163253109017	-0.5462892953118972	0.420597662780807	149.27975401651796
1	1.0	perception	225	diff_vonmises	-0.1360404786775072	-7.79454527116063	10.647963323875729	0.7564682894565659	0.16433063669587492	3.0828830703923606	0.3982061337938261	-0.5253817049323195	0.9235878387261456	40.41773151883342
2	1.0	wm	225	diff_vonmises	-0.012728537378967161	-0.7292914711893292	0.8840406025298094	47.930848946350764	0.8139824563066499	49.77452592383705	0.07595775694428575	-0.43698560006325327	0.512943357007539	88.84845190424772
3	2.0	ltm	225	diff_vonmises	0.13195581022755132	7.5605110082679134	2.605358912800941	0.4924718981760026	5.93568047385187e-37	1.8147138591938146	0.008501873238165314	-0.28719771869422556	0.29569959193239087	85.20488728579761
4	2.0	perception	225	diff_vonmises	0.03171764392440966	1.8172871329674307	4.855375224845599	1.4752021950424066	0.47514012866875205	2.5027655714934833	0.6533641160058765	-0.39239880409587435	1.0457629201017509	56.74785518691445
5	2.0	wm	225	diff_vonmises	0.5397012049227672	30.92260124019973	3.4954529857822823	0.6270259940917557	1.597715615236873e-14	1.2324445118222929	0.2514300209610331	-0.19573776513513438	0.4471677860961675	73.33178602732772
6	3.0	ltm	225	diff_vonmises	-0.25764642343381294	-14.762052669397994	2.805843689340134	0.6120881765447277	0.20402580982355095	1.504465259454011	0.09519364113782586	-0.2145836123196935	0.3097772534575194	74.02344247667904
7	3.0	perception	225	diff_vonmises	-0.09990444662727814	-5.72410314633303	4.208459586395239	1.5367163983610554	4.605411138486354e-17	2.500603247645058	0.8165935493200983	-0.3977148047774807	1.214308354097579	66.69983658823242
8	3.0	wm	225	diff_vonmises	0.31858499137842033	18.253575422195205	0.46355214511382015	67.22866715681619	0.43863242472898817	67.09295376461465	0.3424562272241527	-0.18375455330398172	0.5262107805281344	131.9554644422829
9	4.0	ltm	225	diff_vonmises	-0.2574898127373195	-14.753079537462316	6.61241421750285	0.44638865970803604	1.4799600707065374e-27	1.8032008475740728	0.16156271103689945	-0.28698751844643305	0.4485502294833325	52.943587292983125
10	4.0	perception	225	diff_vonmises	-0.04073745220876199	-2.334084079677955	0.9564183431644419	226.2007087812621	0.9324072580248327	227.71880268365925	0.5324956269381858	-0.5320159379227647	1.0645115648609504	90.32689036453215
11	4.0	wm	225	diff_vonmises	-0.4426158060460668	-25.360017632220654	0.9825332472735793	183.2387423480075	0.9704934178827685	184.40843917836042	0.02497925543055146	-0.2721536085010925	0.29713286393164395	81.68764154386574
12	5.0	ltm	225	diff_vonmises	-0.4819923049204529	-27.616124829724615	2.475577645679228	1.086367183943402	0.2567890483664091	2.0632042442324847	0.2189509055402034	-0.2742255949186779	0.4931765004588813	77.98409850910481
13	5.0	perception	225	diff_vonmises	-0.05704922931240228	-3.268680064074674	0.9644018086213632	212.55451840294882	0.941635112627672	213.6970879017867	0.5409853749852971	-0.45296202206712266	0.9939473970524197	90.95384609563774
14	5.0	wm	225	diff_vonmises	-0.21875600341384163	-12.533795738762555	0.3773894793124184	175.53034327652006	0.36636766049887093	175.8086245418685	0.29085831397867423	-0.2723249266258776	0.5631832406045518	138.1131060368955
15	6.0	ltm	225	diff_vonmises	-0.4593515567964527	-26.318905517200665	0.7001730063967445	29.846105175948924	0.6072638920614922	31.313202761213756	0.1354478023700949	-0.3937594702327223	0.5292072726028172	104.13584548540983
16	6.0	perception	225	diff_vonmises	0.020498424219712347	1.1744731944582651	0.7769999784542401	269.48376353030375	0.7626687916009066	270.93024957816834	0.30856070753770837	-0.4486374897772549	0.7571981973149633	98.43453510527505
17	6.0	wm	225	diff_vonmises	-0.24235215203997282	-13.885755467803287	0.8493949244473692	88.47900564321068	0.8241262565332788	89.75244956565028	0.03420871821415972	-0.2952234059531964	0.3294321241673561	88.8607081008233
18	7.0	ltm	225	diff_vonmises	-0.12306655141482996	-7.051193995299506	0.737148364866195	76.84206710756555	0.6993959190174499	78.88856757142153	-0.028797018932728236	-0.4443780834937314	0.4155810645610032	93.8218470128999
19	7.0	perception	225	diff_vonmises	-0.27505799568575917	-15.759662274121606	1.2433893553856166	3.383643070507871	0.09051772018191469	5.26296625023285	0.39477213471351935	-0.6546180811237158	1.049390215837235	113.04423419829125
20	7.0	wm	225	diff_vonmises	0.4175343654221703	23.922956940363413	1.295541040927695	89.87746080494648	1.2597688514580978	90.51981454292724	0.33604115668190815	-0.2605841312829753	0.5966252879648835	78.41259496483295
0	1.0	ltm	226	diff_vonmises	-0.82402795557403	-47.213324055185616	1.7039294601119626	0.4983662268175002	3.34368699979867e-35	1.9302372423650909	-0.07394855004028777	-0.2994829642360573	0.22553441419576953	102.5136664938763
1	1.0	perception	226	diff_vonmises	-0.0670309529812738	-3.840590702566852	10.394380064422487	1.0881987568878255	0.17165745004434113	2.7101483522962764	0.8736046290535916	-0.45889996618565976	1.3325045952392514	41.24130062643272
2	1.0	wm	226	diff_vonmises	-0.008701348428162222	-0.4985505410064881	5.491082728879035	0.27517557980166385	9.692858856701369e-20	1.5228309895733472	0.008367888007146024	-0.24236181467231765	0.2507297026794637	58.212648965303316
3	2.0	ltm	226	diff_vonmises	-0.1448797325314445	-8.300997211035986	16.253763980282674	0.19677758736067372	6.220568266682574e-45	0.929948727319724	0.16591136723525524	-0.14800593677494878	0.313917304010204	33.59570327316257
4	2.0	perception	226	diff_vonmises	-0.03467968634099855	-1.9869996621767056	9.23190260916335	1.3204143997142532	0.30244468629963667	1.9268644200338432	1.1720500356783599	-0.33373672093424495	1.5057867566126049	43.56684494838592
5	2.0	wm	226	diff_vonmises	0.07896104181818842	4.524134442138196	2.441546662220062	0.47641709733007	1.940917719336405e-15	1.3038232267079128	0.06936567495886048	-0.20541262707748653	0.274778302036347	88.02686025925604
6	3.0	ltm	226	diff_vonmises	-0.1547811296770974	-8.868305478764775	1.5261749367408461	46.461923912890015	1.5041665886038849	46.70370207988521	0.07340902544290984	-0.08457114163794621	0.15798016708085605	69.97780752818787
7	3.0	perception	226	diff_vonmises	-0.05248748947087882	-3.007311623918703	3.692841127956611	2.568919009539419	1.0051443422263302	2.343443254257219	1.0873391412271851	-0.26081878204624903	1.3481579232734342	62.43202244886396
8	3.0	wm	226	diff_vonmises	-0.019111951101465827	-1.095034136374397	1.5902577276385224	108.32038624221668	1.574334911969725	108.41933857532352	0.2523264252541111	-0.10701935789473183	0.3593457831488429	73.37352722219651
9	4.0	ltm	226	diff_vonmises	-0.24198084034660672	-13.864480874889553	5.146813508654366	0.4930911921605879	0.6081403142667423	1.4535198041332342	0.04597972685787449	-0.2533266125677506	0.29930633942562507	51.18320368699469
10	4.0	perception	226	diff_vonmises	-0.1105283866634716	-6.332810072206978	3.9757792132388343	1.6377788561323348	3.1266897758912412e-18	2.198381050842072	0.9050810744582682	-0.3494412625279654	1.2545223369862337	68.67608244276539
11	4.0	wm	226	diff_vonmises	-0.3957730146535781	-22.67612338481931	0.9819294006976594	121.35826999377178	0.9666524674623699	122.35301288313477	0.017822457713982942	-0.23029546432772285	0.2481179220417058	81.6254230313043
12	5.0	ltm	226	diff_vonmises	0.053428499599958365	3.0612275327940215	1.7170496838277913	2.261521032417144	0.9591375877665672	2.8156965746287765	0.12311170445279007	-0.17000422112504154	0.2931159255778316	74.29542992374695
13	5.0	perception	226	diff_vonmises	-0.09835943116140933	-5.635580280856307	3.0140941854327155	1.6875683411002185	7.614737271074649e-15	1.9337451048065775	0.800409081837417	-0.30509422651753004	1.105503308354947	79.14597710960521
14	5.0	wm	226	diff_vonmises	-0.0017662514702002326	-0.10119875480125003	1.4646277705206756	0.8419283256603696	7.396042377423512e-14	1.3720605925918283	0.14108384458553078	-0.19916206077130613	0.3402459053568369	111.57281867891206
15	6.0	ltm	226	diff_vonmises	-0.36044817696243087	-20.652159273131918	0.4058772324666947	63.63209375895506	0.38913237041929116	64.08010509642517	0.09401443832326706	-0.1774859696521558	0.27150040797542285	132.39411492881
16	6.0	perception	226	diff_vonmises	0.2589440952810029	14.836403789434922	0.0013332902440852594	1344.294546840608	3.457391760934019e-21	1344.5224495130144	0.2490809835457526	-0.32143449392702905	0.5705154774727816	177.75185565091928
17	6.0	wm	226	diff_vonmises	0.11658837412466865	6.680021777635767	0.00039314892776761903	2434.433526808594	4.6431174134470296e-26	2434.9259212419493	0.07397197465053296	-0.23067604907964778	0.30464802373018074	179.4646099832982
18	7.0	ltm	226	diff_vonmises	-0.17551839067829314	-10.056463012794527	0.8848890822715695	55.69017744935142	0.8631567535117571	56.19505152134202	0.07137305802610427	-0.1383616859496719	0.20973474397577618	90.69102627697615
19	7.0	perception	226	diff_vonmises	-0.16747394779246505	-9.595550386902538	0.9045011195215513	10.640908189145556	0.676691383889768	11.225353252476546	0.29873798624771464	-0.2554363610320345	0.5541743472797491	100.4230038824199
20	7.0	wm	226	diff_vonmises	0.23158305936465534	13.268731908322346	0.6251108496207187	36.17790463159118	0.5949885678513783	36.64245367503168	0.083525367819	-0.14868726989733227	0.23221263771633227	110.37317760211474
0	1.0	ltm	227	diff_vonmises	-0.12357686368958996	-7.080432734876975	1.1207787390167339	0.9964058937438226	9.99411678416305e-21	3.550451540778131	-0.20196117099094824	-0.5264757605280702	0.324514589537122	123.61916569698239
1	1.0	perception	227	diff_vonmises	-0.05130904198009203	-2.9397915563188377	9.343874105091595	0.8577716544756607	0.019080727168802755	3.573212270230956	0.45169106085979704	-0.5704557719199582	1.0221468327797552	44.18134582797296
2	1.0	wm	227	diff_vonmises	-0.06794299496229304	-3.892846858818005	3.4767658570348634	0.6320605008638845	0.06594666232162406	3.1236237232118147	-0.08062488676119983	-0.48352525248471584	0.402900365723516	69.44855175179197
3	2.0	ltm	227	diff_vonmises	0.0908440606767465	5.20498127060794	2.448145194890387	0.4599064245113832	6.1016199072705605e-12	1.7042703793128107	-0.0035188730475220753	-0.26924195284027014	0.26572307979274806	87.90155470734521
4	2.0	perception	227	diff_vonmises	0.017486904931795912	1.0019258493384104	5.641270488356144	1.6695698973300404	0.43784339822607693	2.707141015621645	0.9067793016965361	-0.4395960388442137	1.34637534054075	53.65970432022604
5	2.0	wm	227	diff_vonmises	0.17528881595160684	10.043309349872533	2.346318268136419	1.0625406020543082	0.3075860738680156	2.1729895483408512	0.14373752693285585	-0.2819982955835997	0.42573582251645553	77.40707544964462
6	3.0	ltm	227	diff_vonmises	-0.18683879273759155	-10.705074273183532	1.100040831798427	112.36636887199903	1.0825765586003617	113.22394975672239	0.061389014326309166	-0.21677834228029802	0.2781673566066072	78.88602257398995
7	3.0	perception	227	diff_vonmises	-0.040282548591598875	-2.308020022329274	4.330018611525727	1.9613462429476924	0.29173188627947044	2.549423623274603	1.0424432648869693	-0.37739275140402984	1.419836016290999	62.35419640172057
8	3.0	wm	227	diff_vonmises	0.09881177021325895	5.66149739943624	0.8508322351255039	102.18690682085527	0.829830167544238	102.67935172578541	0.25726738766867285	-0.21232895748114444	0.4695963451498173	97.32533409641974
9	4.0	ltm	227	diff_vonmises	-0.37028604261442816	-21.215827454408082	2.0845148218049268	0.6939884267192172	3.0787025586635225e-17	2.426426065003022	-0.01911252216940046	-0.38050004119402325	0.3613875190246228	94.94753511094538
10	4.0	perception	227	diff_vonmises	-0.03110903396487187	-1.7824163509162878	2.3586673992146605	2.773394932070637	0.21432491752058055	3.937728849346977	0.8116578059523225	-0.5109505267273479	1.3226083326796703	82.62107453338172
11	4.0	wm	227	diff_vonmises	-0.18711507749427347	-10.720904223685205	0.6840300357825799	209.6274421339518	0.6713056859100306	211.47067839978294	-0.0065962754581789795	-0.4100968687892035	0.4035005933310245	97.51249781059768
12	5.0	ltm	227	diff_vonmises	-0.12704724355118938	-7.2792708542538165	0.8166595558860962	141.85071330742792	0.8011959745082756	142.7379619855823	0.1492484200062023	-0.2552966816094173	0.40454510161561963	95.05860620512397
13	5.0	perception	227	diff_vonmises	-0.07801408076301225	-4.469877570313347	1.0158516799106028	229.44925572434946	0.9940284440429009	230.19928451829517	0.691315998662887	-0.41988724488882667	1.1112032435517136	90.50249242865144
14	5.0	wm	227	diff_vonmises	0.04765106868190661	2.7302051247612638	0.33791641939196215	137.57739898082144	0.3238889024289793	138.3451700221447	0.18362701418811156	-0.33585643198018467	0.5194834461682962	141.1196085564976
15	6.0	ltm	227	diff_vonmises	-0.5160416718289128	-29.567009848671773	0.614818946360528	166.05854092743468	0.6035904943845286	166.81970249434988	0.15055351025326758	-0.2510551363351379	0.40160864658840545	110.77335107644441
16	6.0	perception	227	diff_vonmises	0.00241531489677583	0.13838734978033113	0.4668252630121882	221.05483244026334	0.45436368609364036	221.7196794066882	0.35308394822668276	-0.3852390655721081	0.7383230137987908	128.58249778293356
17	6.0	wm	227	diff_vonmises	0.11229429434363807	6.4339891292902545	0.34718992461495624	4.693337431498839	7.080994661014564e-18	5.5187083716045136	0.14753477240703494	-0.36601915333682566	0.5135539257438606	160.07627680199494
18	7.0	ltm	227	diff_vonmises	-0.3676360429665094	-21.063993658871183	2.2660043674591552	0.47755971592046653	2.868493258051401e-15	1.808849775053174	-0.022336462722350126	-0.28503030135314744	0.2626938386307973	91.21280882904695
19	7.0	perception	227	diff_vonmises	-0.04243992115420074	-2.431628365003684	0.6535599638301514	179.96328986607364	0.6317518443503387	181.39335466232896	0.35712582994183606	-0.4988729331540682	0.8559987630959043	108.7061641720369
20	7.0	wm	227	diff_vonmises	0.15723367446552716	9.008825944208606	0.6643068645255783	114.94636034564769	0.6458025634067285	116.29864599415704	0.033547309778882095	-0.31951342644730296	0.35306073622618506	101.04232724730224
0	1.0	ltm	228	diff_vonmises	-0.20634278770627082	-11.822570868533246	0.0066556777576752685	165.88482608246733	3.009988392180415e-17	167.34254560048436	-0.05599323858739069	-0.40742854527248085	0.35143530668509015	178.41149080173363
1	1.0	perception	228	diff_vonmises	-0.11554844544787478	-6.620438253460854	10.883545089247734	0.8892075963561719	0.19388339805701255	2.485359615953104	0.6802781724895781	-0.4273764762890975	1.1076546487786756	40.16884425843705
2	1.0	wm	228	diff_vonmises	-0.0848062107587773	-4.859037952974894	2.911954950567735	0.6214263056159488	0.06199840056680429	1.7729073052353128	0.10020844510039151	-0.268272319496956	0.3684807645973475	77.18188975932537
3	2.0	ltm	228	diff_vonmises	0.0022329771502205367	0.12794016645678677	3.928709568378477	0.40280575116811446	2.5102846672324283e-14	1.292414963642741	0.10097391321634902	-0.2055755866404346	0.3065494998567836	69.09641406455648
4	2.0	perception	228	diff_vonmises	-0.003114445548970389	-0.17844458547930805	5.7088223509993705	1.3948543312873225	0.38480283647201496	2.1369768966961926	0.8158434297132059	-0.34414212694008256	1.1599855566532884	53.91485285023924
5	2.0	wm	228	diff_vonmises	0.46290912915929394	26.522739398903852	2.9991078234727473	0.5522651848385017	2.8760633323418123e-20	1.06317164550691	0.1924023386898122	-0.16831089008987074	0.3607132287796829	79.2923209891128
6	3.0	ltm	228	diff_vonmises	-0.2000086379637434	-11.45965082148255	2.0782696107441683	1.2135691171034446	0.6787756917455382	1.7857526106516217	0.13977135120434836	-0.17397711557454376	0.3137484667788921	74.59132460735802
7	3.0	perception	228	diff_vonmises	-0.07757361284203672	-4.444640617430547	3.8111823414900097	1.9101715457482635	0.1784664325864085	2.42494420856166	0.9724110532032966	-0.35490753972151945	1.327318592924816	67.46887984938888
8	3.0	wm	228	diff_vonmises	0.1457802131103326	8.352590947739769	0.7392655409943242	106.4027095441798	0.7251909843681533	106.27258343670846	0.3234106419093301	-0.1264094513816234	0.4498200932909535	110.84145132925136
9	4.0	ltm	228	diff_vonmises	-0.28352866478656935	-16.244995863249905	11.04990962274685	0.34414994819080585	0.05895416255313764	1.3642515479326707	0.220842563776807	-0.22174680239156003	0.442589366168367	40.368212248831014
10	4.0	perception	228	diff_vonmises	-0.10688190543434346	-6.123882087704258	1.9299049255871725	3.443353374198138	0.3727581884875739	4.6289908277904805	0.7050945286642978	-0.49659280659712046	1.2016873352614184	85.59499289716155
11	4.0	wm	228	diff_vonmises	-0.4937056377674238	-28.287249365888005	1.1180682818943426	161.17195658840132	1.1042515977821252	162.08947948730327	0.08481698159113193	-0.238649232167095	0.32346621375822693	78.74774359904025
12	5.0	ltm	228	diff_vonmises	-0.25991198093736506	-14.891859552595724	1.0144827691583795	139.01132758003524	1.0009000458741564	139.50561537020414	0.18795887526946586	-0.1769932113350361	0.36495208660450196	87.62518408132594
13	5.0	perception	228	diff_vonmises	-0.07146953936781152	-4.094902969519685	2.097752429005	2.322618378690623	0.20671081845069728	2.8091684216930526	0.6892546678523722	-0.34803554477006604	1.0372902126224384	88.070122848348
14	5.0	wm	228	diff_vonmises	-0.17059603861535472	-9.774433014310642	0.4833683196625977	101.97758014069798	0.4676229214148102	102.17284246713993	0.25190822638551325	-0.20342370833740375	0.455331934722917	128.36049135475278
15	6.0	ltm	228	diff_vonmises	-0.40988648723234594	-23.484765797856326	1.3759678721257096	1.0534432003181822	7.093400668539749e-12	1.8760901303799518	0.13454569643859027	-0.2709504675466124	0.40549616398520266	113.76009614975521
16	6.0	perception	228	diff_vonmises	0.0805109117437938	4.612935447669639	0.5382330123082771	164.7636982258567	0.5235934386173334	165.40690006407104	0.2913023849583709	-0.32137248751253544	0.6126748724709064	121.24264290085132
17	6.0	wm	228	diff_vonmises	0.2552435449309989	14.624377872504033	0.0002331182993133555	3815.440042911566	1.7315541830007268e-29	3816.122176864833	0.03300040424926465	-0.25011388655900646	0.2831142908082711	177.87098006992812
18	7.0	ltm	228	diff_vonmises	-0.08444521873264942	-4.83835463343989	0.9622828722273529	137.07248424467093	0.9432284672718384	138.23001269587593	0.11282466101490485	-0.2979392687087028	0.41076392972360765	85.53882474333065
19	7.0	perception	228	diff_vonmises	-0.2510770006504255	-14.385652470072806	0.7296577596944304	198.38857342242372	0.7096987552886508	199.42849872669692	0.45741655639081813	-0.43883860713706824	0.8962551635278864	104.66702328390807
20	7.0	wm	228	diff_vonmises	0.33984481109014164	19.47167336488587	1.1394647757276195	73.65212972823537	1.110313538779085	74.04851388464539	0.25703028239420433	-0.1779803609291255	0.43501064332332984	84.48024552555898
0	1.0	ltm	229	diff_vonmises	-0.01579596779837283	-0.9050422881713182	0.9522299172877002	1.096121312076701	2.5721067993871296e-30	3.6640790039121423	-0.21852522817207892	-0.528861465643564	0.31033623747148503	130.60155486534433
1	1.0	perception	229	diff_vonmises	-0.08874193020101888	-5.084538066362919	10.783259849785827	0.7129611185403406	0.06548403552047621	3.4199279192070975	0.34216896825716214	-0.5576881887459267	0.8998571570030889	40.726255370626745
2	1.0	wm	229	diff_vonmises	-0.020030790232394284	-1.1476797406280659	2.2150390825896262	1.094571645388053	0.16989521042340705	3.3889273861868165	-0.034223340308972006	-0.47559604812989603	0.441372707820924	80.67342192938804
3	2.0	ltm	229	diff_vonmises	0.13256563490239748	7.595451388379536	1.8518441637683365	0.5170525799508644	4.448298912497371e-37	1.7439713923063516	-0.022992513621477473	-0.2712904125501551	0.24829789892867765	100.55400689312967
4	2.0	perception	229	diff_vonmises	0.020245198569175175	1.1599644334180306	6.017024283017835	1.4835121141663594	0.4788244398132604	2.5347497260890615	0.8034033974712163	-0.4233957977141309	1.2267991951853472	51.72780836858669
5	2.0	wm	229	diff_vonmises	0.30218585610409987	17.313974183312528	3.039483751496388	0.7044947465826932	0.1814598004545938	1.5815441504311778	0.16551865600714444	-0.2288501672318048	0.39436882323894923	72.71165068931145
6	3.0	ltm	229	diff_vonmises	-0.2464499131785345	-14.120539886495594	1.2334555889733385	49.629298379829464	1.1960254571183158	50.38313790596561	0.05712449618371096	-0.19641306140404957	0.25353755758776053	74.67578543358593
7	3.0	perception	229	diff_vonmises	-0.05849153846281705	-3.35131829114654	5.177720907018913	1.568722160396022	0.20696249661898192	2.2201999956380707	0.955700814135592	-0.34384404647004063	1.2995448606056326	57.94799083161374
8	3.0	wm	229	diff_vonmises	0.18769482657789077	10.754121399353053	0.9059525393637133	55.195369586229546	0.8734311360875968	55.44309892440431	0.2633344795237633	-0.15898445913965276	0.4223189386634161	96.57426493309251
9	4.0	ltm	229	diff_vonmises	-0.32490632471657604	-18.61576114336687	2.8835199703656507	0.5359909579143843	1.9997414551636707e-18	2.0327081973063765	0.01965191616397277	-0.3224416451702381	0.34209356133421087	80.92198891542385
10	4.0	perception	229	diff_vonmises	-0.02157630048144092	-1.236230955092651	2.2224115411073524	2.9314554360618708	0.3600080955013304	4.188533751296304	0.6859674619111229	-0.489942347679906	1.175909809591029	80.92616226108765
11	4.0	wm	229	diff_vonmises	-0.19140456882125373	-10.966673972979144	0.7342507415268086	179.79373520490952	0.7224796540283926	181.2653127520892	-0.021251760712530654	-0.31913726921833785	0.2978855085058072	93.09773341969164
12	5.0	ltm	229	diff_vonmises	-0.20755659128566625	-11.892116690790477	0.9210713378092114	140.7699635048733	0.9029497228671598	141.92213870268614	0.11307747725791018	-0.29666858801202345	0.4097460652699336	87.54673614314227
13	5.0	perception	229	diff_vonmises	-0.06154921382457696	-3.52651018449652	0.9764272407311877	307.2946581760459	0.9603250035095536	308.46912695130817	0.54587375173152	-0.4602010040518252	1.0060747557833452	90.15109744827174
14	5.0	wm	229	diff_vonmises	-0.018752858345459044	-1.0744596370014872	0.5916580152376228	4.911943845811202	0.20749505009790273	5.612069006069017	0.209229144836927	-0.3209584354525226	0.5301875802894496	134.66263276922547
15	6.0	ltm	229	diff_vonmises	-0.49813525713085854	-28.54104786026224	0.6981909410945439	198.90482878868212	0.6848926076714653	200.1187837195685	0.16199380373988959	-0.3439831702400866	0.5059769739799762	102.2954362405374
16	6.0	perception	229	diff_vonmises	0.0027905461765450152	0.1598865184523981	0.7337753794029572	245.5159399645591	0.718378570876999	246.74903666495425	0.3659945650525316	-0.4363474188810166	0.8023419839335482	102.73762367883799
17	6.0	wm	229	diff_vonmises	0.14863903810283188	8.516389554176497	0.5111531508637998	3.120545590113621	4.774577900440556e-32	4.3272582899609136	0.08775016763210408	-0.4093537201613725	0.4971038877934766	151.18849342464978
18	7.0	ltm	229	diff_vonmises	-0.10706426284045205	-6.134330397437234	0.8703805326203087	114.82108531081066	0.8488583819101845	116.63742195822074	-0.09705254316785528	-0.3734558079807524	0.2764032648128971	82.31531834188894
19	7.0	perception	229	diff_vonmises	-0.1332477804231951	-7.634535447734994	1.3201370780527155	2.2632114131433196	3.118940721271434e-18	4.0438529855745795	0.2641938063734509	-0.5788322100890511	0.843026016462502	116.29901471628125
20	7.0	wm	229	diff_vonmises	0.3209136771575657	18.386999289152367	0.7907274169722742	86.11603067424177	0.7613660665972488	87.50205782761141	0.07219192360438242	-0.3357339163973272	0.4079258400017096	93.62243683669368
0	1.0	ltm	230	diff_vonmises	0.06946407908684679	3.9799985594392866	2.4581529077074378	0.5691718735347986	1.5837733543418612e-31	4.190108484833424	-0.3347432974097335	-0.6644432208705593	0.3296999234608258	87.72413413033951
1	1.0	perception	230	diff_vonmises	-0.029459872329995678	-1.6879263495029873	7.4964494313772025	1.0296737911692166	0.11419946152233747	4.630153459881314	0.2811569159184054	-0.756560523054049	1.0377174389724544	48.015448106274846
2	1.0	wm	230	diff_vonmises	-0.05876417131021787	-3.366939002659241	3.247077740739529	0.7011497784429302	0.06726048920840143	4.211998444928291	-0.23594633463939946	-0.6516186800768019	0.41567234543740245	70.78755908259402
3	2.0	ltm	230	diff_vonmises	0.04688257823671908	2.6861738656558884	1.9476378192020318	0.5853131765914515	4.5470406339272286e-18	2.457986376686553	-0.0940635951347436	-0.38515722371244476	0.29109362857770116	98.24272630547418
4	2.0	perception	230	diff_vonmises	-0.003917607398238141	-0.22446236970827263	6.353854284305569	1.506291911866888	0.29904078431560377	3.2130969137696797	0.807870317466953	-0.5315865830710932	1.3394569005380461	51.27741991326724
5	2.0	wm	230	diff_vonmises	0.15155764895022308	8.683613637773114	2.6037812803087785	1.0270591086938312	0.21494721912223202	2.709554256492254	0.0913509618730497	-0.38189449576998286	0.47324545764303255	75.37442919842621
6	3.0	ltm	230	diff_vonmises	-0.17827199178371875	-10.214232734597973	1.708756757885068	1.035919112950874	0.2304788484506088	2.2194109171008485	0.046754280712638596	-0.2735121326379447	0.3202664133505833	89.02787803844924
7	3.0	perception	230	diff_vonmises	-0.06534027882356604	-3.7437222087983617	3.3328115781217056	2.498239409087247	0.3966240760634811	3.433720912137983	0.9549303389429554	-0.4636413882492457	1.4185717271922011	68.43615064017771
8	3.0	wm	230	diff_vonmises	0.00019627067365673143	0.011245481242720219	0.9354709593486763	72.61340588459636	0.8985490194459499	73.37780996651297	0.263687655318563	-0.2676264392318526	0.5313140945504156	91.64880515262769
9	4.0	ltm	230	diff_vonmises	-0.18315811399997264	-10.49418691577443	2.3575535305508537	0.6164933340890614	2.2532717458372423e-21	3.033711895119295	-0.13188807904718924	-0.47968563438021955	0.3477975553330303	89.5509300459826
10	4.0	perception	230	diff_vonmises	-0.06523685868591207	-3.7377966713941273	2.337462162273698	2.7629808992395173	0.20933174991839207	4.347977441002602	0.7211109608403548	-0.570249424130891	1.2913603849712456	82.46524846055965
11	4.0	wm	230	diff_vonmises	-0.1890241703144986	-10.830287184982833	0.5995668322247747	224.34781746916389	0.587672428486699	226.78646396150936	-0.13716576461270336	-0.4930017491051686	0.35583598449246523	99.68699509832723
12	5.0	ltm	230	diff_vonmises	-0.18040622456524055	-10.336515265477638	0.6075217020263974	145.32028718936877	0.5910898559803572	146.72841280133034	0.08035037061565475	-0.3624674401193957	0.44281781073505044	107.57934709386438
13	5.0	perception	230	diff_vonmises	-0.0769159695950327	-4.406960434951937	1.4402071380140429	7.120892524357373	0.6557792743470288	8.497569385716137	0.6629106862115508	-0.5377381257699609	1.2006488119815117	87.41003205583644
14	5.0	wm	230	diff_vonmises	-0.1221261200611511	-6.9973112478119335	0.3669182034749589	195.45254240309814	0.355862569090828	196.7467651197012	0.10798847130702427	-0.4130564036498683	0.5210448749568926	135.68623226976516
15	6.0	ltm	230	diff_vonmises	-0.4557180772132569	-26.110722472136594	0.5791016157168394	200.4431951841319	0.5683163951166846	201.85642054074816	0.04121668106620291	-0.3476553068372361	0.388871987903439	108.71167730384833
16	6.0	perception	230	diff_vonmises	0.10494814761692509	6.013085926165756	0.24280462652935042	236.0578582629896	0.2311388046622397	237.32155630415508	0.2332400169735962	-0.538636318501144	0.7718763354747402	151.6903400459398
17	6.0	wm	230	diff_vonmises	0.10367353714773764	5.940056125758125	0.6423691251422048	2.391940194916451	2.0898695315444373e-13	3.8935090843010682	0.03474065615938371	-0.4385802685699761	0.4733209247293598	144.74368503657132
18	7.0	ltm	230	diff_vonmises	-0.5317018104334458	-30.464269697301404	1.824640531541222	0.7303737174823993	2.876931664977242e-18	2.1981000171116496	0.006533558487529345	-0.34056819940280425	0.3471017578903336	100.6969791535535
19	7.0	perception	230	diff_vonmises	-0.03819014467500777	-2.18813410887196	0.5622679649881295	342.7913806994949	0.5511462985678073	344.66234222244145	0.23857305561045905	-0.5679520892420342	0.8065251448524933	114.43435260829413
20	7.0	wm	230	diff_vonmises	0.1828305857992757	10.47542093220298	0.7352322498896544	146.06722610281915	0.7167247636277895	147.79260233538815	0.019261576533807556	-0.3919013735276753	0.41116295006148285	94.92390797637998
0	1.0	ltm	231	diff_vonmises	-0.14772844017638748	-8.46421613615787	1.0526807044194004	1.1670709102719006	1.9386510331151324e-21	2.952504789926745	-0.05951703509319706	-0.4199162587640104	0.36039922367081334	126.2724186136271
1	1.0	perception	231	diff_vonmises	-0.04761605867054427	-2.728199198869496	10.441988923584617	0.8332480585486864	2.300852303580559e-17	2.8720746100275494	0.603485270736474	-0.45710487021126783	1.0605901409477418	41.99510915925106
2	1.0	wm	231	diff_vonmises	-0.05284181000204661	-3.027612694949451	3.6579745947131808	0.5208432963518478	3.400918028546167e-14	2.257896084660947	0.021916684589228907	-0.359101833973077	0.3810185185623059	71.67431893305681
3	2.0	ltm	231	diff_vonmises	0.13526320568686304	7.7500108092672075	2.588147256213303	0.4300492264327321	0.028633975930364496	1.1908616242608563	0.06364929526389249	-0.18278488353927058	0.24643417880316307	83.5205029152913
4	2.0	perception	231	diff_vonmises	0.02109931769271471	1.208901854398259	5.643525727000305	1.6735203321556675	0.5392747734543616	2.0994447211596396	1.013901511248788	-0.33642298450963815	1.350324495758426	53.70388641586251
5	2.0	wm	231	diff_vonmises	0.04774922103978121	2.7358288406167355	1.8419075111009149	2.4318338342052854	0.854314114727445	3.111499320887831	0.21638578829279798	-0.22669462781863084	0.4430804161114288	75.43912428065121
6	3.0	ltm	231	diff_vonmises	-0.2187051690364728	-12.530883143485145	1.504592061991946	112.24487709764868	1.488597074434846	112.76690100602251	0.08919042978229896	-0.16117625022196158	0.25036668000426054	68.75813749650379
7	3.0	perception	231	diff_vonmises	-0.019246795883329067	-1.1027601732645227	5.011125806708017	1.8379853623289688	0.32929575272266026	1.9658012736266166	1.1723333184106246	-0.29748362931099115	1.4698169477216156	58.440751059523336
8	3.0	wm	231	diff_vonmises	0.0602667862536047	3.4530324971485955	2.1674804881968095	0.9739544421134864	0.18098899404659338	1.315632786267357	0.2784499022432033	-0.16989541042156966	0.44834531266477295	86.91802224197218
9	4.0	ltm	231	diff_vonmises	-0.5267475778113013	-30.180413077326495	0.8625251573384226	1.4871970739018658	9.38587227364108e-14	2.5384099346144726	0.06532664977340347	-0.32038253233970165	0.3857091821131051	131.84181893516734
10	4.0	perception	231	diff_vonmises	-0.020320673943073433	-1.1642888537995726	2.6934882536739764	2.6341344553635273	0.15120899988828662	3.3027196798651444	1.0135487436286574	-0.4560989048048092	1.4696476484334666	79.83541424287716
11	4.0	wm	231	diff_vonmises	-0.14133488689730062	-8.097892517174165	0.7280330457661374	202.296276443198	0.7153978009683055	203.47731078570132	0.1480572937593294	-0.3265251809998482	0.4745824747591776	99.81114817170248
12	5.0	ltm	231	diff_vonmises	0.018964014242285866	1.0865579787089639	0.9994319984778709	108.50570808210891	0.9812622532918924	109.08875791134182	0.17609766544530459	-0.19252288787710192	0.3686205533224065	87.59403785948251
13	5.0	perception	231	diff_vonmises	-0.04614955525542529	-2.6441747425416566	0.9480279151990874	252.35624102629413	0.9312262777008813	252.69239742662006	0.6952283116928442	-0.34417593434931604	1.0394042460421602	95.25017039116088
14	5.0	wm	231	diff_vonmises	0.21870981462300604	12.531149315986863	0.3071692579208571	145.77803717813737	0.29447231722675093	146.34066174385342	0.2135878800615103	-0.3101919183731603	0.5237797984346706	144.51625975840432
15	6.0	ltm	231	diff_vonmises	-0.5592200483236563	-32.040948588047456	0.6351202890358598	172.08019327085287	0.6240946984244715	172.4819956186966	0.2515135378496183	-0.2210417549552801	0.4725552928048984	112.74694330508413
16	6.0	perception	231	diff_vonmises	-0.06430102063533422	-3.6841771007882658	0.7537442416094181	243.02571896638617	0.7409441564200867	243.24640228148974	0.5292749952355535	-0.29172278069360047	0.820997775929154	106.76702194635894
17	6.0	wm	231	diff_vonmises	0.05259962485978839	3.013736508437279	0.26261874463916796	7.853015097792417	1.4674590802390803e-10	8.210409916917309	0.29082206820020096	-0.3619128062241638	0.6527348744243647	164.9759807688485
18	7.0	ltm	231	diff_vonmises	0.06897643319855715	3.952058508143382	1.123520764189118	110.44652402630817	1.1034028606106043	111.64057570059872	-0.015938022923450035	-0.2738876740279057	0.25794965110445567	74.65085450903732
19	7.0	perception	231	diff_vonmises	0.005925980529992447	0.33953367384526595	1.569060707496035	2.064603114587312	7.352999539826742e-15	3.0779862710523664	0.42914862166763335	-0.4500217486995502	0.8791703703671836	108.354909687899
20	7.0	wm	231	diff_vonmises	0.10061864362355291	5.765023619960494	0.4921875753459523	107.59136063362713	0.47819772532752114	108.6215232960426	0.03066677313552546	-0.26802348253085384	0.2986902556663793	118.83410826192653
0	1.0	ltm	232	diff_vonmises	0.05982165606733431	3.4275284161414303	6.83617876899646	0.2674496425135539	5.179409682944658e-35	3.6006812807119024	-0.2996434652546363	-0.573065908699384	0.2734224434447477	52.06038395968653
1	1.0	perception	232	diff_vonmises	-0.09662517149364218	-5.5362145213134895	11.002426062171802	0.7354173288596902	0.13801969060763	4.029063944181488	0.22862453661852944	-0.6819486558726983	0.9105731924912277	39.712929256010995
2	1.0	wm	232	diff_vonmises	-0.0870687918818433	-4.988674302132546	2.7283655889794054	0.7876383017269202	0.11371120697178554	3.6839886490170137	-0.1663272252722911	-0.5535358306737893	0.3872086054014982	74.53322783092321
3	2.0	ltm	232	diff_vonmises	-0.06864132234749358	-3.9328580707084027	1.2440308345905062	0.8203610349354223	2.3432683390237576e-33	2.6689839132616493	-0.1071029185475591	-0.3983920744019629	0.2912891558544038	119.0539217989948
4	2.0	perception	232	diff_vonmises	-0.006242917082620942	-0.35769280068430465	7.268532081165721	1.3320053700637942	0.35665630817074995	3.1548028105389427	0.7110490666164971	-0.5454832651016989	1.256532331718196	47.65061604339053
5	2.0	wm	232	diff_vonmises	0.27117435995391775	15.537146337520893	3.6079552539598607	0.5878335141143373	0.07529508900337609	2.0921143227350805	0.06849600895565605	-0.3220277428546356	0.39052375181029164	68.84488100405792
6	3.0	ltm	232	diff_vonmises	-0.2979229974633457	-17.06973037453644	3.3490457355948107	0.5271137892994087	0.0915865551112066	1.733311372464322	0.06569242365692746	-0.26373228986464003	0.3294247135215675	70.86343034805303
7	3.0	perception	232	diff_vonmises	-0.08033408621625146	-4.602804091231289	3.9122862126603692	2.1992167120342394	0.42909206501781794	3.3804601411091357	0.8808064967760296	-0.4881902854124871	1.3689967821885167	63.07248519965114
8	3.0	wm	232	diff_vonmises	0.0994249422853647	5.696629571283191	1.0836049859883132	109.68156675664721	1.06038348222913	110.32644129685472	0.2506756733204938	-0.231619845491414	0.4822955188119078	84.93330645230066
9	4.0	ltm	232	diff_vonmises	-0.21673053400668763	-12.417744890199765	0.91070693077755	9.615659514654592	0.6558916324364821	11.887715313837766	-0.16013916682580032	-0.44883853209956004	0.2886993652737597	84.8038751060152
10	4.0	perception	232	diff_vonmises	-0.08886152943605605	-5.091390597763541	1.8026111757416938	4.385152627692301	0.5504269410657628	6.233025806986439	0.5271393279004291	-0.5809173305799565	1.1080566584803857	81.65832515210727
11	4.0	wm	232	diff_vonmises	-0.25318879772324526	-14.50664952953346	0.6618049712680184	151.1348833589925	0.6488317664242421	153.23803000718576	-0.2052066248109199	-0.39157062656828856	0.18636400175736867	88.25973824866868
12	5.0	ltm	232	diff_vonmises	-0.21148308278589717	-12.1170880820477	1.9631015851319877	1.2769090693568037	0.20263401083426089	2.9607923563025524	0.0801627947872029	-0.388494924816348	0.4686577196035509	85.38541047453887
13	5.0	perception	232	diff_vonmises	-0.07945131962788135	-4.55222529142252	1.0079809173892642	284.3319149477915	0.9872778900558494	286.1450878658175	0.49851007708004147	-0.5805886563828189	1.0790987334628603	86.92663948815826
14	5.0	wm	232	diff_vonmises	-0.17051669469736394	-9.769886942679738	0.4857077157948376	175.8950343315712	0.4729919460539247	177.06886019834	0.132924134117836	-0.3669791950039283	0.4999033291217643	122.44837939801086
15	6.0	ltm	232	diff_vonmises	-0.38682726676957724	-22.163569786477975	0.7692371133859185	236.42389110484288	0.7566656522930818	238.24936757994487	0.0283191747335394	-0.41636810958118886	0.44468728431472826	92.69851138392835
16	6.0	perception	232	diff_vonmises	0.14746121370031948	8.44890518690502	1.028062646515847	2.338398464467534	2.1436166419756733e-13	4.24200493453658	0.1362919324317664	-0.571308285248884	0.7076002176806504	127.22967561783311
17	6.0	wm	232	diff_vonmises	0.18844020520735508	10.796828448960603	0.8543404672663829	1.3787098280254142	3.1852114191873284e-23	3.2591754215863418	-0.08577614770265685	-0.4403060548065749	0.3545299071039181	134.49452311994293
18	7.0	ltm	232	diff_vonmises	-0.3996121990267651	-22.8960924461755	0.8604345844705482	149.55206950594985	0.8419243246399561	151.442719492381	-0.06101003687530948	-0.4004699645192282	0.33945992764391875	84.50813965873103
19	7.0	perception	232	diff_vonmises	-0.21995671281684184	-12.602591319976138	0.4244220896240508	253.20857779820466	0.4118958186481333	255.43644123383083	0.07081505171669278	-0.6085592885074043	0.679374340224097	127.05372418074346
20	7.0	wm	232	diff_vonmises	0.42337462818492994	24.257579347916955	0.9526555492565562	77.08509136897852	0.9131103526244643	78.87252270346282	-0.0017901216666871278	-0.40068146858136444	0.3988913469146773	82.53585602542037
0	1.0	ltm	233	diff_vonmises	-0.0007570850296728451	-0.04337777693279072	7.500948141308728	0.19076946800103664	0.05740103799695806	3.6544873691813797	-0.41076142381102826	-0.5932606398466154	0.1824992160355871	46.76459758252449
1	1.0	perception	233	diff_vonmises	-0.05975276603551537	-3.4235813080676825	15.172477275578945	0.5636666835285764	0.08602173264299248	4.170303996889308	0.14610290704257867	-0.6963125747053039	0.8424154817478826	34.19978843648107
2	1.0	wm	233	diff_vonmises	-0.013320242189269846	-0.763193659537262	3.477037426473	0.49632454781929064	0.026350502386652666	3.626261528909138	-0.2392105130946781	-0.5686781759510592	0.32946766285638107	70.8395785924537
3	2.0	ltm	233	diff_vonmises	0.10114333564785703	5.795086258497296	0.020774584625907134	33.75559707252395	4.084416085429066e-13	35.21901446444259	-0.12072647633043676	-0.3439345369540252	0.22320806062358844	178.4160104095672
4	2.0	perception	233	diff_vonmises	-0.009289855193134751	-0.5322694948543115	8.436113874286535	1.3795528829527306	0.4835925946931674	3.0263718664734847	0.8355344465518124	-0.5578826370421067	1.3934170835939192	44.0256442113089
5	2.0	wm	233	diff_vonmises	0.030113622209584086	1.7253834584605887	4.170255323884898	0.6581161230648837	0.25182411185546794	2.103186555232297	0.0937458187501728	-0.32826885319019666	0.42201467194036946	60.716913203949645
6	3.0	ltm	233	diff_vonmises	-0.27521030213334435	-15.768388790760868	3.0625911069480365	0.6225621991000893	0.629885386019425	1.3384033406560583	0.04956096098567275	-0.18521646914270634	0.2347774301283791	62.899209283480985
7	3.0	perception	233	diff_vonmises	-0.041358743084240944	-2.3696814246928875	4.404250736822934	2.498278614693425	0.9550083007041936	3.11734776018759	0.9850432280808004	-0.4428928969109446	1.4279361249917448	56.48266072231149
8	3.0	wm	233	diff_vonmises	0.09434154763475319	5.405372512203772	1.6386294266168466	17.42731055052848	1.4783481280235273	18.052174506056872	0.21425177158991016	-0.2281245070303175	0.44237627862022766	69.31089932351716
9	4.0	ltm	233	diff_vonmises	-0.20771884678470087	-11.90141324608795	0.6000505624866095	109.41229577455925	0.5837336950301242	111.27628764672743	-0.15163499707338346	-0.3568471726234961	0.20521217555011262	96.17383834230083
10	4.0	perception	233	diff_vonmises	-0.05835442031337608	-3.343461999888928	2.8713952898879485	2.5252772812589304	0.443848881034128	3.907248980276305	0.689674625366053	-0.500988979135729	1.190663604501782	71.11805919462904
11	4.0	wm	233	diff_vonmises	0.26679000956401955	15.285941564273188	8.789141923580456	0.23010098143399804	1.1539094298999309e-23	2.039626610848885	-0.05659203848891681	-0.3246166509536746	0.2680246124647578	45.821857636524584
12	5.0	ltm	233	diff_vonmises	0.1108463715153921	6.351029262171115	0.9049948365255631	148.75431526279883	0.8825144578807605	150.9151440955654	-0.053083489767914216	-0.4657271764813373	0.4126436867134231	82.93823618376405
13	5.0	perception	233	diff_vonmises	-0.052280465428595185	-2.9954500200381124	0.9622639719892059	401.18166479575365	0.9481112406120024	403.3350619516864	0.3632101193996107	-0.6084996829577918	0.9717098023574025	87.16109498616109
14	5.0	wm	233	diff_vonmises	0.02888619286259454	1.655056937227589	1.6869791229778506	1.0756231832730077	1.1040053244849456e-24	2.7680107129563853	0.059833659668394545	-0.42340175969813665	0.4832354193665312	104.95207490702475
15	6.0	ltm	233	diff_vonmises	-0.4187986784041345	-23.99539673821356	0.843925948100748	249.9348657587305	0.8289601507235529	251.99419616546706	0.07728619113350987	-0.4854183196987094	0.5627045108322193	89.37136328257081
16	6.0	perception	233	diff_vonmises	0.10915597889983908	6.254176899579846	2.0539774187453195	1.7381194902441073	4.288406125786011e-13	3.972380948769689	0.2789608810615639	-0.6172423336027439	0.8962032146643079	95.77597384880053
17	6.0	wm	233	diff_vonmises	0.11286691134935527	6.4667976669952685	1.1119969998126267	1.8993445735541645	1.4498166554807998e-15	4.145883680361113	0.029180999050229528	-0.5852969428195659	0.6144779418697954	123.95461158013634
18	7.0	ltm	233	diff_vonmises	-0.26223777761832384	-15.025117886420198	1.155104066704277	186.41904067826704	1.1399035857478892	188.38832691282943	-0.19733568733229845	-0.418337063793917	0.22100137646161855	67.11578896646117
19	7.0	perception	233	diff_vonmises	-0.07476665839351798	-4.283813974244952	0.3608346527476194	4.130029234474866	3.0224610482426195e-17	6.145594036899334	-0.06513111738851407	-0.5344484701290446	0.46931735274053055	159.5476118387118
20	7.0	wm	233	diff_vonmises	0.6924280278895178	39.67320361463623	6.044582073705939	0.3275146687081623	2.6764101458345654e-26	2.051243230998535	-0.012505943960891774	-0.32646373487148095	0.3139577909105892	55.42150771098679
0	1.0	ltm	234	diff_vonmises	-0.3467435308521617	-19.866940891293115	0.0007818283511137274	993.1165628594922	2.1476420102427838e-27	995.3463986185253	-0.2312902415141025	-0.4784402183302632	0.2471499768161607	176.547382480785
1	1.0	perception	234	diff_vonmises	-0.04731095291409265	-2.7107179267196724	8.973056454625253	1.1812743162207062	0.13950435429889235	3.5696305532999855	0.7407330819432993	-0.5920220301029308	1.3327551120462302	44.28321212668047
2	1.0	wm	234	diff_vonmises	-0.07623375372682777	-4.367872344986941	7.180121212380518	0.2822733232647416	8.815248671446297e-18	2.447924501423489	-0.09353011831234692	-0.38959911294716576	0.29606899463481884	50.773025168714696
3	2.0	ltm	234	diff_vonmises	-0.12870689971012236	-7.37436214760357	3.896871876696378	0.3677951766446616	7.904961332934672e-11	1.6593943443768358	0.01464768277794748	-0.2639858635104913	0.2786335462884388	69.38760812090317
4	2.0	perception	234	diff_vonmises	-0.03536945963289441	-2.0265207606231836	7.9344203820557775	1.41174871677564	0.20117112221862404	2.623016386882093	1.0544716280303694	-0.43470759429531786	1.4891792223256872	47.043469448171095
5	2.0	wm	234	diff_vonmises	0.004353470429678253	0.24943548185556894	2.1392814949362715	0.8078427055944953	0.09319862791512568	2.247875297563748	0.042142402732315454	-0.3234241996779329	0.36556660241024835	86.95700727634718
6	3.0	ltm	234	diff_vonmises	-0.12211441729475818	-6.996640728688991	1.794086065461213	0.8884447772925251	0.3734982632803764	1.5515396213962234	0.08253839835366422	-0.17171634584918186	0.2542547442028461	84.18337629555839
7	3.0	perception	234	diff_vonmises	-0.0567958067005301	-3.2541600179812162	2.709384775939561	3.8429322401912196	0.8715927870348144	4.082462545121385	1.0782910493399516	-0.3850162374945983	1.4633072868345498	70.0756945234817
8	3.0	wm	234	diff_vonmises	-0.09562670530095473	-5.479006622486002	1.2515507352928952	157.6129913340794	1.2351423728992925	158.1125484594762	0.28186030125273476	-0.20915829225020488	0.49101859350293964	79.78137029542262
9	4.0	ltm	234	diff_vonmises	-0.18303895566448847	-10.487359646057381	5.23694543594185	0.432580580474654	0.2331314432797545	2.131192037285873	-0.0380910294315312	-0.3507305741792232	0.312639544747692	53.9488898953428
10	4.0	perception	234	diff_vonmises	-0.12187941609336733	-6.983176151668792	3.2729179439467595	1.9863931197327802	1.536423244057742e-17	2.96930509541492	0.8941405608605535	-0.4706168591235204	1.364757419984074	75.87855279998732
11	4.0	wm	234	diff_vonmises	-0.3651180068850431	-20.919720818741503	0.801498148002482	170.5285293669854	0.7867033009519132	172.29193349649935	-0.04915820988307473	-0.37395658271124077	0.32479837282816604	87.97171449429398
12	5.0	ltm	234	diff_vonmises	-0.05078582693314987	-2.9098135423513125	1.3070244609925181	1.843328497570522	0.4595795975575557	2.584759275509346	0.11671381929640245	-0.2070763104448814	0.32379012974128385	92.39323305008034
13	5.0	perception	234	diff_vonmises	-0.09557901293457757	-5.4762740511776	2.9230090546007164	1.9613833030804493	0.03051172430757845	2.445455378308041	0.8643851391076205	-0.3737733865289151	1.2381585256365355	79.53464886249148
14	5.0	wm	234	diff_vonmises	-0.09128073542335563	-5.230000890608587	0.4688040826939562	49.36233272304543	0.4349413845483755	50.25040762124896	0.10147913681857013	-0.2837773480564545	0.3852564848750246	125.66890718250966
15	6.0	ltm	234	diff_vonmises	-0.34540428339156104	-19.790207664077084	0.37174535122721236	87.39612048649819	0.3598163716445306	88.02090860066762	0.05177143084408087	-0.19856552075161105	0.2503369515956919	134.31422325509007
16	6.0	perception	234	diff_vonmises	0.14593190101199444	8.361282024308188	0.00023517167766644908	7735.335370860897	4.475937455023202e-31	7735.734619789361	0.2259926405895385	-0.35304348037470845	0.579036120964247	179.22478151648338
17	6.0	wm	234	diff_vonmises	0.08487202573473819	4.862808873326208	0.04436030777703575	22.303284752847073	2.5164264698083637e-08	23.00774671967275	0.04706562329120523	-0.26781128007015065	0.3148769033613559	177.17270469088302
18	7.0	ltm	234	diff_vonmises	-0.4500494576301899	-25.785934494361644	1.2906718800175931	0.7174456770928382	9.048829279394417e-12	1.3132249190596774	0.07493336805342043	-0.18751950126092254	0.262452869314343	116.4076714118046
19	7.0	perception	234	diff_vonmises	-0.08914245607249838	-5.107486508384493	0.738096106345373	221.30009339323644	0.7246677960925328	222.1739130266524	0.3142856649192822	-0.33360846526928256	0.6478941301885648	103.07988961483771
20	7.0	wm	234	diff_vonmises	0.18715051867338028	10.722934853668992	0.7379853105659968	66.89665731969447	0.7150299507338459	67.66846372681754	0.07114151671707702	-0.2017815593550507	0.27292307607212773	98.459285608686
0	1.0	ltm	235	diff_vonmises	-0.1168614384994678	-6.695667213847137	0.0002408088492567787	3543.7799810348383	7.379111225244068e-30	3546.1769352571255	-0.24566222987016317	-0.5172956435736751	0.2716334137035119	179.5963106837268
1	1.0	perception	235	diff_vonmises	-0.026786738086177337	-1.5347670392603014	8.443424747050743	1.2214801466839562	0.141367130436369	3.783758788916654	0.703176812942641	-0.6254360675322128	1.3286128804748538	45.55732272437976
2	1.0	wm	235	diff_vonmises	0.018209549727747097	1.043330346233506	4.479793898842251	0.3808272427341357	6.47047318617332e-14	2.7023950688198943	-0.11874911398979282	-0.4300595250042364	0.31131041101444357	64.59458554795842
3	2.0	ltm	235	diff_vonmises	-0.06318578879783743	-3.62027902332108	3.5360951111208707	0.31684484969008386	3.8327554458527754e-12	1.534395369717174	-0.016597676026483044	-0.24401348049384267	0.22741580446735962	72.93541153466992
4	2.0	perception	235	diff_vonmises	-0.031138211515294195	-1.7840881014120171	8.219681619331517	1.3919404166029672	0.22381081562096863	2.453075346626053	1.0839641750691964	-0.4103882483204835	1.4943524233896799	46.19509216546237
5	2.0	wm	235	diff_vonmises	0.05524898337141665	3.16553356957064	2.377892619207006	0.8634805484735296	0.1735163653098664	2.13942761315695	0.09210024776231734	-0.29837730121934364	0.390477548981661	80.12212464878468
6	3.0	ltm	235	diff_vonmises	-0.165472730593259	-9.48088908749904	1.6761759832622927	0.7019755282147566	0.443035477257494	1.1533243166863194	0.05292860276855549	-0.11654017407687406	0.16946877684542955	84.17047370390466
7	3.0	perception	235	diff_vonmises	-0.05592320632144374	-3.204163699058052	3.4885697178687938	2.3960973438209687	0.6387485369798993	2.4307701119333416	1.045098474513934	-0.2996213492459206	1.3447198237598545	66.14253783179862
8	3.0	wm	235	diff_vonmises	-0.07030534095245229	-4.028199313803784	1.2883676368716162	118.5650407855513	1.2706987033458959	118.87755281774805	0.25958552691339065	-0.1588263373423615	0.41841186425575216	79.68657505483651
9	4.0	ltm	235	diff_vonmises	-0.1699756686575018	-9.738888433988961	5.505022681924749	0.3420700254069229	0.11997734029764696	1.8029531621974546	-0.01021302973458782	-0.2897799074562492	0.2795668777216614	54.879430578822706
10	4.0	perception	235	diff_vonmises	-0.09478868883280102	-5.430991815698336	3.5616712397273522	1.866125499505891	2.7270023427699856e-16	2.595949882569295	0.9327346600510902	-0.41207315598826105	1.3448078160393513	72.66741513437455
11	4.0	wm	235	diff_vonmises	-0.2545705312894049	-14.585817031285966	0.7405426751866899	175.5938675568162	0.7275467534211408	177.12543312541467	-0.008403674613866485	-0.3374151460644512	0.32901147145058474	93.33649808501065
12	5.0	ltm	235	diff_vonmises	-0.032782422325922454	-1.8782944414908003	0.9335056522044674	5.089904361984788	0.6212655572773995	5.98706788691852	0.061055861739392814	-0.2230164356104295	0.2840722973498223	94.52969295211986
13	5.0	perception	235	diff_vonmises	-0.08244484361500364	-4.723741581755801	2.860628900495216	1.9584614153086366	0.058839436059533415	2.5790106372111388	0.8132544541682445	-0.3840485047659964	1.197302958934241	79.56716533154065
14	5.0	wm	235	diff_vonmises	-0.059965064301212324	-3.435745102690065	0.41904407342796424	63.73296927973083	0.3928083145294713	64.69995598664461	0.08772974473967743	-0.3041171218320713	0.3918468665717487	130.54354029231914
15	6.0	ltm	235	diff_vonmises	-0.39152181933930463	-22.43254783542565	0.3495240377292954	113.45908843221464	0.33802313526896144	114.23312817525013	0.06832028290632763	-0.25263026083930384	0.3209505437456315	136.66614901351923
16	6.0	perception	235	diff_vonmises	0.21216975487639134	12.15643149474244	0.02349269300091363	93.40786129303379	1.3139475285793978e-12	93.878430450355	0.2763901978998238	-0.4220749930929486	0.6984651909927724	177.18522733769805
17	6.0	wm	235	diff_vonmises	0.06560256171504933	3.758749911518842	0.1719758292283563	33.45829311035616	0.1300706261219155	34.30549096914875	0.08569107454957159	-0.3230281588648216	0.4087192334143932	161.9046957919236
18	7.0	ltm	235	diff_vonmises	-0.4228822684620309	-24.22936921379261	1.0243440727126316	0.8282537012429306	1.27148650964085e-16	1.4986159326490274	0.048318679647212176	-0.20153791723864561	0.2498565968858578	126.23716250330887
19	7.0	perception	235	diff_vonmises	-0.06148122652119565	-3.5226147989522953	0.7186167899381878	210.7403178082096	0.7046524233867066	211.62675723755666	0.308116394002667	-0.33733485985346334	0.6454512538561303	104.4062986962928
20	7.0	wm	235	diff_vonmises	0.170667714710334	9.778539752044933	0.5985799292983437	64.76671927112076	0.5751604169916719	65.55152983761977	0.08197507125779424	-0.223228791006302	0.30520386226409624	110.60642290761788
0	1.0	ltm	236	diff_vonmises	0.00925474141788415	0.5302576237296811	6.516610046092708	0.28707427707986677	1.977907964021249e-24	3.5204598574657866	-0.2740724134762817	-0.5602979621718299	0.2862255486955482	53.34393472233489
1	1.0	perception	236	diff_vonmises	-0.10272818522113618	-5.885891450209301	12.089856741531639	0.6301810495069798	0.0660895861347485	3.881981636684897	0.20540266621615855	-0.636265976125626	0.8416686423417845	38.39818596387292
2	1.0	wm	236	diff_vonmises	-0.09440656158555451	-5.4090975371941585	2.701330979556644	0.87506297772032	0.14637226852412208	3.7645026769113863	-0.15032806748575755	-0.5599607984641576	0.40963273097840003	73.62123401495373
3	2.0	ltm	236	diff_vonmises	0.00567458725824223	0.32512990037599315	1.7976343891947828	0.5998920933408323	2.0053114559586786e-32	2.2535802476457905	-0.0685960280494552	-0.3507045292819293	0.2821085012324741	101.98033327467022
4	2.0	perception	236	diff_vonmises	0.015838625895762678	0.9074864171138144	6.470079951748266	1.4827619276128101	0.441046177460542	3.1166005830081027	0.7383453642913778	-0.5346727676944936	1.2730181319858713	49.81207215594873
5	2.0	wm	236	diff_vonmises	0.27016604699692987	15.47937426065713	3.31649573141883	0.6470398986593708	0.1252530597031764	1.9999269842207603	0.0890978802894391	-0.30142918530613316	0.39052706559557226	70.27533275082857
6	3.0	ltm	236	diff_vonmises	-0.24090327119900443	-13.802740710598433	1.8669959855209626	1.5648801817296845	0.5917035185756825	2.7871635878329286	0.038543768318797245	-0.2879892502131751	0.32653301853197236	75.03007513467062
7	3.0	perception	236	diff_vonmises	-0.059817471823617935	-3.4272886766360275	4.491689078485207	1.9939576127314111	0.3938219427112282	3.1838525477143995	0.9093388312020678	-0.4826951238632284	1.3920339550652963	59.7095673654502
8	3.0	wm	236	diff_vonmises	0.17974427063546375	10.29858809906933	1.2801471935655888	4.030548699483136	0.7154382446622773	4.696519261151909	0.23716116089331019	-0.2321711640384403	0.4693323249317505	88.31392453444954
9	4.0	ltm	236	diff_vonmises	-0.37069852271932835	-21.239460823551976	0.7149473679248658	135.60034366858346	0.6952943574587686	137.8905483560637	-0.1415920515150475	-0.4559699000992339	0.3143778485841864	90.31611546595339
10	4.0	perception	236	diff_vonmises	-0.03964128047209442	-2.2712780655453777	1.6155223629243753	5.634985622943574	0.6289168086666677	7.433246261596689	0.5385845542104857	-0.5797857452570878	1.1183702994675735	83.22789460225286
11	4.0	wm	236	diff_vonmises	-0.1519747930270512	-8.707514232824247	0.6212713097575028	144.5643515608573	0.6067377604364041	146.80803081805695	-0.20050637672013494	-0.42260835147116893	0.222101974751034	92.90013378768579
12	5.0	ltm	236	diff_vonmises	-0.18660483359097016	-10.691669401503644	1.425158965138315	2.7988604669780597	0.47680158999076555	4.332623310403808	0.1251184668724854	-0.3808495453291898	0.5059680122016752	87.29088696773961
13	5.0	perception	236	diff_vonmises	-0.0872024271672811	-4.996331039982158	1.0082327617897269	390.97364244198155	0.9938108221325156	392.600829517951	0.5124593023604973	-0.5443896169127385	1.0568489192732358	87.25723867244116
14	5.0	wm	236	diff_vonmises	-0.05322742590489446	-3.0497068586957594	0.7314519399446217	3.565117552436053	0.18222281371329654	4.595311379251932	0.16555487501285748	-0.3646349885522644	0.5301898635651219	128.26523408755713
15	6.0	ltm	236	diff_vonmises	-0.43655531485808596	-25.012777065373125	0.793543342852936	237.0895733137438	0.7816597703449214	238.59427308274132	0.08643786185538715	-0.3671773834293752	0.4536152452847624	93.10923429407708
16	6.0	perception	236	diff_vonmises	0.017403505773056993	0.9971474295277288	0.5847470222219445	180.9367069063643	0.5657785203958079	182.63158511740158	0.20879537864936992	-0.5033671519629017	0.7121625306122716	112.36303305361486
17	6.0	wm	236	diff_vonmises	0.18787996124277495	10.764728834292486	0.7884174862398287	1.809066611518291	1.1388757026045621e-23	3.4395233518731763	-0.002109196121372614	-0.4347397288439204	0.4326305327225478	137.46999570971428
18	7.0	ltm	236	diff_vonmises	-0.30442592431582244	-17.44232063766565	0.9120347274576383	115.24615467018626	0.888102510104719	117.27931580612719	-0.12626509800973906	-0.41652475787107335	0.2902596598613343	79.6078530982405
19	7.0	perception	236	diff_vonmises	-0.1610441711466618	-9.227151321886229	0.4700048970203678	145.08303495702756	0.44645822476163427	147.36463246011792	0.09380095651098941	-0.6205823059412285	0.714383262452218	122.60774269455393
20	7.0	wm	236	diff_vonmises	0.4519867632788526	25.896933931656875	0.9520040863221989	92.51485739575881	0.9188821403771826	94.4658111837521	-0.05416469188019235	-0.4216284787165634	0.36746378683637104	80.78306530018858
0	1.0	ltm	237	diff_vonmises	-0.14272326397522422	-8.177440664111893	1.1995056558232169	0.9135415028444124	5.013184041447349e-21	3.396109197972492	-0.19423554308214158	-0.5090630420630131	0.31482749898087153	120.60289318088054
1	1.0	perception	237	diff_vonmises	-0.028306643988451768	-1.6218512327176497	9.402067654828375	0.8968247532844614	2.6912702219509643e-19	3.5905033235439863	0.5100324176001818	-0.5714463447565744	1.081478762356756	44.28714337635239
2	1.0	wm	237	diff_vonmises	-0.07145193726750818	-4.093894443461738	4.449684781246989	0.4699880857557929	0.01561054125158603	2.995199513051449	-0.10132202796615469	-0.47335715399032763	0.37203512602417294	63.755951475055156
3	2.0	ltm	237	diff_vonmises	0.09171429475383927	5.254842010413817	2.3260312972428596	0.4866243107021157	0.043185672927096116	1.615435528609273	0.006501883050893553	-0.24410423339086884	0.2506061164417624	86.35541956819313
4	2.0	perception	237	diff_vonmises	0.0119792956271921	0.6863630809776298	5.97557668223211	1.6768307643542701	0.42484416930167046	2.588065861961118	0.995320857855782	-0.42422034425289895	1.4195412021086808	52.535444340372464
5	2.0	wm	237	diff_vonmises	0.04500842552706609	2.578792825229765	2.0544981275068173	1.5946791598584575	0.5045671117771323	2.750694322871792	0.155045239120559	-0.3042755258226908	0.4593207649432498	76.82730144509404
6	3.0	ltm	237	diff_vonmises	-0.18879765163637502	-10.81730862074547	1.177596587727511	111.18554564490236	1.1610902969796335	111.93095464530171	0.06327334879353685	-0.19427903821710224	0.2575523870106391	76.4495288563158
7	3.0	perception	237	diff_vonmises	-0.02639390998032603	-1.512259646720903	4.350803168088495	2.101990476645332	0.41350969541138904	2.467087220637187	1.1222333357235224	-0.3587652608179944	1.4809985965415167	61.43441584788613
8	3.0	wm	237	diff_vonmises	0.02353669048933712	1.3485530287447212	1.0282835779018231	32.15921694994306	0.9547738370469864	32.74538877580713	0.25220069092679864	-0.22114919006825495	0.4733498809950536	88.80267012076499
9	4.0	ltm	237	diff_vonmises	-0.46335351425864124	-26.548200789574956	0.45441502629966285	55.60580184051875	0.4208201522641107	57.24617256984613	-0.035279685338892364	-0.3862457884458257	0.3509661031069333	121.11332909480477
10	4.0	perception	237	diff_vonmises	-0.03228476935959195	-1.8497810268578965	2.7551112919885012	2.487197374247415	0.11326255319699745	3.4273872331523134	0.9423179679421777	-0.48923245063381804	1.4315504185759957	79.56608780146729
11	4.0	wm	237	diff_vonmises	-0.12213609553173506	-6.997882800175051	0.6485030465230748	213.72524175414964	0.635481845954229	215.54624366791265	0.03280396700631627	-0.42613839235277595	0.4589423593590922	101.74547624855043
12	5.0	ltm	237	diff_vonmises	-0.018343596160489927	-1.0510106410884543	0.8474690095972038	93.36590701916364	0.824879399844719	94.19927347784868	0.14557649235464964	-0.24055325490041213	0.3861297472550618	93.56624281708096
13	5.0	perception	237	diff_vonmises	-0.07156640436675335	-4.1004529251415915	1.0076019138847616	241.24954584929185	0.987280591467172	241.8606356483505	0.7202793105349059	-0.4022929357022562	1.1225722462371621	91.43029072499004
14	5.0	wm	237	diff_vonmises	0.14543442757321492	8.332778895846262	0.30321294567914675	167.30309814571683	0.2917956550478157	168.19726870713205	0.15497304450806837	-0.3574264898040589	0.5123995343121273	144.31061250256616
15	6.0	ltm	237	diff_vonmises	-0.5362779557797953	-30.726463512085665	0.6017776962915813	147.7032750081936	0.58994935685951	148.31769267442783	0.16853746819359827	-0.23036748795487938	0.39890495614847765	113.100380369123
16	6.0	perception	237	diff_vonmises	-0.009027124522945774	-0.5172161363038396	0.45674522814397395	217.2234771185183	0.44413559974575606	217.6817967219666	0.3992933219795418	-0.3668862249880682	0.76617954696761	130.4376448010724
17	6.0	wm	237	diff_vonmises	0.06680092856054597	3.8274112740742052	0.3527890431829061	5.307151504796444	5.4031519124492e-13	5.99927866479441	0.21061424211225133	-0.37929729687473945	0.5899115389869908	159.95684955161124
18	7.0	ltm	237	diff_vonmises	-0.3636958642264145	-20.838238046536567	2.555181008303777	0.3701540522719262	3.234635415243703e-11	1.5150653800777727	-0.020166567896213378	-0.23979684546712687	0.2196302775709135	85.97600540490247
19	7.0	perception	237	diff_vonmises	0.01687871137219742	0.9670789252463785	0.6656093820057426	167.03753925928157	0.6437027197476982	168.2807901276231	0.35524417557435584	-0.4527181459923959	0.8079623215667517	108.1956755730357
20	7.0	wm	237	diff_vonmises	0.14137022321194137	8.099917138866626	0.6065061682251311	138.57338688058246	0.5935145119758121	139.82735484108372	0.00928366432008687	-0.2910534130660345	0.30033707738612136	104.83009199227669
0	1.0	ltm	238	diff_vonmises	-0.06809940387297207	-3.901808429278152	3.7919487979970867	0.3038673635641251	2.0314301887419232e-23	2.606503787831526	-0.18794579260064234	-0.41472256902040855	0.2267767764197662	70.36323347041235
1	1.0	perception	238	diff_vonmises	-0.1030038315221533	-5.901684819895974	14.499123582790855	0.6481356184053106	0.09908619723362937	3.123034202799601	0.42830964025468177	-0.5233101759147413	0.951619816169423	35.075505899396006
2	1.0	wm	238	diff_vonmises	-0.09964713731683865	-5.709360408815425	3.270605705948405	0.5336303054738816	0.04169846314662489	2.522369007170118	-0.05136064790062622	-0.3910613929403743	0.33970074503974806	72.84243159026965
3	2.0	ltm	238	diff_vonmises	-0.06754415805132079	-3.86999518710526	8.597894386111221	0.2985313050116734	1.221210803507999e-33	1.5167719135441886	0.10243301308546118	-0.24140173587955055	0.34383474896501176	46.33130462688865
4	2.0	perception	238	diff_vonmises	-0.002472551421302671	-0.14166676106971615	7.281726712343142	1.3450824246905535	0.437453054268426	2.5862349122204384	0.8133093014334172	-0.45226928057917226	1.2655785820125893	47.53968656806305
5	2.0	wm	238	diff_vonmises	0.18557744337268292	10.63280427808276	3.638464743848841	0.5493559431626839	0.13850003642656414	1.6019411130184513	0.10949676171432371	-0.24323581383841664	0.35273257555274035	67.31665339410168
6	3.0	ltm	238	diff_vonmises	-0.23423150965944622	-13.420476932464043	2.165496721322939	1.6198925140620566	0.9175705136317542	2.3900172498195134	0.0973147463207582	-0.2190562293871441	0.3163709757079023	68.03334881900815
7	3.0	perception	238	diff_vonmises	-0.054419340811515386	-3.117998552383868	4.381022065996941	2.1587904062468515	0.5601922624893703	2.880857255091397	1.0004682134052962	-0.42318512801808356	1.4236533414233798	59.48938651254943
8	3.0	wm	238	diff_vonmises	0.10484569592116984	6.007215876395022	1.3103137263209892	33.61981435589765	1.239671212030647	34.064667421889105	0.26161878660903426	-0.18998431660847004	0.4516031032175043	78.86000753391471
9	4.0	ltm	238	diff_vonmises	-0.40011324264150433	-22.92480013065204	18.743667230213255	0.22316333142720138	3.919513608671303e-29	1.7464312495427103	0.10484948912056724	-0.27795316613487775	0.382802655255445	31.266865943626243
10	4.0	perception	238	diff_vonmises	-0.08039945113716959	-4.606549225328105	2.1924790682727084	3.3502025521113845	0.4709588776667123	4.792333266154371	0.6699812966487648	-0.526119957599991	1.196101254248756	78.68294091948181
11	4.0	wm	238	diff_vonmises	-0.19052295421953616	-10.916161177143621	0.7473211875292879	144.72697890798844	0.73490702307528	146.17048797754785	-0.07745190760670084	-0.29217162063690694	0.2147197130302061	88.87710106996938
12	5.0	ltm	238	diff_vonmises	-0.07154758767998501	-4.099374808405346	1.0561861697378097	117.96226071810739	1.0324808876085803	119.12319322797342	0.1229565251176723	-0.30412722884060805	0.42708375395828035	81.73473578504851
13	5.0	perception	238	diff_vonmises	-0.05853662898090826	-3.3539017875292245	0.9656408144783798	322.6905322619955	0.9502597553052587	323.9939620237918	0.5088973398172385	-0.475175143634992	0.9840724834522305	90.04693248844379
14	5.0	wm	238	diff_vonmises	-0.04074846689229353	-2.334715174556985	1.3380175113940547	1.2613734898373135	1.0339938045632544e-16	2.139976365538375	0.16944037390399475	-0.3054781449507355	0.47491851885473024	115.75434356201212
15	6.0	ltm	238	diff_vonmises	-0.4264837590198789	-24.435719422713515	0.7853479004493676	158.9150432156916	0.7683197451977556	160.23884491472876	0.12277509823341148	-0.3424070671879633	0.4651821654213748	95.0731268252445
16	6.0	perception	238	diff_vonmises	0.041523225355024555	2.3791055646135164	0.7094577019891843	107.82948715693225	0.6773369356515586	109.18293752351171	0.2806370013367854	-0.43014295134609704	0.7107799526828824	103.80842660481497
17	6.0	wm	238	diff_vonmises	0.1406925888619877	8.061091550561189	0.45344078266495264	2.919252030939828	2.2347818425805334e-13	4.2406555538243165	0.020063437091367597	-0.3942992212527864	0.414362658344154	154.23584377209602
18	7.0	ltm	238	diff_vonmises	-0.1097198320612946	-6.286483305996356	1.1546066261588979	198.04143294624708	1.139753459630071	199.67993145906212	-0.0554760177007978	-0.3708487300536909	0.3153727123528931	72.38654134738914
19	7.0	perception	238	diff_vonmises	-0.1878505054146081	-10.763041139656462	0.4784253235271356	109.16765104505195	0.4515648399489395	110.87583086037095	0.1387977778150713	-0.5054278557872411	0.6442256336023124	123.19968737585387
20	7.0	wm	238	diff_vonmises	0.6698106294044279	38.377322137875	8.18629548222994	0.35262231908235303	0.0598425804812023	1.6512839027063064	0.11713205210049377	-0.2661973324358501	0.38332938453634385	46.64175944218147
0	1.0	ltm	239	diff_vonmises	-0.6002087025490193	-34.38942548308182	0.0003322802560850531	2055.1147683799913	3.376898570985568e-26	2056.3897948658782	-0.09423746929013532	-0.31159801141080834	0.21736054212067302	169.95797429701074
1	1.0	perception	239	diff_vonmises	-0.13184024069767508	-7.553889361965695	12.961936189568476	0.8066763940046496	0.2479315395558148	2.2882318870339944	0.6870310923188248	-0.40990864652678755	1.0969397388456124	36.750458804005945
2	1.0	wm	239	diff_vonmises	-0.08278658483186611	-4.743321911167686	3.2147682602185252	0.4376558461883213	0.050779463668134635	1.3380520702673118	0.07418672125659279	-0.2052318593263621	0.2794185805829549	73.97550354737118
3	2.0	ltm	239	diff_vonmises	-0.10556935392006285	-6.048678425542474	20.941325923604555	0.21769182562535536	1.737088845280099e-24	0.9398624557996088	0.24541291470627954	-0.14958375566699575	0.3949966703732753	29.569744225657814
4	2.0	perception	239	diff_vonmises	-0.015751787774005495	-0.9025109592362847	8.04982481178574	1.2473500135344933	0.47175477964777335	2.0275168643701593	0.8989422761444414	-0.36200630019588054	1.260948576340322	45.59870121577376
5	2.0	wm	239	diff_vonmises	0.5393220427911176	30.900876850305025	4.076492870223913	0.37439865580353465	4.57418344501319e-21	0.8867528797913588	0.14971488346015363	-0.14104737593853356	0.29076225939868716	67.78436014589431
6	3.0	ltm	239	diff_vonmises	-0.1704989837134219	-9.768872178048834	1.9234066927626532	25.33283383514862	1.8561684315083666	25.660166921481245	0.1112992792257046	-0.13004126717811992	0.24134054640382452	62.41072276566618
7	3.0	perception	239	diff_vonmises	-0.07836881182452747	-4.490202163000364	4.663417413861725	1.765270340048474	0.5293151511830373	2.061137186153016	0.9546108995602314	-0.30520946549449207	1.2598203650547235	58.70544920389014
8	3.0	wm	239	diff_vonmises	0.22408182877345675	12.838943054292244	1.6098432923108232	76.73498433187463	1.5947138506863945	76.55009908929269	0.28179296210522864	-0.05060525867368071	0.33239822077890935	78.0216810837455
9	4.0	ltm	239	diff_vonmises	-0.33848572414119954	-19.393803418720175	6.782721867525055	0.4974575235433384	0.650877641477614	1.4104022951044457	0.11835595281381422	-0.2659767580214672	0.3843327108352814	46.11477898956838
10	4.0	perception	239	diff_vonmises	-0.11733212708546333	-6.722635683289661	2.5189317044362034	2.3321844268036114	0.40660606547074757	3.3804606701178286	0.6050057798589508	-0.40971877801253664	1.0147245578714874	76.0270472885206
11	4.0	wm	239	diff_vonmises	-0.6108748674038955	-35.000551712856996	1.3620949333591537	117.07958740929666	1.3463885517792737	117.89490244004082	0.00013916599751695458	-0.20410402524008475	0.2042431912376017	68.07295844159587
12	5.0	ltm	239	diff_vonmises	-0.18345726893451358	-10.511327230944138	1.4560178183438286	126.13531648824524	1.4377446469356443	126.72454614553504	0.15879612480712524	-0.19686247995169204	0.3556586047588173	71.3655394948519
13	5.0	perception	239	diff_vonmises	-0.10498726398930956	-6.015327129213248	2.4430551619951033	1.9218819985855344	0.22069162770135414	2.603338895257043	0.607010321053006	-0.3383157729332968	0.9453260939863029	81.48125718913127
14	5.0	wm	239	diff_vonmises	-0.099142244156658	-5.680432161632051	1.55927694186511	0.9251541507522503	7.963227101413312e-15	1.1093979313957978	0.23369094767297433	-0.15842327570738224	0.39211422338035656	108.6191778094328
15	6.0	ltm	239	diff_vonmises	-0.40652579606598777	-23.292212377777105	2.433235357777775	0.6357923315812325	4.241403514226031e-20	1.4186860924526494	0.14298451471478826	-0.22295097144494608	0.36593548615973437	88.06474479485227
16	6.0	perception	239	diff_vonmises	0.27840387519859583	15.951367048966434	0.6259675925287929	2.7328441801329424	1.0185994692204212e-09	3.515624175833722	0.1796419379433648	-0.34816228948522765	0.5278042274285925	144.578758315519
17	6.0	wm	239	diff_vonmises	0.45573340749810076	26.111600832756878	0.0001902550271864175	3291.517323661392	1.2582814727605587e-28	3292.2674400108945	-0.019712936966584493	-0.2190470318438429	0.1993340948772584	173.6914384436653
18	7.0	ltm	239	diff_vonmises	-0.011117678704124521	-0.6369960677288093	1.2162871326141858	159.33400419835877	1.1994184800554042	160.42399867228545	0.08274035301588611	-0.2836053097356128	0.36634566275149893	74.90553299636201
19	7.0	perception	239	diff_vonmises	-0.4006765899450848	-22.957077553547276	0.797216872424602	174.5433777519064	0.7782485937404207	175.57063130839103	0.3246159893645526	-0.3618508598110797	0.6864668491756323	98.76165019453926
20	7.0	wm	239	diff_vonmises	0.6945795269626072	39.79647543115056	15.394209724029553	0.36474749701062625	0.10895845530399946	0.7526821497532167	0.43290742113588	-0.12634787472089007	0.55925529585677	34.27781253041735
0	1.0	ltm	240	diff_vonmises	-0.5279690037911396	-30.250395630958863	0.3260730670677343	2.7015752530801174	1.7586561603641113e-12	3.274645209918113	0.05902634325354306	-0.21893127158369996	0.277957614837243	156.04355649915328
1	1.0	perception	240	diff_vonmises	-0.12419707764548824	-7.11596837694506	16.332058114030197	0.7284282555010287	0.13294042847657833	1.4658944778173022	0.8998154233250437	-0.24990118742977552	1.1497166107548193	33.25062438256717
2	1.0	wm	240	diff_vonmises	-0.17060583537688828	-9.77499432739941	4.129693433344093	0.3479500297197401	1.5456635472353909e-13	0.6587901617071903	0.16735702603174735	-0.10477925430580028	0.2721362803375476	67.3485986783781
3	2.0	ltm	240	diff_vonmises	-0.12289273825771396	-7.041235234972916	9.271854172877465	0.32479628159203655	3.5153448218872416e-16	0.541692024315149	0.30273299864372843	-0.08621295986398168	0.38894595850771013	44.594409958774435
4	2.0	perception	240	diff_vonmises	-0.008279213508203253	-0.47436399170774635	6.3883661658017274	1.345796335038577	0.5315712001746089	1.524220668099439	0.942838110483983	-0.25178542423651423	1.1946235347204972	51.10210804856695
5	2.0	wm	240	diff_vonmises	0.4340645950852416	24.87006933443936	1.9154618110902109	0.47402401023178187	2.846317901591482e-30	0.5688517735342072	0.1476933361896991	-0.08536843736322569	0.2330617735529248	98.6668064440648
6	3.0	ltm	240	diff_vonmises	-0.18960569153360848	-10.863605896535132	2.4591916087101353	81.37569863829813	2.4309401621467726	81.53657219800836	0.22918191012563938	-0.13251806454353776	0.36169997466917714	57.314917457284224
7	3.0	perception	240	diff_vonmises	-0.04615787142047293	-2.644651223700621	4.029475866424696	2.2536878375376355	0.5757529720489649	2.3952795189150113	1.1144903612215833	-0.3265907034295903	1.4410810646511736	62.539151935434234
8	3.0	wm	240	diff_vonmises	0.1430348845009613	8.195295205046275	1.330262058781896	69.12662859432987	1.3151884323564695	68.85496031652923	0.29737706107267314	-0.04528640520310789	0.34266346627578104	87.36440284578563
9	4.0	ltm	240	diff_vonmises	-0.34592694223901493	-19.820153810161365	13.223540318919923	0.3499038995101587	0.3772534993193178	0.8639238515554992	0.30904800314600495	-0.16470223718200655	0.4737502403280115	36.10526934729208
10	4.0	perception	240	diff_vonmises	-0.13070557730940371	-7.488877938649731	1.9382915068061326	3.9963359532919114	0.50799449929841	4.9380866175598825	0.7969961111014319	-0.470548548081163	1.2675446591825947	83.11753024613503
11	4.0	wm	240	diff_vonmises	-0.5199285723143879	-29.78971284187685	1.397989395258011	106.78937714763697	1.3803350911222574	107.26757925893945	0.14017807657694448	-0.1612818662947877	0.30145994287173217	73.1960624602128
12	5.0	ltm	240	diff_vonmises	-0.0389571749896144	-2.2320817086575118	1.7338917031696548	133.6807097836377	1.7209971886144366	133.6937576833501	0.28059224491282464	-0.09549182787869981	0.37608407279152445	71.33788534457582
13	5.0	perception	240	diff_vonmises	-0.06886149668225043	-3.9454731308470707	1.8226396994450926	2.411978866367958	0.2583280153489243	2.3548464918646386	0.6989012455103671	-0.25560418444206556	0.9545054299524327	93.64447224041871
14	5.0	wm	240	diff_vonmises	-0.005516088250415219	-0.3160485761704944	1.4912868461564026	0.9703343896123996	1.0028053933712529e-14	0.8611452397087935	0.28175778986240274	-0.11583652289523576	0.3975943127576385	110.73344656672309
15	6.0	ltm	240	diff_vonmises	-0.4233140012601547	-24.25410568100248	1.6789767993820988	0.7740912436849129	6.2088758599861444e-18	1.0958108067924093	0.18466493235310907	-0.16190540215686294	0.346570334509972	104.71826866311825
16	6.0	perception	240	diff_vonmises	-0.0020121190819478497	-0.11528593127334961	0.7418562060123823	126.10983356033253	0.7262546494522399	126.30540878074989	0.31882952364026096	-0.1909180253178473	0.5097475489581083	107.11781100878295
17	6.0	wm	240	diff_vonmises	0.1282412207670911	7.347680709559766	0.00018737494209600722	4395.073775225572	3.281394318800582e-30	4395.274590857322	0.09911126945314663	-0.16302059178235595	0.2621318612355026	179.38339244311453
18	7.0	ltm	240	diff_vonmises	0.09466674387254935	5.424004884143025	1.5805702595816278	166.86765887405082	1.5613913672063504	167.71823074868942	0.17390682761140397	-0.2764367154267866	0.4503435430381906	67.48192336595008
19	7.0	perception	240	diff_vonmises	-0.340297574246586	-19.497614782869153	0.99291523489185	174.22007780091695	0.9724783525490184	174.7577846249537	0.4935246102148696	-0.30226653753217647	0.7957911477470461	91.52197604081594
20	7.0	wm	240	diff_vonmises	0.679896606565145	38.955206061449424	16.555057777729452	0.2660567039014491	0.24261544707243965	0.42191939203478546	0.3441684191126427	-0.07618334812654157	0.4203517672391842	32.917288508485655
0	1.0	ltm	241	diff_vonmises	0.03003619680791976	1.7209473097181176	5.814911449866254	0.40276712097895523	3.12847275841702e-18	3.709816110337117	-0.2121180634122331	-0.5904322056560766	0.37831414224384347	56.526910727818205
1	1.0	perception	241	diff_vonmises	-0.09626479990000336	-5.5155667499415815	11.35236996051727	0.6580180374027107	0.05247546816904202	3.9136882730629656	0.2179875747754747	-0.6359996430121053	0.85398721778758	39.73488140949783
2	1.0	wm	241	diff_vonmises	-0.1249342932050926	-7.158207717101765	2.8026035529501336	0.915990248887864	0.14886148089704634	3.9617544646169938	-0.15073454122310836	-0.5921028604244812	0.44136831920137287	72.45198056615823
3	2.0	ltm	241	diff_vonmises	0.032079061369229056	1.8379948271979847	2.006137583755495	0.646587429212115	3.894626573857778e-20	2.447540525264552	-0.05535754744958593	-0.38349201813199485	0.3281344706824089	96.8764780875378
4	2.0	perception	241	diff_vonmises	0.021208959817748285	1.2151838854195285	5.7580691137794675	1.5428543013672693	0.4061992600924544	3.212050734585362	0.7050740191522172	-0.532075802463895	1.237149821616112	52.69621289344303
5	2.0	wm	241	diff_vonmises	0.2461933179497415	14.105838062842562	3.0234894727529693	0.780337469543502	0.15248167615750363	2.242909108757481	0.09999697292371151	-0.33110037722696667	0.4310973501506782	72.53669904319236
6	3.0	ltm	241	diff_vonmises	-0.22173891900795256	-12.704704212948869	1.3328894605747204	3.955206196408745	0.686921264779076	5.481940877527028	0.04935113549935144	-0.35813761886859863	0.40748875436795007	81.60056179583385
7	3.0	perception	241	diff_vonmises	-0.061629834251603226	-3.5311293947076674	3.9010000444028736	2.2345967564553226	0.31520301815129836	3.6929928760346047	0.9085876288243169	-0.541245442628953	1.44983307145327	64.25599692676295
8	3.0	wm	241	diff_vonmises	0.16043592822386166	9.192301569491079	1.532890123410113	1.6816649525787466	0.19674419780774496	2.56681976224737	0.24548483860215387	-0.2989944563919034	0.5444792949940573	98.54043815496968
9	4.0	ltm	241	diff_vonmises	-0.3070814666688438	-17.594472006812012	0.6178003477619542	143.65457599740716	0.5983295826677392	146.1591948195139	-0.13453554453708705	-0.508171452165044	0.37363590762795695	98.7152295031997
10	4.0	perception	241	diff_vonmises	-0.042656809588752086	-2.4440551569286755	0.9713603638783693	351.9011680224511	0.9529808222772657	353.9321564038879	0.5512280449290188	-0.6497368016905867	1.2009648466196055	88.53254435034955
11	4.0	wm	241	diff_vonmises	-0.20906144930412804	-11.978338704014758	0.617800168128061	180.77726086358015	0.6040144447659708	183.2375135196795	-0.18302944315857417	-0.47761882126499344	0.2945893781064193	95.68070290223433
12	5.0	ltm	241	diff_vonmises	-0.20209659720857848	-11.57928207400692	1.0726133190429903	5.027034123923663	0.5298703289014091	6.4084712969538264	0.16950514297383257	-0.3729033112019971	0.5424084541758296	95.38905287933193
13	5.0	perception	241	diff_vonmises	-0.07972184514753154	-4.567725261949059	0.9877375816648905	377.86062961133416	0.9727540293046486	379.358116659894	0.5687483993501559	-0.5379616908439644	1.1067100901941203	88.88693807286927
14	5.0	wm	241	diff_vonmises	-0.07913063910850163	-4.533851651089998	0.4005600390894312	191.61597158638776	0.3888709725023093	192.6523313248476	0.17601944808723857	-0.38356694849331774	0.5595863965805563	133.16430491839373
15	6.0	ltm	241	diff_vonmises	-0.45130701357223985	-25.857987142342704	0.7523329870844073	221.0759100922978	0.7402948736893369	222.52506052552582	0.0845075458957325	-0.3562753859767156	0.4407829318724481	95.82581612379214
16	6.0	perception	241	diff_vonmises	-0.029281191811132402	-1.6776887098909137	0.5737889354366632	244.4520670636022	0.560004080995003	246.00049469452748	0.2360345324999571	-0.4882010063351281	0.7242355388350852	114.02382930503342
17	6.0	wm	241	diff_vonmises	0.17156274676218658	9.82982131114502	0.6287133943246955	2.2829622489085555	7.058927166811734e-19	3.7996791181861846	0.013938368400810752	-0.4287946218820663	0.44273299028287705	145.1393400092567
18	7.0	ltm	241	diff_vonmises	-0.36982619353410456	-21.189480042892566	1.3080727445464402	2.745142715288616	0.5063753713211657	4.776237352567035	-0.08905562938285172	-0.41870417244863506	0.32964854306578334	82.88015941143387
19	7.0	perception	241	diff_vonmises	-0.1002827950995063	-5.745780916976925	0.47672018879511896	261.26193205244385	0.4620306359278854	263.6120903821496	0.15043870186439534	-0.6679991946851978	0.8184378965495931	122.19782213327547
20	7.0	wm	241	diff_vonmises	0.34159751869361543	19.572096113285408	0.9360943999781224	152.3761708081429	0.9155968096747322	154.39991355652012	-0.06509818069864792	-0.43395315692294645	0.3688549762242985	80.90974765884457
0	1.0	ltm	242	diff_vonmises	-0.004375158950240025	-0.2506781425476412	2.1614800777236196	0.6949500989323021	2.435893603723737e-19	3.199594581075033	-0.13356400916741906	-0.5042495242678657	0.37068551510044667	93.46660300033804
1	1.0	perception	242	diff_vonmises	-0.07950914060583614	-4.555538189426648	10.944881973642614	0.8289819138218267	0.10154019638858132	3.397108347733503	0.4837925823864919	-0.5628668981933993	1.0466594805798912	40.28017368263767
2	1.0	wm	242	diff_vonmises	-0.11940929822675186	-6.841648823011867	3.6958132362792893	0.5494727664047561	0.01743427629425875	2.8630320049117692	-0.059128241515780555	-0.45018007487792083	0.3910518333621403	69.94946239978293
3	2.0	ltm	242	diff_vonmises	0.02766961490673014	1.5853521549079062	2.901303290394282	0.5329813274566108	6.698938936537826e-15	2.019648736053883	0.021005126546284336	-0.32040285887281267	0.341407985419097	80.70078607727996
4	2.0	perception	242	diff_vonmises	-0.00801141864547308	-0.4590204762980223	5.976951793944219	1.4161967698333142	0.3028713302424058	2.728980861958576	0.774739726680103	-0.4445562107845551	1.2192959374646581	52.90695022691284
5	2.0	wm	242	diff_vonmises	0.15059752793082043	8.628602755539545	2.8081970495017274	0.8455740562264681	0.20010523513346096	2.077981157400344	0.1332313422855761	-0.2967039685479245	0.4299353108335006	74.12142225727715
6	3.0	ltm	242	diff_vonmises	-0.20832962074423797	-11.93640801620592	1.7712344426202615	1.59345139148622	0.46393653773332666	2.676461621758116	0.12121719348150573	-0.2771946543474407	0.39841184782894645	81.7755667690027
7	3.0	perception	242	diff_vonmises	-0.06437566297228045	-3.6884537916682785	3.280326346994504	2.582244619869264	0.35482365781387787	3.5105948085932788	1.0066568875942834	-0.47523647214841747	1.4818933597427009	69.53102242325517
8	3.0	wm	242	diff_vonmises	-0.024557909028325636	-1.4070645409892795	2.1080183910574974	1.1819719989031037	0.0976104310885164	1.8217757448701846	0.3104650599723184	-0.2534889770308674	0.5639540370031858	90.25023850728812
9	4.0	ltm	242	diff_vonmises	-0.17025933209380567	-9.755141151691351	3.7329554420227797	0.5326412729090851	1.1955851784597651e-15	2.3013987007585524	0.02800588457160108	-0.36605332900312587	0.39405921357472695	70.93265045286938
10	4.0	perception	242	diff_vonmises	-0.09919972615051938	-5.683725637278305	1.7463373541793363	4.645466888201118	0.4325852345488137	6.243048287261366	0.7448748709524786	-0.6066577311328811	1.3515326020853597	86.88915647012595
11	4.0	wm	242	diff_vonmises	-0.30564769759948085	-17.512323090341116	0.7357896100005072	214.80690355174366	0.7242877640131294	216.48455100770664	-0.013752734323290383	-0.36790740308035197	0.3541546687570616	93.42680972072635
12	5.0	ltm	242	diff_vonmises	-0.1388494660719615	-7.95548839356831	0.7449075421616396	147.57914763855743	0.729512778357637	148.54677857310728	0.15280079835545735	-0.28003601270595624	0.4328368110614136	99.53312078415561
13	5.0	perception	242	diff_vonmises	-0.05092378279479143	-2.9177178309824647	1.1636916507760187	11.889905603463125	0.7425527161752609	12.909109662635903	0.6497696969869216	-0.46808745215571945	1.117857149142641	92.13928215323392
14	5.0	wm	242	diff_vonmises	-0.14601797922069978	-8.366213942375051	0.43737808154212926	136.94662247465618	0.42242426270624994	137.86911014795078	0.16370456057275362	-0.33721791381589483	0.5009224743886485	129.1937820215478
15	6.0	ltm	242	diff_vonmises	-0.4263772042784009	-24.42961428573972	0.602026273116078	150.61088899017835	0.5873275233943747	151.86995926774324	0.08743220730013945	-0.3330240432205436	0.42045625052068303	108.55475260140388
16	6.0	perception	242	diff_vonmises	0.031233405642037332	1.7895423231088323	0.5120962640877986	220.35927267339562	0.49867689384509145	221.40710141018732	0.2948605632396806	-0.42719999759214033	0.7220605608318209	122.4465579086013
17	6.0	wm	242	diff_vonmises	0.0898143028605954	5.145980493821873	0.26300772003067124	5.021158211840786	2.2860004987441646e-15	6.1907385530857315	0.03651905764100116	-0.3814444440704772	0.41796350171147834	164.81289739024658
18	7.0	ltm	242	diff_vonmises	-0.26250394590393095	-15.040368205825716	0.8600421580913986	146.8681335899125	0.8429260937389367	148.28106799755992	0.039046509839288035	-0.328023283513442	0.36706979335273004	88.0827455481663
19	7.0	perception	242	diff_vonmises	-0.08595803885008756	-4.925032841331581	0.5154671840751777	272.76626724108837	0.5020813019922254	274.38104348925503	0.28428369974537304	-0.5548229406411522	0.8391066403865253	120.62055368690436
20	7.0	wm	242	diff_vonmises	0.263478899518702	15.096228933173123	0.8810947217571297	130.24144518016075	0.8623385659015775	131.50236624228745	0.0679343447927323	-0.3046537579070385	0.37258810269977083	88.1249300148414
0	1.0	ltm	243	diff_vonmises	-0.6060817157214926	-34.72592435088928	0.5250946453620597	1.2124736012770707	4.871416975672918e-16	3.4054559231070654	-0.23713563184525926	-0.4353322026908341	0.19819657084557485	145.19571021236777
1	1.0	perception	243	diff_vonmises	-0.05780301596924156	-3.311868858164841	10.455726147435104	0.9239297581934612	0.04010499152210891	3.3813247832774627	0.61681285880399	-0.5444213106778915	1.1612341694818813	41.640604417872794
2	1.0	wm	243	diff_vonmises	-0.0694943969989934	-3.981735647848936	6.114577762316675	0.3307340896232407	0.04908654002537367	2.4787766622566556	-0.09510765487910061	-0.3958869140793242	0.3007792592002236	53.33972015167774
3	2.0	ltm	243	diff_vonmises	-0.14975953284274568	-8.580589173740167	4.670283312942099	0.3173271450991359	9.400226903281024e-14	1.432900658557729	0.03722255599627047	-0.2280299284651647	0.2652524844614352	63.234328636895384
4	2.0	perception	243	diff_vonmises	-0.007258753170292927	-0.41589592118499086	7.364252636821632	1.568586956286478	0.3844468760838392	2.6694511105195318	1.0654043422651087	-0.4581471606463988	1.5235515029115074	47.84797109889584
5	2.0	wm	243	diff_vonmises	0.055792528531573286	3.1966764132223777	2.43636079803523	0.732399041823553	0.13420011225856535	2.049207703479043	0.05383032511550229	-0.2939746772006565	0.3478050023161588	80.22367023977446
6	3.0	ltm	243	diff_vonmises	-0.15123306601005776	-8.665016405199694	1.2497261936321176	96.67481865393718	1.2319348487648862	97.33815416791546	0.060317079893373204	-0.1768462370834012	0.2371633169767744	74.25209189155046
7	3.0	perception	243	diff_vonmises	-0.03493125729144523	-2.001413615885395	3.708233801549584	2.768980603526017	0.8190624821122543	3.0795899306313523	1.0959886489749526	-0.3863605101943247	1.4823491591692775	62.34830367222335
8	3.0	wm	243	diff_vonmises	0.02164311487944056	1.2400591381087376	1.2590613401654651	168.54929186933725	1.2448172936509971	169.0895358055273	0.230631248596751	-0.20165734944167468	0.4322885980384257	78.60558728163696
9	4.0	ltm	243	diff_vonmises	-0.38655021467588924	-22.147695870804387	5.613449655678619	0.34135811731214527	0.12074435197162701	2.083781520421786	-0.05810304525594995	-0.33654860899874417	0.2784455637427942	54.01765046846606
10	4.0	perception	243	diff_vonmises	-0.07560253767022224	-4.331706328982554	3.183031384267177	2.0120324681562574	0.09255676714034136	3.0182044917405895	0.8369269493878644	-0.4462904435872303	1.2832173929750947	74.55505011515058
11	4.0	wm	243	diff_vonmises	-0.21489791455932275	-12.31274353041216	0.7121437292716079	184.99051137710984	0.6995398713972297	186.9092823547307	-0.10132404990807942	-0.38828389694086596	0.28695984703278654	91.27643468807771
12	5.0	ltm	243	diff_vonmises	-0.0061927784571090385	-0.3548200690518856	1.5296171377242596	2.237092766042029	0.6447773885125816	3.009091074588186	0.15590401857843372	-0.22405120460089675	0.3799552231793305	83.17161891513754
13	5.0	perception	243	diff_vonmises	-0.10860330756186877	-6.222511164456299	2.015009820018882	3.134746362089223	0.43088927667976085	3.6933745045510578	0.7606033200368923	-0.3759544511904118	1.136557771227304	84.26208301847637
14	5.0	wm	243	diff_vonmises	0.09569782321813078	5.483081378987952	0.6061336955243969	4.602992211560367	0.25859697462058523	5.404292774690927	0.1321222001686968	-0.28789378321468523	0.42001598338338203	129.67656142856416
15	6.0	ltm	243	diff_vonmises	-0.44818660499568064	-25.67920090054944	0.6006972949254675	105.22504216864206	0.5892157436902965	105.71782479037307	0.09869149501146524	-0.16495365851712407	0.2636451535285893	112.17359926818064
16	6.0	perception	243	diff_vonmises	0.1233002844128212	7.064585909617345	0.06341571485524332	170.79181415712355	0.05255894235351966	171.2130443307223	0.23280194104241403	-0.34988039144809946	0.5826823324905135	172.82007008974364
17	6.0	wm	243	diff_vonmises	0.11462618105154146	6.567596395955774	0.14889646985090704	8.016052747500595	5.61399788696338e-12	8.65987654441819	0.09418597008331608	-0.28502632855095555	0.37921229863427164	171.06767134883899
18	7.0	ltm	243	diff_vonmises	-0.4235463730569896	-24.267419604238988	2.22045226218027	0.381380002666498	3.690624277706853e-15	1.1856755092440963	0.020803701048419193	-0.18623686821485652	0.20704056926327571	92.06930580810642
19	7.0	perception	243	diff_vonmises	-0.08977995703945212	-5.144012623226452	0.7548211232754256	109.40179134998745	0.727243280733122	110.42554375406468	0.2792064301261412	-0.3483739129899188	0.62758034311606	101.34533035822145
20	7.0	wm	243	diff_vonmises	0.2187377525721121	12.53275004255889	0.6863856886230731	100.40319477344403	0.6716161605828335	101.36890631980967	0.01275978895306551	-0.22184071290503127	0.23460050185809678	98.47924646303244
0	1.0	ltm	244	diff_vonmises	-0.7900202340451508	-45.26482514072465	0.42592503567860446	1.3089031845041876	2.4135268934085425e-09	3.3576700446613374	-0.2294423921463012	-0.4042904437816064	0.1748480516353052	145.1619546244504
1	1.0	perception	244	diff_vonmises	-0.09440976695496349	-5.409281191333074	11.734472690275544	0.7702934848314186	0.047085654249277915	3.118365401419883	0.5207549325227289	-0.505052085820369	1.0258070183430978	39.260580782312644
2	1.0	wm	244	diff_vonmises	-0.044149248890243784	-2.5295656300836025	4.158427997339542	0.4449185123087734	0.09724385413230231	2.287640420135876	-0.050981993561101835	-0.35850574068732566	0.3075237471262238	62.83315074746426
3	2.0	ltm	244	diff_vonmises	-0.15565618953787955	-8.918442715608897	6.287392534377615	0.2552037760535332	4.2421060322046364e-18	1.2400001167158343	0.05242287668172513	-0.19735128424649415	0.24977416092821927	54.317005141063675
4	2.0	perception	244	diff_vonmises	0.007064870737847434	0.40478727608413384	7.239384892235089	1.5818590361883238	0.5381018291569242	2.606858866242227	1.0044107366913164	-0.46169117577142	1.4661019124627364	47.45658371235211
5	2.0	wm	244	diff_vonmises	0.29394973558349236	16.842079237920625	3.5541918148287532	0.4230968231415357	0.002850237285042404	1.4305434887924386	0.07649069172121575	-0.2267801823669599	0.30327087408817566	72.55341435913846
6	3.0	ltm	244	diff_vonmises	-0.14742190638441963	-8.44665304359997	1.5259310017716399	76.29823519702302	1.504570792531269	76.85089255699533	0.044341871363137386	-0.15748460104067696	0.20182647240381435	66.55690273064434
7	3.0	perception	244	diff_vonmises	-0.0414249371214029	-2.3734740636511993	4.817626304869659	1.9890523925790329	0.7156257625307891	2.3539624422678798	1.0138815825982816	-0.35221133129270754	1.3660929138909892	56.513290099794716
8	3.0	wm	244	diff_vonmises	0.18277578340908135	10.472280986537616	1.3339376548563906	149.19157740970024	1.3218653509504124	149.4624440561977	0.21702092061350697	-0.1351230028410857	0.35214392345459267	78.0684370425175
9	4.0	ltm	244	diff_vonmises	-0.4637757615909817	-26.572393779628722	5.1955652814499915	0.44846945777131564	0.2871414792525171	1.9962992927914236	-0.01795195474997563	-0.3316686616982923	0.31371670694831666	53.54358775059504
10	4.0	perception	244	diff_vonmises	-0.04772735646811696	-2.7345760929395126	3.024587590929416	1.9348484835049544	0.2394396590622381	2.9636928419565636	0.6823133693556755	-0.40950635157830373	1.0918197209339793	73.32568023415868
11	4.0	wm	244	diff_vonmises	-0.2867201625204483	-16.427855213726737	0.8132080483933226	161.52269036668991	0.8008218158403373	163.1972150465435	-0.1266904240685207	-0.33029347241379625	0.20360304834527554	82.6240466259842
12	5.0	ltm	244	diff_vonmises	-0.08387954813671274	-4.805944095698068	1.192096329559109	118.76277479401698	1.1704682459784117	119.63106701752514	0.15131445765187124	-0.25077421565841185	0.4020886733102831	78.04096515182161
13	5.0	perception	244	diff_vonmises	-0.12091568129448695	-6.9279582151230565	1.5896549471702548	5.3991398104240265	0.7218894321797076	6.164435919417245	0.642659339330266	-0.3898583719497533	1.0325177112800192	84.62075800769239
14	5.0	wm	244	diff_vonmises	0.09555126516571269	5.474684221130738	1.2223942530439131	1.2431922352607196	3.13253322569207e-15	1.8116433114333101	0.18812235279907574	-0.24699873681077927	0.435121089609855	119.80463764243717
15	6.0	ltm	244	diff_vonmises	-0.4546769710303554	-26.051071481831364	0.7337269184319846	111.58029028169608	0.7202225539831679	112.13858762227363	0.12647013832366838	-0.17949041556392586	0.30596055388759424	101.62983156150612
16	6.0	perception	244	diff_vonmises	0.19900585380932256	11.40219552167164	0.14322765041441782	130.83609725656825	0.12861032209589343	131.4863115575874	0.20634196899026946	-0.37302091052007924	0.5793628795103487	163.20445409214085
17	6.0	wm	244	diff_vonmises	0.25203635795578383	14.440619594714882	0.0006566530192095142	1710.2271413371323	1.971010438303583e-26	1710.959656503146	0.06217574691675054	-0.29528388950831186	0.3574596364250624	177.89724427953774
18	7.0	ltm	244	diff_vonmises	-0.08018948517350345	-4.594519061768638	1.0775296186120986	83.46632498761183	1.0539650241403327	84.57459029110501	-0.020320877830542372	-0.24958862740293775	0.22926774957239537	76.0855913670494
19	7.0	perception	244	diff_vonmises	-0.18725133405941338	-10.728711149798672	2.1466373430047887	1.217610187352421	1.4365434665098823e-13	2.4291194336555706	0.26887663035594467	-0.3776519583340517	0.6465285886899963	93.74289076122311
20	7.0	wm	244	diff_vonmises	0.6638302560169486	38.034671982860075	14.667220909007336	0.2551882673337054	5.480003352231126e-23	1.3352339394465629	0.17395223938190502	-0.2125090816469146	0.3864613210288196	35.374537086648644
0	1.0	ltm	245	diff_vonmises	-0.05162204002870552	-2.9577250235002213	5.2357388059463075	0.29987225316369776	2.829022364419627e-18	2.707488927745821	-0.16442806866541648	-0.430902695912904	0.2664746272474875	59.63623016235883
1	1.0	perception	245	diff_vonmises	-0.08539109390320597	-4.892549288658998	18.024049165643365	0.6015853926505561	0.036734577623663285	3.1657147030886623	0.48910842294121726	-0.514199164368696	1.003307587309913	31.72915354721593
2	1.0	wm	245	diff_vonmises	-0.16708581177138457	-9.573311831017625	4.471460319510996	0.40435052200673954	0.027766117770662666	2.633771056603951	-0.10068615254496627	-0.415527218206153	0.31484106566118675	62.955785764212436
3	2.0	ltm	245	diff_vonmises	-0.08374220642277427	-4.798074995138301	5.97399969156979	0.4013626504603138	5.514718559340035e-32	1.760390895868426	0.10223080678788288	-0.2801724376736261	0.382403244461509	55.752809816696015
4	2.0	perception	245	diff_vonmises	-0.007217252075948414	-0.413518083633876	7.160276895459374	1.3878407092141496	0.37382416318529915	2.8148462898322855	0.8246228787951656	-0.4837386231474761	1.3083615019426418	48.18454790257522
5	2.0	wm	245	diff_vonmises	-0.012714633562887698	-0.7284948412088499	3.6078658517974938	0.7082354657227106	0.21687292188216542	2.1176429618237638	0.10071015361566854	-0.32040463963427196	0.4211147932499405	65.50933686729852
6	3.0	ltm	245	diff_vonmises	-0.22213935122619008	-12.72764728903494	1.3549351455586205	78.76572259850107	1.3165021501739647	79.81881415318585	0.1250668020011183	-0.2959864438204285	0.4210532458215468	72.05376162141445
7	3.0	perception	245	diff_vonmises	-0.03626292156872004	-2.077712358701581	3.5030130918638327	3.2508570077855237	0.7514560339991092	4.212094793809283	1.083362250069569	-0.5388574109679056	1.6222196610374746	63.23573337228834
8	3.0	wm	245	diff_vonmises	0.003961606605116722	0.22698333856433828	2.6059122185000874	1.3832755237595646	0.4749618025860607	2.3929781529608642	0.25602113753220557	-0.2987284897600887	0.5547496272922943	72.02424000664755
9	4.0	ltm	245	diff_vonmises	-0.19461785949945043	-11.150781967188546	0.749236608572044	73.35578455988315	0.7168139101468207	75.22865585469596	-0.08509510036128631	-0.38433170297929387	0.29923660261800755	90.21801308164734
10	4.0	perception	245	diff_vonmises	-0.1029198332465439	-5.896872073217179	1.8197950183261307	5.235726541749056	0.5732703049248177	6.947825151870417	0.7407588853393463	-0.6224468503507072	1.3632057356900535	82.0535045089326
11	4.0	wm	245	diff_vonmises	-0.1478162183104966	-8.469245452775855	0.6570106941287509	172.35776988534863	0.6447315184240849	174.20028929684486	-0.10266513897040142	-0.3709631336384511	0.2682979946680497	94.95357038677577
12	5.0	ltm	245	diff_vonmises	0.03531734082079115	2.0235345726564318	0.9951965380404786	132.16709754912281	0.9731830272142061	133.24718885475625	0.18752637259464677	-0.3069286025347875	0.49445497512943426	85.90348791650842
13	5.0	perception	245	diff_vonmises	-0.05294234276625351	-3.03337279804129	0.9425355359169117	366.0923265672986	0.9285852815487836	367.31415107429586	0.5698198412999602	-0.48307150943919197	1.0528913507391522	91.76636564402796
14	5.0	wm	245	diff_vonmises	-0.01878253063306403	-1.0761597338497513	1.3260735694228247	1.2754681399583667	7.122257477975836e-15	2.422785437693878	0.1273865816239046	-0.3494329263527761	0.4768195079766807	116.16825070584336
15	6.0	ltm	245	diff_vonmises	-0.41977948705480517	-24.051592934406912	0.7800055184710054	157.04441451741806	0.7644566316873185	158.2541649136803	0.10717319295707739	-0.3111081455585616	0.418281338515639	95.23007788002653
16	6.0	perception	245	diff_vonmises	-0.006460557390055197	-0.3701626717522172	0.6290460307195777	181.10468440679415	0.6116961740054467	182.27906964825857	0.2813366855339936	-0.41006608809853695	0.6914027736325306	110.53821008772732
17	6.0	wm	245	diff_vonmises	0.062508293206061	3.5814613852735726	0.24413889209480472	5.881685396234803	7.410031496271301e-17	7.10628298423974	0.04633428873601475	-0.408481306027209	0.45481559476322375	165.97680360857018
18	7.0	ltm	245	diff_vonmises	-0.1686530823605179	-9.663109821129947	1.2342917838354819	184.98462983208753	1.2183089850810804	186.47358985200964	-0.025602290214521872	-0.35147774817738053	0.32587545796285866	70.84875243008833
19	7.0	perception	245	diff_vonmises	-0.022966693434720065	-1.3158946031802763	0.3597945911751102	139.33611320234215	0.34098640307159345	141.0314922209219	0.1065503529832057	-0.5205733673356505	0.6271237203188562	136.73694386614028
20	7.0	wm	245	diff_vonmises	0.38895132834827856	22.285269550363456	0.85286782259593	87.09159144600125	0.8305089123317064	88.48611641981441	-0.05992205340081114	-0.2902985869031518	0.23037653350234066	84.14425240148734
0	1.0	ltm	246	diff_vonmises	-0.3971060560366445	-22.752501029985297	0.5829996911562066	1.7067040012026562	1.7036195877450647e-17	3.0668573275867814	-0.04036936542156294	-0.34858444067331784	0.3082150752517549	145.66797239366264
1	1.0	perception	246	diff_vonmises	-0.10118838801533679	-5.797667569010959	12.01659009449144	0.8483348807364562	0.06247828193990347	2.3703433203939537	0.7592266336587543	-0.3861257543892923	1.1453523880480465	38.81789282149782
2	1.0	wm	246	diff_vonmises	-0.15133519025649375	-8.67086769350643	5.205877159452535	0.3708617609072192	1.780754422704158e-18	1.5587679077373153	0.08045408553993783	-0.24807573450778417	0.328529820047722	59.81564652901429
3	2.0	ltm	246	diff_vonmises	-0.06084183431954006	-3.4859803243438523	3.4033722461515654	0.50761181623905	0.10999226588989112	1.322036741882371	0.12278292140568622	-0.19922917243921645	0.3220120938449027	70.50238516938776
4	2.0	perception	246	diff_vonmises	-0.0005216559589136206	-0.029888684803600338	5.587150360800697	1.5678981928555145	0.4205641973146202	2.222179455945793	0.9265663531733375	-0.35516555251298537	1.2817319056863228	54.37986301214079
5	2.0	wm	246	diff_vonmises	0.2763167116223591	15.831781384894638	2.613478677589744	0.5439919870932695	4.9393417084957936e-12	1.2418553420631275	0.13139798148101065	-0.19588045568326917	0.32727843716427985	85.03831297628983
6	3.0	ltm	246	diff_vonmises	-0.14656818749554087	-8.39773855437662	1.3609119007083632	164.34516556520867	1.3472778175080395	164.9761307579088	0.14717646561615538	-0.19973117780934047	0.34690764342549585	73.47533770274319
7	3.0	perception	246	diff_vonmises	-0.04609298328873311	-2.6409334076114406	3.543692427358149	2.4351536011438983	0.4233691482768917	2.9007743086302997	1.0769680524687977	-0.39107740955783205	1.4680454620266297	67.0421603798429
8	3.0	wm	246	diff_vonmises	0.09390902466945494	5.380590771749699	0.8474239138291543	117.43000737509072	0.8321002574229339	117.62404276610707	0.2833290717781267	-0.16061148565476024	0.44394055743288696	100.07263010572584
9	4.0	ltm	246	diff_vonmises	-0.3097729701835545	-17.748683798749564	8.600861390966573	0.38200757986185463	0.0930215206106699	1.5577023336467948	0.16853436689121293	-0.2542454882195208	0.42277985511073374	45.30064598506422
10	4.0	perception	246	diff_vonmises	-0.10378695453471809	-5.946554463355508	2.001899086832836	3.389086773843573	0.30963657378578	4.517190291814018	0.7925975993087293	-0.5147187037787481	1.3073163030874775	86.22222529283843
11	4.0	wm	246	diff_vonmises	-0.4505520538440803	-25.81473113621682	1.0453824906831246	173.6247438235738	1.0304039939936873	174.8015114231464	0.08136109840418726	-0.2940819322563719	0.3754430306605592	80.91910760807602
12	5.0	ltm	246	diff_vonmises	-0.1174521586424467	-6.7295129849131925	1.0875654239405927	107.74981797000649	1.0705762589983656	108.07894330809344	0.22671139305796117	-0.15331646351972417	0.38002785657768534	86.4849843798934
13	5.0	perception	246	diff_vonmises	-0.09016863558241363	-5.16628226332544	2.067890491309136	2.4704913159403006	0.23720745747114233	2.6087054392627644	0.781407483324425	-0.3081216122611896	1.0895290955856147	88.66855394389634
14	5.0	wm	246	diff_vonmises	-0.019286780211158944	-1.1050511064958422	0.47441135126007755	63.60978914562615	0.4497777859394632	63.86166928281434	0.23122237199559592	-0.2069095306417994	0.4381319026373953	129.36771283530314
15	6.0	ltm	246	diff_vonmises	-0.416633337121924	-23.871331821537456	0.5565147389587662	102.29198933276632	0.5441674302733628	102.70473499247187	0.13247857329955082	-0.17163054632541552	0.30410911962496634	117.95738576004891
16	6.0	perception	246	diff_vonmises	0.0008302363254848718	0.047569037448732865	0.3991703635117223	160.1216520329452	0.38751154487300526	160.3991870920244	0.2792810450143435	-0.25907643451425244	0.5383574795285959	136.32071592442497
17	6.0	wm	246	diff_vonmises	0.13708665626934669	7.854486831794192	0.0002590684795881861	3723.2939651736906	2.2074341331200584e-30	3723.6786387084594	0.09230571757689177	-0.2147312209415304	0.3070369385184222	179.3026620201949
18	7.0	ltm	246	diff_vonmises	-0.08185489211815412	-4.689939850868899	1.1062270598833839	116.35317803078983	1.0864261841102791	117.24583021067366	0.11195749649392184	-0.2409592764705426	0.35291677296446444	80.15194226334626
19	7.0	perception	246	diff_vonmises	-0.18572360562201223	-10.641178758093469	0.814503494809177	198.57063921650206	0.7954863302515878	199.40718702873562	0.4678010249565361	-0.37994374336447656	0.8477447683210126	99.69275282944405
20	7.0	wm	246	diff_vonmises	0.279201914591796	15.997091338081985	1.0076261321819793	66.3106122576229	0.9808665984759716	66.93353751568625	0.1252366371632938	-0.18302752904276076	0.30826416620605457	85.95579492121652
0	1.0	ltm	247	diff_vonmises	-0.05632038658425065	-3.2269204518227848	0.00017315225210501938	5163.558537484228	4.0368384374332385e-30	5165.825999850374	-0.21857526427322682	-0.5031681042380569	0.2845928399648301	179.89969569230806
1	1.0	perception	247	diff_vonmises	-0.03818012902168131	-2.1875602542072876	8.53015339745141	1.3267098233699353	0.24388014422813167	3.7086867755133315	0.7795740178557997	-0.6357809420874696	1.4153549599432693	44.75697765020783
2	1.0	wm	247	diff_vonmises	0.06269810484636332	3.592336791165351	3.5441792034796387	0.40939299881942126	6.884598920513848e-19	2.5026450870013845	-0.10384690054914575	-0.398062485726027	0.29421558517688123	72.85010229005829
3	2.0	ltm	247	diff_vonmises	-0.09030489164369414	-5.174089160569889	4.897660500798431	0.28943877280891334	5.978174677580946e-21	1.559245605831918	6.144416636519323e-05	-0.24814781611546524	0.24820926028183043	61.708898716983725
4	2.0	perception	247	diff_vonmises	-0.05367969737870378	-3.075620105339195	9.725119613421324	1.2185617800371786	0.12447017709531236	2.3651778538009034	1.0708517596042537	-0.3897857642397526	1.4606375238440064	42.945859788880256
5	2.0	wm	247	diff_vonmises	0.029499440306261667	1.6901934275469022	2.783951782202417	0.6442573197497213	0.06020340048805512	1.9047919269543434	0.08255906253212303	-0.28769307404811073	0.37025213658023376	78.79596988764504
6	3.0	ltm	247	diff_vonmises	-0.1977529922358357	-11.330411841196723	2.496121594322118	0.3120334323317798	0.005617232199494481	0.7104829198739043	0.0700122127835553	-0.11119492025600929	0.1812071330395646	86.71297570273735
7	3.0	perception	247	diff_vonmises	-0.07456645525647332	-4.272343179447014	2.9156260486933894	2.978093454847764	0.7901452507421814	2.9467666091286717	1.0297083926833939	-0.29974870039798013	1.329457093081374	69.76376833786773
8	3.0	wm	247	diff_vonmises	-0.12195553050348486	-6.987537186128654	1.4027204059667682	116.56330296647593	1.383903220918545	116.80382191564253	0.292741497649061	-0.15338054655242672	0.4461220442014877	77.11921119793865
9	4.0	ltm	247	diff_vonmises	-0.03414664421237641	-1.9564585979039875	3.756010963639675	0.6349311310372545	0.4614396872790629	1.9220716241265379	0.011176760885872494	-0.30008500708960584	0.31126176797547833	59.148558853940415
10	4.0	perception	247	diff_vonmises	-0.13122580536851514	-7.518684810821098	3.7510495063534304	1.82008771034191	3.298458412660393e-17	2.568058820551637	0.9420511966690749	-0.40797353455281876	1.3500247312218936	70.76151524808137
11	4.0	wm	247	diff_vonmises	-0.34230388588317157	-19.612567972033492	0.8011169833841638	144.26504225681944	0.7873203461553046	145.50670945409286	0.006073685976708987	-0.2778902714589382	0.2839639574356472	90.1612719727243
12	5.0	ltm	247	diff_vonmises	0.02323071802397311	1.3310220978321508	2.012973287317421	0.5580983456729811	0.07679599082552381	1.5199629642931223	0.028197974458500585	-0.21950298117585365	0.24770095563435424	90.4882504853392
13	5.0	perception	247	diff_vonmises	-0.06450372560606127	-3.695791240097249	3.0854028435143404	1.8244037148553902	1.436767765235013e-15	2.5644655885603416	0.8059352516054454	-0.40561026561139507	1.2115455172168406	78.20854704883891
14	5.0	wm	247	diff_vonmises	-0.2602352500070786	-14.91038150593743	1.4095792907711713	0.9275877899199303	5.322843270989002e-19	1.982361649720948	0.07147561602171504	-0.29241695475353663	0.36389257077525167	113.0890319492368
15	6.0	ltm	247	diff_vonmises	-0.2863714935854208	-16.40787795530234	0.2091526572777236	60.05510257883893	0.18812522897575643	61.103399691712745	0.01913990927753595	-0.3162975467961351	0.33543745607367104	154.13571792481451
16	6.0	perception	247	diff_vonmises	0.27169498489901395	15.566975949584135	0.03094044422900516	251.70158587464098	0.02202943174858228	252.32162008004897	0.2607562051714609	-0.4486918723406106	0.7094480775120715	174.70256635725565
17	6.0	wm	247	diff_vonmises	0.030334219092177962	1.7380227288069607	0.16071025511174958	93.0948187258713	0.14732564019901737	94.12895263163456	0.022626044312335836	-0.3232494953431235	0.34587553965545936	161.23598250239195
18	7.0	ltm	247	diff_vonmises	-0.33445480229574603	-19.162848609428604	0.5410953349000064	59.87500070085132	0.5202488595312911	60.471967456530486	0.08477729441738191	-0.18983205837264538	0.2746093527900273	117.40613952377296
19	7.0	perception	247	diff_vonmises	-0.10812875505960198	-6.1953213089190395	0.6453117920643369	193.9771185229349	0.6318406928595193	194.80053874397828	0.27259642375077675	-0.3226430717706936	0.5952394955214704	110.15432363109178
20	7.0	wm	247	diff_vonmises	0.20837736904435722	11.939143792281676	0.9868522705146362	1.9159046711762147	0.3113509947432446	2.5455384256597062	0.10996368882503438	-0.19939029674084396	0.30935398556587834	109.27178600113655
0	1.0	ltm	248	diff_vonmises	-0.4487517966658708	-25.711583997867283	0.00033642674208505136	2228.4341946074696	7.455096180098494e-26	2230.409759125561	-0.19509310256654544	-0.433728544262749	0.23863544169620354	174.30791826832035
1	1.0	perception	248	diff_vonmises	-0.11794015611216663	-6.757473180341208	11.107563414152295	0.8184487586391919	0.13022923223399904	2.9741068984595604	0.5384145475206451	-0.49921296940773674	1.037627516928382	39.89639549482189
2	1.0	wm	248	diff_vonmises	-0.06281404809161273	-3.5989798497811925	2.824748628915394	0.6940423236940299	0.16253865955723523	2.3304266133892995	0.005637967418501533	-0.3429187389030746	0.34855670632157615	73.32933420891936
3	2.0	ltm	248	diff_vonmises	-0.08976943789106837	-5.143409920419991	3.8874641142057107	0.33975119174451673	5.367900437624443e-18	1.4576120759967177	0.02518556926442672	-0.23187811685206308	0.2570636861164898	69.47083969982137
4	2.0	perception	248	diff_vonmises	0.007521037041400711	0.43092368003382014	6.477298983362296	1.4798101752175894	0.46813178120734156	2.549098945460346	0.8570181464087658	-0.43350669096425715	1.290524837373023	50.14591600037892
5	2.0	wm	248	diff_vonmises	0.49419979896361776	28.315562716829053	3.8799747334733277	0.4711995459913211	4.0328603557984614e-14	1.312118855748067	0.14744688662769773	-0.20867823954546574	0.3561251261731635	69.52807818537326
6	3.0	ltm	248	diff_vonmises	-0.17663086590070914	-10.120203147851843	1.5935136425311374	2.467578549139358	0.962985919169481	3.1279688371380256	0.06188187865228634	-0.17583251404851352	0.23771439270079986	73.59692329794422
7	3.0	perception	248	diff_vonmises	-0.07451821011491558	-4.269578936453744	4.664764573909286	1.6734706953488228	0.3108627998948837	2.278984763155609	0.9149750259127172	-0.3445534554259408	1.259528481338658	59.98492636509337
8	3.0	wm	248	diff_vonmises	0.262274594660817	15.027227347569209	1.0049258147044098	101.9880342791498	0.9904230390816139	102.03051533411988	0.26542541284078425	-0.1101839563633149	0.37560936920409915	93.55718577714089
9	4.0	ltm	248	diff_vonmises	-0.357101876769677	-20.460430395103305	5.647217898088147	0.5061964276898901	0.33119499329290486	1.9759948190117127	0.041937498668662754	-0.33425684567428493	0.3761943443429477	51.69290170881422
10	4.0	perception	248	diff_vonmises	-0.06999220285374132	-4.0102578223428935	2.3616584861200414	2.3314188141369994	0.3064767853498574	3.5645266414597105	0.5756768273765618	-0.4440054345533247	1.0196822619298864	79.767908942086
11	4.0	wm	248	diff_vonmises	-0.5510413853011183	-31.57234571479632	1.0997510404829571	161.13146818386613	1.0847864551813005	162.56827012254737	-0.06208169256270679	-0.3166547287941768	0.25457303623147	73.61630941280615
12	5.0	ltm	248	diff_vonmises	-0.268741573254375	-15.39775792718153	1.0715673436448023	144.22555561305668	1.0551187431585018	145.03194985503572	0.16205095266982283	-0.23715508928000695	0.3992060419498298	82.98025134820293
13	5.0	perception	248	diff_vonmises	-0.11844454101076753	-6.786372306281173	2.2397911760508142	2.4889973707808632	0.3479336111613901	3.288159596968872	0.6552639461099976	-0.38286729717098733	1.038131243280985	81.65470009106235
14	5.0	wm	248	diff_vonmises	-0.08434778825248343	-4.832772278130446	0.49708320606677925	70.81765841236367	0.47389075529676855	71.16208380763082	0.2229560106130748	-0.21987965092148798	0.4428356615345628	126.47296262372024
15	6.0	ltm	248	diff_vonmises	-0.42031384639655117	-24.082209469432346	0.6850247629085656	107.31669735644383	0.6691462473723838	108.09326164231977	0.108007635259316	-0.2235031748618237	0.3315108101211397	103.57749303321886
16	6.0	perception	248	diff_vonmises	0.21536811301648354	12.339683917541036	0.19565531371676032	146.17110496869597	0.1823975611240064	147.0010854323778	0.1773222285236642	-0.38600596944250753	0.5633281979661717	156.78576938419127
17	6.0	wm	248	diff_vonmises	0.4284827049082046	24.55025058558961	0.00022507471013513878	3686.4600513501555	2.0876663052731264e-28	3687.300429280306	-0.0016914806673185012	-0.2657942632893082	0.2641027826219897	174.38456025326667
18	7.0	ltm	248	diff_vonmises	-0.20018797018188003	-11.469925800712497	0.8372102043054395	45.09240307857898	0.790047843765357	46.37283895231326	0.019681692570467035	-0.29146875322805244	0.31115044579851947	89.60782362755063
19	7.0	perception	248	diff_vonmises	-0.28183107715113515	-16.14773125638593	1.0517033670980385	5.943720758751943	0.46510562104965586	7.284479862476044	0.33903739339839967	-0.4441689744100819	0.7832063678084815	100.95997182418257
20	7.0	wm	248	diff_vonmises	0.42777230687522055	24.509547776525228	1.1568435119446627	43.83746771469502	1.098478196141674	44.67117350339812	0.17698632165488704	-0.24942180669737812	0.42640812835226516	80.64436935440963
0	1.0	ltm	249	diff_vonmises	-0.02547429302008028	-1.4595694761301716	5.42408146986452	0.27638022262105283	8.041908216646685e-21	3.3969941802932246	-0.2904396181026315	-0.5406435496192613	0.2502039315166298	58.576332131821715
1	1.0	perception	249	diff_vonmises	-0.09126940939165633	-5.229351956793586	9.687854105838538	0.864293698820343	0.12337225445620315	3.992445769237387	0.3424506921164502	-0.6649488994558983	1.0073995915723484	42.44048131531915
2	1.0	wm	249	diff_vonmises	-0.1260726756777766	-7.223432228258225	3.5131333077274385	0.6362351274129163	0.12071346869586626	3.448982909165498	-0.16168123856574185	-0.5342831094331913	0.3726018708674495	66.29754465739586
3	2.0	ltm	249	diff_vonmises	-0.10537624450684964	-6.0376140711811095	2.346314955079328	0.5848143791930488	2.724447924472533e-16	2.508461777809779	-0.06723833531157336	-0.39619215813444014	0.3289538228228668	89.77213503617835
4	2.0	perception	249	diff_vonmises	-0.004173142707597107	-0.23910346445111122	6.547598235724689	1.480885867787656	0.3235077245127316	3.4107752169213117	0.7494826858605791	-0.5728631887793909	1.32234587463997	50.2300161019582
5	2.0	wm	249	diff_vonmises	0.2995793623852094	17.164633093892746	3.4836266204156536	0.5533762024817122	1.4815321758707571e-21	2.267330783072485	0.033401978935734655	-0.36048540558159525	0.3938873845173299	73.48472095888005
6	3.0	ltm	249	diff_vonmises	-0.18647141497464156	-10.684025077879541	1.9996219626348979	1.069506327486219	0.22086278721465172	2.525292831990496	0.05647535780544799	-0.33060456416887346	0.38707992197432145	83.7774647400477
7	3.0	perception	249	diff_vonmises	-0.08049892923163547	-4.612248900295003	2.9799927038137675	3.0393240186102495	0.518872998063752	4.400290874540309	0.8816589134318955	-0.5557700337250626	1.4374289471569581	69.40696763022956
8	3.0	wm	249	diff_vonmises	0.08535949742618364	4.8907389438781355	0.9083350114885695	187.8204651452215	0.8942138625155494	188.6405044176684	0.2413667972765623	-0.27196193414694747	0.5133287314235098	91.88563444906055
9	4.0	ltm	249	diff_vonmises	-0.31478313668904456	-18.03574519417195	3.1318954386685602	0.7155570151035676	0.21959896340221846	3.3778873918851686	-0.18137686602685743	-0.5158235043729406	0.3344466383460831	65.93345192597243
10	4.0	perception	249	diff_vonmises	-0.10984449157798085	-6.293625770178619	1.3617672266925138	7.832615636821416	0.6443022376913086	9.813511477218771	0.5121329310378306	-0.6184817367451209	1.1306146677829516	87.29238731842977
11	4.0	wm	249	diff_vonmises	-0.4906497360539101	-28.11215909509687	0.7880665056024636	193.26409517926052	0.7737810355984457	195.87263973691475	-0.25176841659399685	-0.49725835486487924	0.2454899382708824	81.00820356927123
12	5.0	ltm	249	diff_vonmises	-0.23698270077863653	-13.57810857222752	0.7767880961361164	71.36259428087257	0.7386236082663791	72.61576729350436	0.15412037055452998	-0.341440288759137	0.495560659313667	97.24385459940179
13	5.0	perception	249	diff_vonmises	-0.10861879830540534	-6.223398718682464	1.868495659181117	3.9653258508384703	0.4869609239962532	5.303294993298102	0.6674133751513665	-0.515099907957132	1.1825132831084986	83.5354302162624
14	5.0	wm	249	diff_vonmises	-0.16938421604672382	-9.705000695609389	0.4579783744127377	177.3857134983089	0.44647699731924123	178.357547174961	0.14811911231702624	-0.3339386364284955	0.48205774874552176	126.28579497016227
15	6.0	ltm	249	diff_vonmises	-0.37444549353323003	-21.45414643714724	0.7020145262304776	163.02629899094984	0.6903741301177135	164.21264183114084	0.0262188566477235	-0.2761597128599469	0.3023785695076704	97.67956061895822
16	6.0	perception	249	diff_vonmises	0.12602828173944475	7.220888642955845	0.09084358971116654	127.3849075652008	0.07573811704212484	128.610118326959	0.10840160527194342	-0.4735021925850802	0.5819037978570236	169.73343414947573
17	6.0	wm	249	diff_vonmises	0.26270172215966175	15.051699950566993	0.22122168320034827	3.9324218065945082	2.371278288702979e-19	5.218558879958746	-0.05919747555592503	-0.3349864989122305	0.27578902335630545	165.6375227207729
18	7.0	ltm	249	diff_vonmises	-0.5395030388146166	-30.911247158560165	2.114192668472058	0.7105983866925031	1.5826455300937368e-11	2.159045228796888	0.035442631756284815	-0.3380974712653532	0.37354010302163804	94.10033969769664
19	7.0	perception	249	diff_vonmises	-0.19135122288371778	-10.963617475904167	0.5927131145633259	304.91889299882706	0.5805460059842189	306.853153183946	0.19470519701137334	-0.546281795376494	0.7409869923878674	110.5007071401193
20	7.0	wm	249	diff_vonmises	0.28863956909070776	16.537829109372282	0.9806029220156846	160.19872041657658	0.9623589622286635	161.82744477279718	0.009203211746694251	-0.3707117091227232	0.37991492086941747	81.15427065421841
0	1.0	ltm	250	diff_vonmises	0.20018067906997636	11.46950805077246	2.401413631515071	0.8314725525581861	9.329360324750174e-36	4.762735789309281	-0.2794963634928132	-0.7540853580530258	0.4745889945602126	88.72698809732213
1	1.0	perception	250	diff_vonmises	-0.03976490105723937	-2.2783610033351214	7.289590250128286	0.915578701047344	0.14197595431866875	4.687039041160693	0.11253495484133658	-0.7737595972695747	0.8862945521109112	48.08568797214943
2	1.0	wm	250	diff_vonmises	0.04194050656023747	2.4030140165423486	1.3039959483749175	3.17981122594071	0.3172547754974302	6.797283436158465	-0.18288687610257548	-0.7268921641619015	0.544005288059326	89.69300804268948
3	2.0	ltm	250	diff_vonmises	0.16835143529649602	9.64582671745898	0.9668403498355947	1.0075627811631656	2.0631270942375983e-24	2.9472186218654737	-0.13110492797460022	-0.420188618093718	0.2890836901191178	129.70589830493742
4	2.0	perception	250	diff_vonmises	0.0066767872126967396	0.38255172799443987	5.9988504095845	1.3618762184251	0.32660870146486604	2.9143325689198374	0.6740893957077754	-0.48007702702392857	1.154166422731704	52.37734654175773
5	2.0	wm	250	diff_vonmises	0.24778932439880746	14.197282496449702	2.8248316349753844	1.0224116198049547	0.26387306810402666	2.3550154921914785	0.16733065648765233	-0.3302271337304929	0.4975577902181452	72.54019272161085
6	3.0	ltm	250	diff_vonmises	-0.27145395817774215	-15.553166135705384	2.294723365600286	0.60429681997413	0.06637408380185512	1.70149064312235	0.04946505025534831	-0.2514045007247978	0.3008695509801461	85.91005068035159
7	3.0	perception	250	diff_vonmises	-0.08274829141902511	-4.741127860228745	4.019737445177824	1.7640404886522396	0.12918685455904821	2.7390329627406227	0.865905100560648	-0.4124269118345686	1.2783320123952167	66.038470052594
8	3.0	wm	250	diff_vonmises	0.0582758355219549	3.3389594230065787	1.94921310410745	1.05864969125059	1.3849201579306794e-18	1.5394472953793472	0.2926786532001088	-0.23410890139571083	0.5267875545958196	98.20338775058636
9	4.0	ltm	250	diff_vonmises	-0.14015047473708184	-8.030030699189656	1.778179024241399	0.892522789310042	1.5309523552987248e-18	2.954898491622987	-0.04155106995854119	-0.4580494715129124	0.41649840155437123	102.44736454532419
10	4.0	perception	250	diff_vonmises	-0.03610520680319536	-2.0686759682701212	2.021324934489679	3.346967440051856	0.3428218678968824	4.966024760397055	0.656198345343076	-0.5673982434828212	1.223596588825897	83.92031826931284
11	4.0	wm	250	diff_vonmises	-0.1797966609953571	-10.30158984557839	0.6311563332529301	184.83439314993507	0.6184013593612268	186.72406919442227	-0.06119300987050735	-0.4002642563374863	0.33907124646697895	99.50733661094928
12	5.0	ltm	250	diff_vonmises	-0.30705524015744384	-17.592969338397445	1.3825288058037348	1.5098358950066695	0.12243425366193916	3.3282534143199842	0.026108952792482376	-0.42777228527096367	0.45388123806344605	103.25152646035586
13	5.0	perception	250	diff_vonmises	-0.03905021648721313	-2.2374125937894958	0.9460402046680583	362.59285838366213	0.9298019671187482	364.44442008720654	0.5109632940883841	-0.5972594454363858	1.10822273952477	89.77298047339278
14	5.0	wm	250	diff_vonmises	-0.204470961622874	-11.715323133972106	0.3532855550369313	259.7505307161638	0.34415247842877517	261.06649334826454	0.14309448237150946	-0.4470432359736556	0.590137718345165	137.41846723796695
15	6.0	ltm	250	diff_vonmises	-0.4777303066022961	-27.371930313802373	0.6120649314838754	286.9332047518375	0.6003590537179367	289.1901633759374	0.03658001713392878	-0.5325159210918997	0.5690959382258285	104.80758390059198
16	6.0	perception	250	diff_vonmises	0.0888199694544254	5.089009386219464	0.5992480668542174	242.1434793423551	0.5808507674882303	244.21467011866176	0.29980041522944845	-0.6330540128207893	0.9328544280502378	111.46824206453206
17	6.0	wm	250	diff_vonmises	0.008144228278345692	0.46662990774030483	0.5818776169072135	13.819264311398559	0.38847616425385284	15.976006937425137	0.010237741694890001	-0.5295684502225773	0.5398061919174673	117.85796709950472
18	7.0	ltm	250	diff_vonmises	-0.4492753978951051	-25.74158413845027	2.153705369202628	0.6897798137690102	3.352056173909968e-23	2.870594804113426	-0.08480237212310815	-0.4518579945420623	0.3670556224189542	93.39965304068626
19	7.0	perception	250	diff_vonmises	-0.08562874869107721	-4.906165904985096	0.404905534415731	263.9230362868376	0.389950015478772	266.33328333623655	0.17811003176326068	-0.7352476267620318	0.9133576585252925	131.1397700857209
20	7.0	wm	250	diff_vonmises	0.21486838849600112	12.311051811598194	0.7124491615883989	51.10593466577553	0.6496391774566714	53.047630131417016	0.07728794714182641	-0.46873247633031756	0.546020423472144	99.75873940570798
0	1.0	ltm	251	diff_vonmises	-0.09211599830830065	-5.277857928699858	4.796219342070487	0.26468195295949676	3.3487555148995437e-19	2.4223468459563673	-0.1610700205797389	-0.3855131550166772	0.2244431344369383	62.376053333479746
1	1.0	perception	251	diff_vonmises	-0.11310205103238427	-6.480270178428874	16.055375176384036	0.6296006435026237	0.09170452749777197	2.9437444092407	0.4853784261475238	-0.49271515297369267	0.9780935791212164	33.425648213079455
2	1.0	wm	251	diff_vonmises	-0.15354589171416272	-8.797531556794281	3.706992684965248	0.47154871622806366	0.06271282891590761	2.3252720904130624	-0.04591822605421819	-0.3615194463704425	0.3156012203162243	67.62221160214185
3	2.0	ltm	251	diff_vonmises	-0.09050243099998807	-5.185407331973263	7.468243843488254	0.3583994544257512	1.6073535077057365e-33	1.6372494340739179	0.12315339217054638	-0.2605762154165117	0.3837296075870581	49.764713110445285
4	2.0	perception	251	diff_vonmises	-0.0033626786535856912	-0.1926672947091943	7.104530616198566	1.3654444639372256	0.4153713237304361	2.735313144863946	0.7925074331458347	-0.47427173484324847	1.2667791679890832	48.10856594417564
5	2.0	wm	251	diff_vonmises	0.18826851623427626	10.786991395414253	3.9013135309208398	0.45932157494739806	0.04538286620249838	1.6391670165886654	0.07549908491611623	-0.2551716000488345	0.3306706849649507	67.37248410748253
6	3.0	ltm	251	diff_vonmises	-0.20949600894869744	-12.00323713759529	1.9366669868319866	2.6793146234993355	0.993716680694574	3.630441648622275	0.11931605683465185	-0.2703764735587509	0.38969253039340274	69.43126872715564
7	3.0	perception	251	diff_vonmises	-0.0518715027370789	-2.9720181838359188	3.8121484990140786	2.649786344017433	0.6307903269588512	3.6387431530082672	0.9968166236102133	-0.5023021170844245	1.4991187406946378	62.08649027334445
8	3.0	wm	251	diff_vonmises	0.09928477553789748	5.688598608225243	1.2302051612273823	80.0212625367991	1.1973061465585213	80.65077897179516	0.2469151062301158	-0.22714630505572408	0.4740614112858399	79.61892308393445
9	4.0	ltm	251	diff_vonmises	-0.405498086320015	-23.233328946768403	15.69274958479179	0.24015276914021258	2.9974442105205134e-16	1.9711178941967757	0.06265505738230254	-0.3137131562782955	0.376368213660598	34.192798044849155
10	4.0	perception	251	diff_vonmises	-0.10872301209395585	-6.229369728933477	1.5183063589329	7.833483663619911	0.7479506487106217	9.538262935908403	0.6166691291134474	-0.5892168660817408	1.2058859951951884	82.92738700892477
11	4.0	wm	251	diff_vonmises	-0.3040497147336542	-17.42076541639503	0.7801087289118703	170.17463973913044	0.7687109318253926	171.81993834402942	-0.11937374972635695	-0.32418871753838374	0.2048149678120268	84.76529064545504
12	5.0	ltm	251	diff_vonmises	-0.07394240075449271	-4.236587490297386	1.0931307788707978	134.75179192274692	1.0716299029357634	135.74545404870423	0.19058680174963882	-0.28947658376958607	0.4800633855192249	82.04892123294968
13	5.0	perception	251	diff_vonmises	-0.07300520967033962	-4.182890396578125	0.98258609983805	281.36769271036815	0.9648246482241508	282.55087069116746	0.5509955926478369	-0.4634997558663798	1.0144953485142167	89.89861734838476
14	5.0	wm	251	diff_vonmises	-0.06317716212309796	-3.6197847512672765	1.4159928149894547	1.1867116708400067	3.075392824668016e-17	2.001603330172691	0.17785695667762663	-0.2893260727595663	0.4671830294371929	113.1307879498007
15	6.0	ltm	251	diff_vonmises	-0.3990567633197368	-22.864268324371917	0.8181253642245748	139.9374231300985	0.8010283555838791	141.09211342714954	0.10601998888202502	-0.2966628768019959	0.4026828656840209	93.00040400887073
16	6.0	perception	251	diff_vonmises	0.02323495905755214	1.3312650911570025	0.6230064630089636	90.10208460629002	0.5912207168506273	91.31032933005534	0.22355673107395901	-0.39089942367903774	0.6144561547529968	110.76408368693478
17	6.0	wm	251	diff_vonmises	0.1612152345417282	9.236952532452712	0.20324839689683025	5.2852865779936415	1.245332257424955e-16	6.451469967369285	-0.006586586612163048	-0.34735112750141184	0.3407645408892488	167.68123738861397
18	7.0	ltm	251	diff_vonmises	-0.12694626925526614	-7.27348545325811	1.2256645627631588	210.63677933775907	1.2108825696410694	212.17071715465087	-0.011095062513206244	-0.3650450621845991	0.35394999967139285	71.56191188704645
19	7.0	perception	251	diff_vonmises	-0.24081131448964732	-13.79747197925436	0.5693426110909048	189.6053023349752	0.5527565715250019	191.29860567147725	0.15814572323314735	-0.4796705074459453	0.6378162306790927	112.88804232252957
20	7.0	wm	251	diff_vonmises	0.6848878403577502	39.24118269232878	9.918866989883814	0.3078016415046378	0.11708679318662331	1.5803879102309244	0.09978043028070843	-0.2631387521078825	0.36291918238859094	41.92552219903601
0	1.0	ltm	252	diff_vonmises	-0.07459500651055034	-4.273979045805433	0.0005762306056132656	1535.4371840320584	5.5366563186146735e-27	1537.868206312908	-0.24607567584519074	-0.527702180621759	0.28162650477656825	179.80839474940336
1	1.0	perception	252	diff_vonmises	-0.10079012516066213	-5.774848788301268	10.304720706429064	0.8356426586811184	0.17364762926296087	3.3718829557802	0.4228419313636633	-0.5757789218646497	0.9986208532283131	40.99826127326523
2	1.0	wm	252	diff_vonmises	-0.024722457681793313	-1.416492484357538	2.292292274750103	0.9246355924028489	0.1403693680575466	2.9755665279393817	-0.024602403600490708	-0.42555823240163504	0.40095582880114433	80.90326425010929
3	2.0	ltm	252	diff_vonmises	0.001929465994500484	0.11055025819888983	3.3919495028920963	0.38144380249794707	2.879085315327738e-40	1.7091543919034076	-0.004266294845975405	-0.271717307849859	0.2674510130038836	74.50625736159557
4	2.0	perception	252	diff_vonmises	-0.004732501167837449	-0.2711523434578191	6.9071197210950634	1.3075934934164881	0.37479260179363855	2.518754755452449	0.7809786082793037	-0.42868482061213037	1.209663428891434	49.06631071552184
5	2.0	wm	252	diff_vonmises	0.3792541729118771	21.729663470575307	3.6823321834440823	0.5142240934240394	0.0014112115863816358	1.445979412383364	0.14733384352774775	-0.22957086770408108	0.37690471123182884	71.35110131882328
6	3.0	ltm	252	diff_vonmises	-0.2692570724254012	-15.427293854023825	2.8758854401261114	0.5247075540570239	0.27857074199478815	1.23872318898117	0.07992922938836167	-0.1744706569550996	0.2543998863434613	71.48207876386633
7	3.0	perception	252	diff_vonmises	-0.08249470526534247	-4.726598443879774	4.441324353633553	1.705909064801066	0.2567909070233713	2.3536722969340813	0.9117676383517175	-0.3528741853891038	1.2646418237408212	61.82273707967795
8	3.0	wm	252	diff_vonmises	0.1246326203555081	7.140923136026887	1.0321488404756363	113.33934002729458	1.0167106201654759	113.48632427728435	0.2795817676693062	-0.1357795381749085	0.4153613058442147	91.124929906143
9	4.0	ltm	252	diff_vonmises	-0.3171548689844991	-18.171635444836372	11.782295647109258	0.26887124430373494	6.019319241314424e-39	1.7140422209138981	0.09130391322237297	-0.27279829210541034	0.3641022053277833	39.50658801445098
10	4.0	perception	252	diff_vonmises	-0.07739071361056828	-4.4341612633912195	2.388836481013936	2.535983985342262	0.3168543093716156	3.855501245036856	0.6333411458792442	-0.47946363290372707	1.1128047787829711	79.20692718619895
11	4.0	wm	252	diff_vonmises	-0.34618066071036446	-19.834690807754203	0.8431357469942281	158.30122349790577	0.831123931629208	159.61376265020746	-0.04339895053171006	-0.27719129892415495	0.2337923483924449	85.18288852726907
12	5.0	ltm	252	diff_vonmises	-0.26335216839366554	-15.088967774575588	0.9193792983873069	123.8373068478596	0.8997077579733748	125.00844309180984	0.08585892510235027	-0.29119691605912834	0.3770558411614786	86.8829684151742
13	5.0	perception	252	diff_vonmises	-0.0664356061532176	-3.806479841972731	1.378617758780911	6.709082083083252	0.6654882370563114	7.961043227321799	0.5487656051091565	-0.4718068829619702	1.0205724880711267	88.14391828913779
14	5.0	wm	252	diff_vonmises	-0.16497137705097178	-9.452163645482049	0.4680574348853444	152.47081273862284	0.45551840902735036	153.16986441478986	0.1883483556936696	-0.28986269259608477	0.47821104828975436	126.76228212606608
15	6.0	ltm	252	diff_vonmises	-0.42372624399199704	-24.277725449671987	0.6691923736397857	71.21232189526872	0.6338562662921414	72.64081647498128	0.0897839463679091	-0.3634357102799344	0.45321965664784347	103.16128609062586
16	6.0	perception	252	diff_vonmises	0.15017509214476452	8.604398967883249	0.5188665533071078	77.75820601645863	0.4796112743142632	79.11449296074059	0.24091312662519115	-0.47074290453366974	0.7116560311588609	121.6207993507082
17	6.0	wm	252	diff_vonmises	0.31001243605805084	17.76240418269561	0.00031157354139116686	3469.332306369256	1.0399701994482091e-27	3470.7014539256884	-0.04585580340631168	-0.389930598991441	0.3440747955851293	176.93845644221926
18	7.0	ltm	252	diff_vonmises	-0.20748304459215955	-11.887902775655402	0.8022622002849777	134.6303971854763	0.784297419981553	136.2168719015453	-0.015081551732123444	-0.34672030354854044	0.331638751816417	89.32430742210369
19	7.0	perception	252	diff_vonmises	-0.23381803136050866	-13.396786371014672	0.5377199369965813	106.15882457555159	0.5050134754899951	107.82079228281312	0.2393444693156077	-0.5341874028377429	0.7735318721533506	118.5411912201797
20	7.0	wm	252	diff_vonmises	0.37915985777149425	21.724259611087188	0.9495045009421927	65.08931190894583	0.9084461201930003	66.16845250196252	0.15817499285643777	-0.29662537819881774	0.4548003710552555	87.96366817398928
0	1.0	ltm	253	diff_vonmises	-0.1300117897790763	-7.4491268412831655	1.9186600326575616	0.7687940783910853	2.809339858747092e-13	2.283146907542383	0.023366742665508977	-0.35503837291784973	0.3784051155833587	98.91784123433243
1	1.0	perception	253	diff_vonmises	-0.0793662808236392	-4.547352926844605	16.49914750263623	0.6947954218575955	2.130459138230019e-18	2.3980124224366923	0.7348919318088374	-0.38165553062656465	1.1165474624354021	33.349728666619484
2	1.0	wm	253	diff_vonmises	-0.18099677935275704	-10.370351562373578	4.764371612179886	0.4186744966963763	9.848426000811501e-18	1.8031380676354882	0.06679138051856442	-0.286952601403219	0.3537439819217834	62.59076380925609
3	2.0	ltm	253	diff_vonmises	0.008118190443683258	0.46513804970648787	3.855125916833039	0.4907512879616885	1.1401493478281656e-14	1.3607722596490341	0.15315655729039637	-0.2164078731902561	0.36956443048065246	69.77662127767712
4	2.0	perception	253	diff_vonmises	-0.007636399193103077	-0.43753344444191367	5.6816712135613034	1.4570329943591953	0.35478672688888074	2.182720990391637	0.8717228569416293	-0.34927275462775925	1.2209956115693885	54.304323085615835
5	2.0	wm	253	diff_vonmises	-0.030972729652580383	-1.7746066890925525	2.5973244298947766	1.129778048618561	0.518988667749732	1.9116592943239723	0.20242427125717488	-0.2344995166440993	0.4369237879012742	71.39336503383359
6	3.0	ltm	253	diff_vonmises	-0.20684354175365371	-11.851261962022381	1.4205068741912492	166.1833735541128	1.403615895674904	166.909395526876	0.19770637805561364	-0.24133948712199071	0.43904586517760436	72.327355484517
7	3.0	perception	253	diff_vonmises	-0.0318158936083092	-1.8229164251933692	3.5031056201804116	2.7267260221633016	0.4463790471567338	3.302041731565822	1.1669237494268896	-0.4418769433532266	1.6088006927801162	67.03579607654817
8	3.0	wm	253	diff_vonmises	-0.08561426029809163	-4.905335781215096	3.0176459886642113	0.8541180137287719	4.5204269300013e-17	1.4624540345110297	0.3285244539695811	-0.23141374506111242	0.5599381990306935	79.09714867144976
9	4.0	ltm	253	diff_vonmises	-0.22543864990719062	-12.91668317880935	3.37091804471051	0.5904013186467072	8.937894598448965e-16	1.7362002913554615	0.13666925859146234	-0.27583732474492345	0.4125065833363858	74.73879657333995
10	4.0	perception	253	diff_vonmises	-0.10250348878285127	-5.8730172926239534	1.7709333014487398	5.04294457451902	0.44633364068677295	6.298125880861722	0.9253308199379158	-0.5957378881161333	1.521068708054049	87.15772022364547
11	4.0	wm	253	diff_vonmises	-0.2848400018725707	-16.320129943796765	0.7888984238656106	200.57957506026534	0.7769653313011446	201.70536419198555	0.12019620780187523	-0.2973204338013353	0.41751664160321056	95.11924293384295
12	5.0	ltm	253	diff_vonmises	0.015244642963077077	0.8734537019681262	1.0142013032089399	116.39118910344169	0.9963305566238241	116.84181001347396	0.23962793673003802	-0.18653631815050709	0.4261642548805451	88.874210503717
13	5.0	perception	253	diff_vonmises	-0.026051953791310898	-1.4926670003119582	0.8865896394500594	231.2158866877169	0.8678412730674001	231.62724178447195	0.6961295670479899	-0.3723080423732483	1.0684376094212382	98.21013678456396
14	5.0	wm	253	diff_vonmises	0.01319638755115263	0.7560973115000255	0.43388295728334775	53.01259850905124	0.39989214076483753	53.63862563207668	0.18889964144920945	-0.28221386198472675	0.4711135034339362	131.97293125328133
15	6.0	ltm	253	diff_vonmises	-0.44747383468224333	-25.638362169827264	0.6182907621788922	106.20810002188068	0.6001431458366543	106.94556629508031	0.16925140036991948	-0.255739004851689	0.42499040522160847	111.3684623392172
16	6.0	perception	253	diff_vonmises	-0.047760158956343196	-2.7364555370724037	0.7065864904746442	255.33427745375963	0.6953450358025263	255.8207745495454	0.40909949248586486	-0.30239003534500597	0.7114895278308708	108.1085039109133
17	6.0	wm	253	diff_vonmises	0.00689588908857203	0.39510534076549325	0.00043599486216649265	3438.612231736222	1.788806071502734e-26	3439.2095308056205	0.14356506767956034	-0.3336392555299881	0.4772043232095484	179.95940686422787
18	7.0	ltm	253	diff_vonmises	-0.044845862452614536	-2.56947864715902	1.247277784484898	159.51395561105696	1.2294886401178664	160.66300793455036	0.07916402009260537	-0.29884149498208856	0.37800551507469393	73.72745470916846
19	7.0	perception	253	diff_vonmises	-0.005331072695073152	-0.30544796570512484	0.47754632910174327	168.2546934419569	0.45811581033132104	169.34461137416778	0.34736602237151004	-0.4832757672552308	0.8306417896267408	126.68534501655552
20	7.0	wm	253	diff_vonmises	0.2880079417046771	16.501639525927846	0.8887472726699468	109.92497433755801	0.8729515667649099	110.8246631085402	0.0452451468643531	-0.21625733757536914	0.26150248443972224	87.50854128771462
0	1.0	ltm	254	diff_vonmises	0.01578016551603934	0.9041368840869348	4.53388150143712	0.45476342933995834	1.3151819345142556e-16	3.8269581326645223	-0.23487298094034154	-0.6090361482154104	0.3741631672750689	64.19673036012665
1	1.0	perception	254	diff_vonmises	-0.0635052403361937	-3.6385822482278565	8.991481174126413	0.855639657589241	0.0670359043290418	4.192027916597173	0.29572631647131586	-0.6799954742726955	0.9757217907440113	44.46213316542517
2	1.0	wm	254	diff_vonmises	-0.14195663099621744	-8.133515829979263	3.822525358184685	0.6657589120967755	0.09521546322199193	3.938445638534412	-0.188573892724002	-0.615380927467104	0.42680703474310205	64.71613121350998
3	2.0	ltm	254	diff_vonmises	0.013702187393338503	0.7850775077356591	2.2362101243816075	0.6371650725337594	6.427663837768213e-16	2.5597511846006866	-0.05588785073648522	-0.40338281784302504	0.3474949671065398	91.92972282099905
4	2.0	perception	254	diff_vonmises	0.008490997696615385	0.486498331871365	5.587493230562715	1.623343807879351	0.33806438191848737	3.399571220829262	0.7553818512580772	-0.5526529674322513	1.3080348186903286	54.000578472488115
5	2.0	wm	254	diff_vonmises	0.16064738664254255	9.204417244424004	2.5709249504819076	0.9918103006670225	0.18535541408802414	2.738729278883193	0.07401982908262428	-0.3894214721390393	0.4634413012216636	76.49716843001414
6	3.0	ltm	254	diff_vonmises	-0.1547288751627563	-8.865311515632525	1.2079827928116702	3.6855735094636706	0.53098401289638	5.3126435953328714	0.061096409323017076	-0.3810806641388494	0.44217707346186647	88.97373281688019
7	3.0	perception	254	diff_vonmises	-0.05936929112771529	-3.40160981430157	3.0105539298838093	3.027055188787756	0.4263586384329912	4.438225434676727	0.9520541213441989	-0.5774865881420783	1.5295407094862772	70.49970119984144
8	3.0	wm	254	diff_vonmises	0.046568882698133765	2.6682004352428663	0.7756475238748607	68.82724567301952	0.7326926844750768	69.9303937445134	0.24361031703890035	-0.34780307257595666	0.591413389614857	99.62808196789982
9	4.0	ltm	254	diff_vonmises	-0.24095323367845412	-13.805603349804908	2.2472118453480694	0.7109091549405335	1.602122993181841e-11	3.44228567003486	-0.15451299265158314	-0.5434625768585627	0.38894958420697956	91.65658428559712
10	4.0	perception	254	diff_vonmises	-0.07123161710322147	-4.081271027906481	1.0965267766354365	18.382109036566657	0.7485617861796225	20.378865096863414	0.627681542981497	-0.6744921869456095	1.3021737299271066	91.24256913536433
11	4.0	wm	254	diff_vonmises	-0.24715976810051266	-14.161211577591532	0.6078006730797775	222.74325027575009	0.5948019490038574	225.50719780480372	-0.18318699385397252	-0.5461810493684922	0.3629940555145197	97.68490144899185
12	5.0	ltm	254	diff_vonmises	-0.187120846561339	-10.721234766879789	0.6794363431924133	160.27407241108585	0.6629646981690467	161.47132804678893	0.17018875689722535	-0.3472959389090189	0.5174846958062442	104.13315165025867
13	5.0	perception	254	diff_vonmises	-0.08550324802453298	-4.898975246466033	1.0138440072632267	243.75642560069238	0.989907399946934	244.99206383180172	0.6837125083986564	-0.5217164979591686	1.205429006357825	89.15749665848304
14	5.0	wm	254	diff_vonmises	-0.09682565927758814	-5.547701625177524	0.375883075109406	198.03777134836028	0.3648722200203676	199.17268477386054	0.14562556727256037	-0.39512100483199575	0.5407465721045561	135.41233502241113
15	6.0	ltm	254	diff_vonmises	-0.4479991703026567	-25.668461683704834	0.6526343318183555	181.05764764579538	0.6414692874927425	182.2486028142439	0.05849435738334563	-0.2956978468432361	0.3541922042265817	102.93007442848067
16	6.0	perception	254	diff_vonmises	-0.008955238983574495	-0.5130973982898437	0.31484823480150587	238.18458215527124	0.30410361750259846	239.3257999712605	0.2184994701877656	-0.4674500582706642	0.6859495284584298	143.33764883400914
17	6.0	wm	254	diff_vonmises	0.13505823046649948	7.738266594235611	0.450381007603936	2.9707474147724984	1.860802750627908e-12	4.239883230765314	0.03075760011595874	-0.38815653453526827	0.418914134651227	154.42768021545967
18	7.0	ltm	254	diff_vonmises	-0.5434537301468916	-31.13760509805844	2.4465167881318584	0.6356427187830507	4.22032050818061e-15	2.2102703301770936	0.01810775061523051	-0.3490017884352209	0.3671095390504514	87.72455443300802
19	7.0	perception	254	diff_vonmises	-0.04568663059941801	-2.6176511135198943	0.5572845983320455	347.377472379331	0.5456432237570611	349.40396484266535	0.2439078870601179	-0.609299785956992	0.8532076730171099	114.78953286484463
20	7.0	wm	254	diff_vonmises	0.1844516943533304	10.56830361048287	0.8973992647733909	174.85342629917267	0.8804677427185593	176.72257474024337	-0.03214313347791631	-0.40690305967949314	0.37475992620157683	83.66486131785038
0	1.0	ltm	255	diff_vonmises	-0.27432775126667563	-15.717822350895137	0.0005417275607168556	1538.3107849371836	1.4531300750430652e-27	1540.3673344487488	-0.19466263897837166	-0.4599214787808421	0.26525883980247045	177.82818442602786
1	1.0	perception	255	diff_vonmises	-0.12435993257273109	-7.125299276948985	12.363464627101177	0.6916936206814839	0.07234171387432563	2.9280305779040168	0.4597363319680099	-0.480716830725991	0.9404531626940009	38.099787369454305
2	1.0	wm	255	diff_vonmises	-0.05607736526226436	-3.212996355741281	2.3939380206634016	0.9408826641225585	0.20656996622722967	2.6710021516244717	0.023407159328585725	-0.3733291110835856	0.3967362704121713	77.4914714219718
3	2.0	ltm	255	diff_vonmises	0.004231383465436034	0.24244041407092523	3.154672945926828	0.3742141752399183	2.4312987957798654e-27	1.4333277252810337	0.024061433305423874	-0.22766239024789475	0.2517238235533186	77.32570905443242
4	2.0	perception	255	diff_vonmises	0.02513785926019215	1.4402932416028642	5.834665665430007	1.5504416636591194	0.5529840898331666	2.4947435085215868	0.8184385514054348	-0.41551785530811014	1.233956406713545	52.0873775368041
5	2.0	wm	255	diff_vonmises	0.45489563201910027	26.0635998336306	3.620929088100127	0.497675510801952	1.1389116009410348e-13	1.2183726774309949	0.16835709919058878	-0.19365065692345315	0.3620077561140419	72.03037649842884
6	3.0	ltm	255	diff_vonmises	-0.20043736943624632	-11.484215325401395	1.3767129075147397	66.66258406165008	1.3479116285808763	67.35538895840853	0.06371886227517365	-0.19080086696527232	0.25451972924044597	70.70230236320816
7	3.0	perception	255	diff_vonmises	-0.0635882596223408	-3.643338902942274	5.358777984655952	1.5113763219659426	0.21810983770964684	2.174927035839871	0.9341635980105607	-0.339148996148459	1.2733125941590198	56.89992643276972
8	3.0	wm	255	diff_vonmises	0.31125150140486213	17.833397397608813	0.8932480261749562	90.88697780389323	0.8762754333454122	90.95139711237039	0.273498008664248	-0.1256737566499373	0.3991717653141853	98.9255862643227
9	4.0	ltm	255	diff_vonmises	-0.3822713587851348	-21.90253548711947	10.054705127301409	0.30828073967234515	0.0029159652040556157	1.6933434302359789	0.11459710048267985	-0.26954663170044024	0.3841437321831201	42.751270838377934
10	4.0	perception	255	diff_vonmises	-0.031253221104815196	-1.7906776654951027	2.0717338369549245	2.999938672226214	0.41354046822704316	4.254077645091135	0.5994581041283488	-0.4666432523053969	1.0661013564337456	81.77248329570077
11	4.0	wm	255	diff_vonmises	-0.37354995208463354	-21.40283569176363	0.9211974902738519	172.54990243136754	0.9088622927663615	173.9126481437887	-0.037037540855358486	-0.29366260007595457	0.2566250592205961	81.75333669942222
12	5.0	ltm	255	diff_vonmises	-0.2612858132462408	-14.970574345653016	1.1030254667517938	151.3088276158668	1.085982410037736	152.17206501119878	0.17416322434900877	-0.25456185780963736	0.42872508215864613	81.73841568547493
13	5.0	perception	255	diff_vonmises	-0.09192775248956349	-5.267072237775234	1.0398802831239777	176.95217797557115	1.0132933508421287	177.8556871239612	0.5767957168980189	-0.40801638091611103	0.9848120978141299	88.49573001420802
14	5.0	wm	255	diff_vonmises	-0.023201044769794524	-1.3293219456032987	0.9056984892343533	1.9953209655076591	0.05720454076454244	2.3443424070423102	0.2513348362733895	-0.24649007724548389	0.49782491351887337	129.46927996331374
15	6.0	ltm	255	diff_vonmises	-0.47210780675166464	-27.049784802048254	0.7350297094657073	148.03125253891272	0.7204068036547973	148.9012622620735	0.16205496101973438	-0.2637393124802401	0.42579427349997445	100.82682995953698
16	6.0	perception	255	diff_vonmises	0.011951435851321458	0.6847668334020616	0.6616980509954709	171.61698656281368	0.6445873455577809	172.59328263516744	0.2907039069262112	-0.3618316822018901	0.6525355891281013	108.48571343828743
17	6.0	wm	255	diff_vonmises	0.3575519282336383	20.486216444551975	0.00018016177054199127	6334.280073216992	3.693938688671311e-30	6335.176781081358	0.038912993288022335	-0.32432761278414546	0.3632406060721678	176.0097586580735
18	7.0	ltm	255	diff_vonmises	-0.04309725627366836	-2.469290893074906	1.0038250829414241	119.67367469231526	0.9812181426364237	121.31048406797089	-0.04139959017935979	-0.3591220155945578	0.317722425415198	78.5092142550067
19	7.0	perception	255	diff_vonmises	-0.24307143390558647	-13.926967282983245	1.8190005983680761	1.7994956293382658	1.4969210741225377e-12	3.3538303536895095	0.3426511106794701	-0.5107242395120173	0.8533753501914874	101.31237762825863
20	7.0	wm	255	diff_vonmises	0.512510299869906	29.36467713952984	1.2318333355771474	45.947230394055	1.1691262369734454	46.96145763127644	0.1534060664604162	-0.2864975464330568	0.439903612893473	76.94889602088921
0	1.0	ltm	256	diff_vonmises	0.03904377614043779	2.2370435891006677	0.5526351733582401	2.161707950424362	1.6359793512296305e-26	4.612225764063566	-0.17933731382332785	-0.5503767524826634	0.37103943865933553	149.42216514772173
1	1.0	perception	256	diff_vonmises	0.0007540743677542962	0.04320527871131711	7.985857336193508	0.8960218759179875	2.4339828067700668e-22	3.612393928124246	0.4184011534028267	-0.5749302350638564	0.9933313884666831	48.09725112598298
2	1.0	wm	256	diff_vonmises	0.03206170494845447	1.8370003775401478	2.7236447900036334	0.7833903726509229	0.06464445972057282	3.2831695189210284	-0.0714826213081568	-0.49803052582539953	0.4265479045172427	78.10744487402476
3	2.0	ltm	256	diff_vonmises	0.45029462384717445	25.79998148387405	0.3648351439548264	47.547694047155474	0.34360747644932643	48.45630904909324	-0.014811372378948917	-0.22792141860824966	0.21311004622930074	131.92680871199101
4	2.0	perception	256	diff_vonmises	0.03007195055125433	1.7229958483129826	5.654628380628144	1.7368951864583604	0.5525661648945596	2.3199003026723037	1.0123039451458269	-0.3749259910478316	1.3872299361936584	53.391119177135266
5	2.0	wm	256	diff_vonmises	0.05580478249824774	3.1973785137951176	1.707270667981344	3.625373498679636	0.9494421333129115	4.466590772918244	0.215402968374105	-0.2663831520461843	0.4817861204202893	75.02837088781905
6	3.0	ltm	256	diff_vonmises	-0.24358898025390488	-13.956620504444297	1.3636637928329365	89.74714606200845	1.3474375462285069	90.27796923910722	0.04655630956458623	-0.145273324020728	0.19182963358531424	70.77641503794842
7	3.0	perception	256	diff_vonmises	-0.019238243889863837	-1.1022701801325416	5.618501541256137	1.608135226281941	0.265824542261079	1.7631101335586246	1.12379727673722	-0.2744601476208448	1.3982574243580648	55.72525030937231
8	3.0	wm	256	diff_vonmises	0.08181338935943663	4.687561917956237	2.3445823699920876	0.8141892713249446	0.10874540343470188	1.2000051079996972	0.24969363319093638	-0.1678926500892114	0.4175862832801478	85.70166914593159
9	4.0	ltm	256	diff_vonmises	-0.5261573836047712	-30.146597440199244	0.27061702571555024	81.79126188696318	0.2498733982620613	83.07973350500589	0.04077502251056231	-0.3883460844499034	0.4291211069604657	143.98527476899545
10	4.0	perception	256	diff_vonmises	0.015631294104762956	0.8956071805306418	2.7562115662014923	2.621219077785663	0.18547577570364096	3.254065747943674	1.0171250923276216	-0.4423534520438835	1.459478544371505	78.33670228131564
11	4.0	wm	256	diff_vonmises	-0.054231586668873656	-3.1072410324243998	0.6645928508879717	205.80455533398538	0.6507185923478352	207.3018257153233	0.13096755603744015	-0.3975831989974843	0.5285507550349244	103.58881465091339
12	5.0	ltm	256	diff_vonmises	0.02352742254981717	1.3480220149254456	0.8436875148801887	125.88624302511619	0.8271952271352827	126.77294583729909	0.12244108928754827	-0.2431146314926842	0.36555572078023246	92.77947600124034
13	5.0	perception	256	diff_vonmises	-0.04755084816359637	-2.7244629120414734	0.9582745808236754	308.5361164698773	0.9434404030781456	309.16445644013527	0.6611292461789304	-0.3899163861687285	1.051045632347659	93.38923279870139
14	5.0	wm	256	diff_vonmises	0.25379268391422044	14.541249659582569	0.2657665362168705	177.49350158863973	0.25420145722826726	178.3178697997204	0.1964335537311186	-0.3797576779705203	0.5761912317016389	148.39064681104293
15	6.0	ltm	256	diff_vonmises	-0.6157972417141461	-35.28258298601797	0.6643878358391708	195.3659145061147	0.6530211550325975	195.8931367870467	0.27699342049665177	-0.2554427954964176	0.5324362159930693	109.88033435703441
16	6.0	perception	256	diff_vonmises	-0.0668273085551836	-3.828922736430519	0.7688118258031083	257.1934775274366	0.7544426621526596	257.57888820823985	0.5919561355858747	-0.3508056838329914	0.942761819418866	105.0931825379755
17	6.0	wm	256	diff_vonmises	0.0486995207111747	2.7902770010602516	0.527991311349584	4.908413721217116	2.0851274272589755e-15	5.457704988200341	0.36820204675941015	-0.4383883205320773	0.8065903672914875	150.6751007406596
18	7.0	ltm	256	diff_vonmises	0.08867943483761134	5.080957345800531	0.9043008085307486	89.60311338367315	0.8837405588379272	91.01739828878597	-0.1010699854140995	-0.285843086004439	0.18477310059033947	78.92868695264988
19	7.0	perception	256	diff_vonmises	0.05586174318950299	3.200642121002191	1.6037872036646454	2.08665760392185	2.815343611041992e-12	3.3717612510355646	0.4046705369395167	-0.49855166488859304	0.9032222018281097	107.31372751341985
20	7.0	wm	256	diff_vonmises	0.014259649565699499	0.8170177374501386	0.34608249181257966	95.27322914269715	0.32942093214329793	96.6277679318604	-0.004789124367611919	-0.35532109953578583	0.3505319751681739	136.35318299216664
0	1.0	ltm	257	diff_vonmises	-0.8516899484860719	-48.79823950196642	0.9987201273874183	0.6296742021947082	2.740790154046066e-32	1.502904258550436	-0.024182158383184743	-0.2100209242499395	0.18583876586675477	122.52570439283306
1	1.0	perception	257	diff_vonmises	-0.10010406219917294	-5.735540276127692	15.177768669510078	0.7883358194610036	0.19637172462200989	1.9075096021452724	0.8487256188473796	-0.33585444583504487	1.1845800646824245	34.280880329649676
2	1.0	wm	257	diff_vonmises	-0.03610649660835765	-2.0687498686623145	3.905796467096967	0.2992372528591337	4.2461296073561464e-19	0.8898478494619445	0.0854679678100797	-0.1415317083950142	0.2269996762050939	69.3036858633684
3	2.0	ltm	257	diff_vonmises	-0.16528357150160936	-9.470051069890987	128.95910545509258	0.46027457402151534	2.4029845225426449e-60	0.5349922364123488	1.9890298981369223	-0.08514665894081319	2.0741765570777355	11.940415986498806
4	2.0	perception	257	diff_vonmises	-0.025565819271770377	-1.4648135440666663	9.178636177812264	1.2853013262722792	0.6256965687565285	1.5846363429064676	1.102187750978755	-0.29890000134111433	1.4010877523198693	42.849754846962895
5	2.0	wm	257	diff_vonmises	0.1195600847726264	6.8502882556978335	4.456431333565719	0.26693118130435595	3.8482568991859285e-11	0.6348902105832207	0.11657013787405972	-0.10101661334422475	0.21758675121828447	64.76849746622543
6	3.0	ltm	257	diff_vonmises	-0.21932721433706293	-12.566523713874906	2.9270024617504067	34.888597243051706	2.886053276638999	34.982458839839566	0.12102229954453492	-0.07945541750284679	0.2004777170473817	52.01224170652566
7	3.0	perception	257	diff_vonmises	-0.04330813668651068	-2.4813734507127476	3.577414992659762	4.226902998589488	1.8825577232536552	3.9147990013217338	1.109175056981943	-0.2739201530575429	1.3830952100394858	57.79743436514835
8	3.0	wm	257	diff_vonmises	0.09527553662844465	5.458886139653964	2.196274657481734	79.72478942252573	2.1757513051990744	79.69076815401755	0.26235060645004893	-0.0786661490949232	0.3410167555449721	63.83249548341436
9	4.0	ltm	257	diff_vonmises	-0.40755668705201964	-23.35127808041481	22.709894932365966	0.20151583503777784	0.4032785170112279	0.7279794047274284	0.21422921329580297	-0.14985479163008686	0.3640840049258898	27.70862350164404
10	4.0	perception	257	diff_vonmises	-0.10739427658969139	-6.153238792449937	3.669725976453469	1.8229754245800665	0.26120015221173254	2.3910870582384827	0.8509975316607212	-0.34101699723066303	1.1920145288913844	67.53110508380985
11	4.0	wm	257	diff_vonmises	-0.3146964662525709	-18.030779343953455	1.0815378323887461	77.20421350099967	1.0667048335606795	77.71970175954692	0.03241525633726994	-0.12853397371081599	0.16094923004808592	79.26597046129112
12	5.0	ltm	257	diff_vonmises	0.05821663782034577	3.335567644547501	1.8957318044664533	106.35010348704384	1.8723670038223428	106.8131046306248	0.16884491716712802	-0.18714120715248406	0.3559861243196121	62.70501148217795
13	5.0	perception	257	diff_vonmises	-0.06672056045039966	-3.8228065205553796	1.9558382035551873	2.323614196357328	0.3300842768293402	2.730542635712623	0.5942238756472549	-0.29576782129096246	0.8899916969382173	87.64337881665983
14	5.0	wm	257	diff_vonmises	0.061384448060460624	3.5170698016044057	2.9941594622780734	0.5469578087846668	9.739477522078768e-25	0.879385108356901	0.21783986739074365	-0.13906098192271618	0.35690084931345983	79.4182981463596
15	6.0	ltm	257	diff_vonmises	-0.4407594578663775	-25.253656716217662	2.035920394395241	0.7454686970647246	7.248200258567961e-23	1.27156632031808	0.18634955200483294	-0.1957495912312178	0.38209914323605076	95.92980960445804
16	6.0	perception	257	diff_vonmises	0.18942668896479686	10.853349804820226	1.1687948470116283	1.7705188277848798	4.100671612374878e-14	2.1648855595173577	0.31648551553394955	-0.2807218794438948	0.5972073949778444	121.61968423414697
17	6.0	wm	257	diff_vonmises	0.10649587244855804	6.10176402686592	0.0003046765717553635	3422.432305492212	9.879283354855705e-32	3422.908474919129	0.09018407992755328	-0.24172823465676174	0.331912314584315	179.54318185140806
18	7.0	ltm	257	diff_vonmises	0.10393617047529248	5.955103906986495	1.5376059418511132	143.66565312546732	1.5209869334020996	144.44966087222224	0.07264142281466235	-0.22704067956471619	0.29968210237937853	66.5081265001636
19	7.0	perception	257	diff_vonmises	-0.28497172261318476	-16.32767698630829	1.6529703517407965	1.3360640048434937	0.1355738785464863	1.9845981257350034	0.25381379313326435	-0.2520411502830193	0.5058549434162837	98.89885585249695
20	7.0	wm	257	diff_vonmises	0.6984384234964653	40.017573916118295	10.009572494140208	0.23348835546688812	1.1900278198382124e-22	0.6386653568306607	0.18919356659330655	-0.10164674793304934	0.2908403145263559	42.90031057993312
0	1.0	ltm	258	diff_vonmises	-0.37637258876867263	-21.56456086085787	0.9046231573494985	0.969409155402492	3.144177643505082e-23	2.0905290131451517	-0.019022275098284858	-0.2813390273680137	0.26231675226972884	131.39871579347852
1	1.0	perception	258	diff_vonmises	-0.09736034504012005	-5.578336862736337	17.987360414443724	0.6779965774484463	0.03272190631368219	2.0254477262018806	0.805426548258066	-0.3278520473227668	1.1332785955808329	31.845218747356057
2	1.0	wm	258	diff_vonmises	-0.16672447087484177	-9.552608522680249	4.544752952745071	0.34664867577392955	2.994347780824118e-16	1.2673137819900242	0.08387386426900814	-0.20166701876268997	0.2855408830316981	64.12617694003148
3	2.0	ltm	258	diff_vonmises	-0.11022859272841273	-6.315633145004486	8.590438486670113	0.3358452184940421	7.955717449889122e-23	0.9189340766342892	0.2403431476889315	-0.14625288731180733	0.3865960350007388	46.356373976171454
4	2.0	perception	258	diff_vonmises	-0.011543387664966133	-0.6613873944859338	6.877944541374291	1.3556363757278918	0.42916885136095145	1.901168191094931	0.946352698481956	-0.3208421804701044	1.2671948789520604	49.48116333807127
5	2.0	wm	258	diff_vonmises	0.005824247651086177	0.3337048092462212	3.4657341871619898	0.526506946414729	0.2162105622025603	1.111462911755578	0.1569790776906662	-0.1631846718492277	0.3201637495398939	68.23275040954996
6	3.0	ltm	258	diff_vonmises	-0.20370032471383198	-11.67116889154699	1.9307974037981583	113.85930316787393	1.9088879179713563	114.26385665929045	0.19359930017883897	-0.17931660772801195	0.3729159079068509	62.79741259483396
7	3.0	perception	258	diff_vonmises	-0.0321362153878132	-1.8412695112450685	3.731662378045416	2.827760673694457	0.7746761841569176	3.0899754179592787	1.169568815626715	-0.39111737738379604	1.5606861930105111	62.70148195559585
8	3.0	wm	258	diff_vonmises	-0.0037199147891724786	-0.21313541756788046	1.4055629706427728	37.85936742393824	1.3455828528852765	38.16298060390813	0.2839832792091297	-0.165214128909156	0.4491974081182857	77.03001774214974
9	4.0	ltm	258	diff_vonmises	-0.36841633263525686	-21.108700963688072	19.682050045674934	0.24809775516903937	2.322631278478397e-18	1.1251433745220716	0.2571627506957317	-0.1790721297422834	0.43623488043801506	30.50767642694288
10	4.0	perception	258	diff_vonmises	-0.11357625172732683	-6.507439876891254	2.2898826827881007	3.350310353145724	0.3780772586997547	4.405602021232217	0.8867612329939507	-0.5087862589385965	1.3955474919325472	80.33159578780663
11	4.0	wm	258	diff_vonmises	-0.3145116368045662	-18.020189396653052	0.9177864511595292	143.01599978242248	0.9046509717171085	143.87819913049623	0.07857499170270188	-0.21984346503790242	0.2984184567406043	87.37568155567442
12	5.0	ltm	258	diff_vonmises	0.045571671507933044	2.6110644427611476	1.3922289906458174	109.39372546008542	1.3721577080257583	109.74045087631335	0.25085910085726226	-0.16461895522866143	0.4154780560859237	76.1669025889284
13	5.0	perception	258	diff_vonmises	-0.04273517534021837	-2.4485451837460643	0.9322376613518096	153.08979282660536	0.9059934106834615	153.4255326674709	0.6556513303124802	-0.3319603676950873	0.9876116980075675	96.20800668172791
14	5.0	wm	258	diff_vonmises	0.03975324208458238	2.277692993408417	1.348878949975239	1.1083126956549791	8.140147681988538e-17	1.5404581524534355	0.20514200462070492	-0.2148390865182286	0.41998109113893356	115.37462965211449
15	6.0	ltm	258	diff_vonmises	-0.4275041610185611	-24.49418415064472	0.693934132601692	67.01773986047068	0.6679486282538997	67.59233972304484	0.17159900388005767	-0.2092526220141	0.38085162589415766	106.20713410916353
16	6.0	perception	258	diff_vonmises	-0.010132472653506698	-0.580547919077656	0.727483032374797	164.7450570101273	0.7121915276171571	165.15866915443448	0.3618512878146376	-0.25979844311354405	0.6216497309281817	106.79640853349609
17	6.0	wm	258	diff_vonmises	0.0318247692163534	1.8234249600749144	0.00023686489137441153	5232.2295665134825	4.8101740291602075e-32	5232.710571034372	0.12070222760712568	-0.2737873620543496	0.3944895896614753	179.91716310558218
18	7.0	ltm	258	diff_vonmises	0.03973314374332397	2.2765414432790965	1.4629401451089243	164.64960773923855	1.4452773679062498	165.65428144658276	0.08802758734130123	-0.2829292806515653	0.37095686799286653	68.19545783071536
19	7.0	perception	258	diff_vonmises	-0.169154212750795	-9.691822477478569	0.6693296333866875	131.51478607362216	0.6466748739621341	132.40731434227064	0.32164958245520126	-0.3578504723446141	0.6795000547998153	108.80185424550876
20	7.0	wm	258	diff_vonmises	0.44606747744926395	25.557783835889847	1.0105651628745054	38.98634506330912	0.9720131488435577	39.652184085374586	0.06052149611243607	-0.17026743437250946	0.23078893048494553	83.58968729523258
0	1.0	ltm	259	diff_vonmises	-0.2020458702169938	-11.576375631481723	1.6370046518551733	0.5611136795007552	8.770836688831535e-35	2.9368570604250746	-0.21112579821201033	-0.4577127761795264	0.24658697796751605	106.26229198819289
1	1.0	perception	259	diff_vonmises	-0.08768239995950136	-5.023831455257488	11.86198848373154	0.7714746386563153	0.06403297095357945	3.2961513973438796	0.48966891101484455	-0.5383277620996583	1.0279966731145027	38.9275157699075
2	1.0	wm	259	diff_vonmises	-0.12448380555628058	-7.132396676102064	4.161301022983413	0.48181438502807233	0.057519814153555116	2.6805687472717787	-0.07300706787285943	-0.42037300748107037	0.34736593960821094	64.06311629151472
3	2.0	ltm	259	diff_vonmises	-0.056710106462366364	-3.249249756031168	3.385388646877229	0.44758503908374947	1.3706739125293452e-19	1.7968917618886124	0.027849782407349755	-0.28562427731832263	0.3134740597256724	74.58090572459258
4	2.0	perception	259	diff_vonmises	0.00023224956576241372	0.01330691991193237	6.481480200258911	1.489393249951813	0.37661609622294884	2.802272775896728	0.8536029416394604	-0.4703068172049088	1.3239097588443691	50.52187018622564
5	2.0	wm	259	diff_vonmises	0.17264796208402333	9.891999568949197	3.018576419464222	0.6433861371432286	0.10251319761560464	1.9156600963072241	0.08595900028040848	-0.28668250682257207	0.37264150710298055	74.17329497197542
6	3.0	ltm	259	diff_vonmises	-0.19238401873989477	-11.02279231956171	1.1565581250933992	118.21952413763182	1.1358967224888787	119.21660758533562	0.08846563866305246	-0.2598283714969458	0.3482940101599983	77.36511104068143
7	3.0	perception	259	diff_vonmises	-0.05076145066220179	-2.9084168849057206	3.6743447562475806	2.5382495401160043	0.5110096881544486	3.384615823979419	1.0205662916172842	-0.4636851047776273	1.4842513963949115	64.50252970381888
8	3.0	wm	259	diff_vonmises	0.05712578762599395	3.2730665323301156	1.01868021590131	172.02916447792765	1.004124580990697	172.67365990734888	0.2524659131682725	-0.23337656294222242	0.4858424761104949	87.56443135795746
9	4.0	ltm	259	diff_vonmises	-0.3265479003966225	-18.70981650158485	6.140081640216306	0.3477143038968191	1.749465622150899e-16	2.2184327697216193	-0.01698852357512981	-0.35307298054603664	0.33608445697090683	54.980677972823116
10	4.0	perception	259	diff_vonmises	-0.08493730457659714	-4.866549075456228	2.0131717701461973	3.576595931901864	0.3883009854707281	5.0917774892720455	0.701352190362112	-0.5595865481873152	1.2609387385494273	83.2325953919491
11	4.0	wm	259	diff_vonmises	-0.2887709871330932	-16.54535880855284	0.7397941367762363	199.22432594342828	0.727886214000977	201.10686679308512	-0.09300647281185093	-0.3836722945570621	0.29066582174521116	89.77703202255901
12	5.0	ltm	259	diff_vonmises	-0.10075833982367972	-5.773027622641775	0.9199662289520847	121.97285099012265	0.8997264884293416	122.88871780943764	0.1744199768908672	-0.2669824713493991	0.4414024482402663	89.84075308490691
13	5.0	perception	259	diff_vonmises	-0.08335288952255604	-4.7757687798626804	1.0341967002941066	95.6609353082229	0.9807258179435807	96.58486336475708	0.6546044153065154	-0.44302713079561684	1.0976315461021322	89.66388053921989
14	5.0	wm	259	diff_vonmises	-0.03806175203812769	-2.180777752658176	0.6930773634236342	3.819833291638612	0.23039713651761198	4.638398129082329	0.1646382655541494	-0.308087479953874	0.4727257455080234	127.538386856669
15	6.0	ltm	259	diff_vonmises	-0.4326691177661104	-24.79011437364691	0.6827384845150108	146.2321271532844	0.6699710928308041	147.14875422295907	0.09984127532189291	-0.2508182134671664	0.3506594887890593	102.77820306692465
16	6.0	perception	259	diff_vonmises	0.03342462744467046	1.9150900843767589	0.4053629119665231	157.30383117136836	0.3900080096697627	158.17856592236052	0.2448721201577655	-0.38757146184818225	0.6324435820059477	133.89531466146406
17	6.0	wm	259	diff_vonmises	0.13892877677323245	7.960032562021359	0.18993066023361374	6.3073692064565	1.1654395672094475e-15	7.277988297492939	0.0446187910930127	-0.33556488472026946	0.38018367581328216	168.595770317514
18	7.0	ltm	259	diff_vonmises	-0.23935722326867623	-13.714158689265691	0.9561521464041884	109.74765770866414	0.9349978258934817	111.0474090770961	0.012897197023221452	-0.2963835314806573	0.3092807285038788	82.52388710910046
19	7.0	perception	259	diff_vonmises	-0.12902954751952134	-7.392848505351273	0.6051711022554621	218.85898614387548	0.5894247513816319	220.3724835621976	0.25318173898573804	-0.47864945730064434	0.7318311962863824	111.31194974392312
20	7.0	wm	259	diff_vonmises	0.3083056249572443	17.66461111019332	0.8754229203283147	109.69684964099078	0.8555104383115425	110.97816625780885	0.013956747588771634	-0.29014594312573116	0.3041026907145028	86.49874441432996
0	1.0	ltm	260	diff_vonmises	-0.2822575612837646	-16.172166997214898	1.1235165088793948	0.762339279549034	1.3699192384416057e-32	2.828424102487819	-0.17195702001726865	-0.42074811776095417	0.24879109774368552	123.10660087356987
1	1.0	perception	260	diff_vonmises	-0.10307670137747525	-5.905859955059651	13.113152964883977	0.6829691203650127	0.028445122620389836	2.95186005022737	0.4936275828592041	-0.47509497185272104	0.9687225547119251	37.24253078827425
2	1.0	wm	260	diff_vonmises	-0.10684912191264363	-6.122003730273282	3.5084307399191683	0.5633330045528965	0.08336489734893807	2.4247998272167193	-0.015799751256291183	-0.3735745146959289	0.3577747634396377	68.84777042069732
3	2.0	ltm	260	diff_vonmises	-0.03486099963365691	-1.99738814861565	3.6349182619925107	0.3923266190376124	1.9166675398654784e-20	1.4695909553417374	0.052299546250804824	-0.2336934104629412	0.285992956713746	71.90622773095808
4	2.0	perception	260	diff_vonmises	0.016280975256336202	0.9328311685449879	6.157808508386673	1.5481971125369363	0.4949990707159664	2.5513039563857203	0.8716800594329092	-0.4287113786773954	1.3003914381103046	51.20315183354154
5	2.0	wm	260	diff_vonmises	0.2509638479331105	14.37916929693022	3.1143795791126734	0.5903071459025658	0.11015392291696871	1.5285409452448493	0.12412678035826002	-0.22790521610248818	0.35203199646074823	73.39327212099741
6	3.0	ltm	260	diff_vonmises	-0.19617990388925577	-11.24028051813648	1.401253894097559	121.84993826132202	1.3821953572666676	122.64839858740454	0.08592731204862503	-0.22523361098442507	0.3111609230330501	70.25781483853723
7	3.0	perception	260	diff_vonmises	-0.04332662595688297	-2.4824328078713562	4.550663043679189	2.015235114127361	0.4323650081161406	2.702481888562107	1.0284688116636784	-0.4041961490514062	1.4326649607150848	59.63094704205065
8	3.0	wm	260	diff_vonmises	0.1705415463093938	9.771310835163145	0.9961296392352162	118.10952434868047	0.9788051523638626	118.50724738852709	0.25317543397844844	-0.18087457005181307	0.4340500040302615	90.26150113331602
9	4.0	ltm	260	diff_vonmises	-0.3890709822175091	-22.292125212072772	7.395475355504625	0.34260561499289116	4.2808958361474343e-33	1.8755456541906588	0.0664343116435212	-0.2985022242417636	0.3649365358852848	50.016159718343175
10	4.0	perception	260	diff_vonmises	-0.050202559867160795	-2.8763948011411604	2.0466544575722825	3.4607425209986546	0.42105679829806164	4.783014749393321	0.7003158533249496	-0.5157320069266078	1.2160478602515574	82.2316081666211
11	4.0	wm	260	diff_vonmises	-0.25491588612738325	-14.605604405936552	0.7818834932619485	194.6880045629534	0.7705079064369811	196.255967496938	-0.04435894320690892	-0.3319549875550294	0.28759604434812047	89.00304383366789
12	5.0	ltm	260	diff_vonmises	-0.11160717022402941	-6.394619817235036	1.057372782063688	149.21410185090923	1.0405393845707778	150.02079703269135	0.19109984315466022	-0.247080036875019	0.4381798800296792	84.1507976240216
13	5.0	perception	260	diff_vonmises	-0.08170157069406804	-4.681155180359831	1.0084539143999334	257.418235845233	0.990092606254108	258.2337435752673	0.6170179532870321	-0.4065594547503899	1.023577408037422	90.22573551117816
14	5.0	wm	260	diff_vonmises	0.038021754017455944	2.178486034884808	1.0098509093105343	1.6529681776354144	3.4326665314525663e-17	2.2338042994303935	0.21239182698029208	-0.280161050600231	0.4925528775805231	128.15352743766073
15	6.0	ltm	260	diff_vonmises	-0.47106009730753245	-26.989755472743482	0.7338194917738282	150.5862049608894	0.7206132736735854	151.36172905577473	0.15569844803670208	-0.2402276462863604	0.39592609432306247	101.1487008053398
16	6.0	perception	260	diff_vonmises	-0.02111763027548987	-1.2099510881032594	0.6301228614086657	182.2666190715231	0.614794762158394	183.07375767170512	0.3132575121354151	-0.3448892092883966	0.6581467214238117	112.1985192001116
17	6.0	wm	260	diff_vonmises	0.17724433342078907	10.15535224762078	0.08771385830260889	15.014232147270318	2.0671858718009027e-09	15.83482306480641	0.08345499059772754	-0.3354752112660164	0.41893020186374397	173.99008254278112
18	7.0	ltm	260	diff_vonmises	-0.056837620460021394	-3.2565557699256424	1.1319818446430086	144.01813785699343	1.1133881816016125	145.46223440387246	-0.024321519914039413	-0.33074811828032935	0.30642659836628994	74.149938463561
19	7.0	perception	260	diff_vonmises	-0.15594792722534306	-8.935158053825464	1.1246766365694156	3.556858394612802	0.25285407720719133	5.022311450978451	0.2857501890674772	-0.47395857276206976	0.7597087618295469	107.6489827961551
20	7.0	wm	260	diff_vonmises	0.4097993503609464	23.479773222885157	0.9513738972648134	75.42963446723749	0.9217496380474138	76.63345110021362	0.031211844458553628	-0.2803981936388471	0.31161003809740073	83.71216489166719
0	1.0	ltm	261	diff_vonmises	-0.06809940387297207	-3.901808429278152	3.7919487979970867	0.3038673635641251	2.0314301887419232e-23	2.606503787831526	-0.18794579260064234	-0.41472256902040855	0.2267767764197662	70.36323347041235
1	1.0	perception	261	diff_vonmises	-0.1030038314908737	-5.901684818103786	14.499123556476702	0.6481356194495418	0.09908619767080877	3.1230342049530297	0.4283096403191591	-0.5233101763688124	0.9516198166879715	35.075505928738835
2	1.0	wm	261	diff_vonmises	-0.09964713719911852	-5.709360402070558	3.2706064906501586	0.5336302022327845	0.04169841997100797	2.5223689054390213	-0.05136063486116832	-0.3910613881319277	0.3397007532707594	72.84242556803693
3	2.0	ltm	261	diff_vonmises	-0.06754415850607084	-3.869995213160519	8.597894760905792	0.29853130060739286	1.5386119558849682e-33	1.5167719090040992	0.10243301648176475	-0.24140173515698157	0.3438347516387463	46.33130359657406
4	2.0	perception	261	diff_vonmises	-0.0024725513107071904	-0.1416667547330619	7.281726658115985	1.3450824312062282	0.4374530584487555	2.5862349181908177	0.8133092994120806	-0.4522692813242227	1.2655785807363034	47.539686705154224
5	2.0	wm	261	diff_vonmises	0.18557744319593064	10.632804267955601	3.638464700654458	0.5493559527173428	0.1385000456193132	1.6019411234751226	0.10949676165803568	-0.2432358147410525	0.35273257639908817	67.31665354765093
6	3.0	ltm	261	diff_vonmises	-0.23423145596953296	-13.42047385625861	2.16549196128702	1.6199022896656108	0.9175726874684201	2.390027013270631	0.09731470976571854	-0.21905625830511755	0.3163709680708361	68.03336705560557
7	3.0	perception	261	diff_vonmises	-0.05441934130471649	-3.11799858064221	4.381022103466086	2.158790388139824	0.5601922553634867	2.880857237896108	1.0004682151316915	-0.4231851272361812	1.4236533423678726	59.4893863525559
8	3.0	wm	261	diff_vonmises	0.10484593047948775	6.007229315596687	1.308504381679443	35.41412776525085	1.2414198202333764	35.85898044467903	0.26161757709629363	-0.18998567653558363	0.45160325363187726	78.86062153545154
9	4.0	ltm	261	diff_vonmises	-0.4001132427141037	-22.92480013481168	18.74366744341357	0.2231633306077711	6.344468137843897e-29	1.7464312487298101	0.10484949005278216	-0.27795316600550063	0.3828026560582828	31.266865765441793
10	4.0	perception	261	diff_vonmises	-0.0803994512312823	-4.606549230720366	2.192479120645181	3.3502024023166292	0.47095885435561996	4.792333116456148	0.6699812980045445	-0.526119955850794	1.1961012538553386	78.68294065228164
11	4.0	wm	261	diff_vonmises	-0.19052199306162998	-10.916106106852151	0.7473773524403652	143.41519458638317	0.7348502100225808	144.8587036812859	-0.07745192873293405	-0.2921715963650975	0.21471966763216344	88.87713422505597
12	5.0	ltm	261	diff_vonmises	-0.07154749319026252	-4.09936939454304	1.0562000724332272	117.81968983795147	1.0324662505888924	118.98062240907379	0.12295648955764449	-0.30412720905816926	0.42708369861581374	81.73475236221
13	5.0	perception	261	diff_vonmises	-0.05853664594203097	-3.3539027593299715	0.9655193920114117	327.8653699804179	0.9503806184975666	329.1687997050374	0.5088974390065601	-0.47517521886813796	0.9840726578746981	90.0469355538473
14	5.0	wm	261	diff_vonmises	-0.04074846690449584	-2.334715175256126	1.338017509109029	1.2613734925530353	1.0173441227352491e-16	2.1399763685955846	0.16944037399507744	-0.3054781452370837	0.47491851923216116	115.75434364051426
15	6.0	ltm	261	diff_vonmises	-0.42648367653608754	-24.435714696740394	0.7851821106902416	162.05992326231092	0.768483069997619	163.38372498952674	0.12277501381949207	-0.3424071103073043	0.4651821241267964	95.07316456085772
16	6.0	perception	261	diff_vonmises	0.04152280543909321	2.3790815052028997	0.7087633413127548	112.68757151722463	0.6780192096562188	114.04102188377996	0.28063671163800663	-0.43014302760455436	0.710779739242561	103.80854146684007
17	6.0	wm	261	diff_vonmises	0.1406925888619877	8.061091550561189	0.45344078266495264	2.919252030939828	2.2347818425805334e-13	4.2406555538243165	0.020063437091367597	-0.3942992212527864	0.414362658344154	154.23584377209602
18	7.0	ltm	261	diff_vonmises	-0.10971929128367329	-6.286452321721	1.1545274833806758	200.12737626457152	1.139828526255672	201.76587504450004	-0.05547626650989912	-0.37084857130098925	0.31537230479109013	72.38658977862215
19	7.0	perception	261	diff_vonmises	-0.18785068520563472	-10.763051440923482	0.4775769043310146	116.51600630022335	0.45239831868583896	118.22418612816878	0.13879672309111868	-0.5054268776964133	0.6442236007875319	123.19972517747945
20	7.0	wm	261	diff_vonmises	0.6698106294044279	38.377322137875	8.18629548222994	0.35262231908235303	0.0598425804812023	1.6512839027063064	0.11713205210049377	-0.2661973324358501	0.38332938453634385	46.64175944218147
0	1.0	ltm	262	diff_vonmises	-0.7001071902311361	-40.11318720700675	0.08600286897241029	6.622800968337512	4.3569372085571585e-05	8.78994184713129	-0.2524297107517619	-0.4334987443964944	0.18106903364473248	162.6202990969926
1	1.0	perception	262	diff_vonmises	-0.09538346068411367	-5.465069732551734	12.206219896841315	0.7479895231204474	0.040433117365873364	3.1763720324096036	0.5048574670329843	-0.5134278513065141	1.0182853183394984	38.53413292056837
2	1.0	wm	262	diff_vonmises	-0.08389192426562114	-4.806653195651229	4.350808469171247	0.4409965783177643	0.09386827282771479	2.4244926182482107	-0.0680181092486617	-0.38169793241363387	0.31367982316497217	61.5015223013454
3	2.0	ltm	262	diff_vonmises	-0.1419657714247868	-8.134039537959227	5.027989993414255	0.3188292368324586	9.440040924368832e-17	1.445003797770971	0.04730892766899908	-0.22996759336202138	0.27727652103102046	60.88602751149551
4	2.0	perception	262	diff_vonmises	0.006823654400706286	0.39096659801634126	6.980060281592693	1.5741206712822366	0.4836584686769304	2.7594706350990466	0.9544590921126949	-0.48036436337749	1.4348234554901849	48.383062935258835
5	2.0	wm	262	diff_vonmises	0.23490491257665108	13.45906007753168	3.355279289237639	0.47262621862359355	0.023175597715731296	1.635777364063365	0.06330518264175178	-0.25519257852826766	0.31849776117001943	73.51133670737877
6	3.0	ltm	262	diff_vonmises	-0.15910150001744605	-9.115844465200253	1.3924450885433766	108.0667788444561	1.3734003417196223	108.82322000259458	0.05784252621583619	-0.20627574291642148	0.26411826913225767	69.7523723519648
7	3.0	perception	262	diff_vonmises	-0.039719033492354026	-2.2757329854506483	4.266068007077405	2.325292011998834	0.6915541517632927	2.913964655342149	1.0269434300923055	-0.41545940107129925	1.4424028311636048	59.31494308932017
8	3.0	wm	262	diff_vonmises	0.146510186204932	8.39441532521842	1.2219755947492787	155.9860316643639	1.208005403725513	156.44795684161835	0.2257888249988227	-0.18157246655931303	0.4073612915581357	80.29753777357263
9	4.0	ltm	262	diff_vonmises	-0.4528641994324663	-25.94720732005113	4.142484317816939	0.5306307924412581	0.2609115953490343	2.2996373861893082	-0.051292021920305186	-0.3663104977973851	0.31501847587707993	59.0689526250854
10	4.0	perception	262	diff_vonmises	-0.06116216523037606	-3.5043339335823367	2.5747005582932574	2.420388385921074	0.3012955830218773	3.678017567361762	0.6776409411238378	-0.472857969035156	1.1504989101589937	77.22633821641648
11	4.0	wm	262	diff_vonmises	-0.28696955346387354	-16.44214426223379	0.7736142448765368	171.79994122917458	0.7610461917722546	173.68091152785138	-0.14487162259168684	-0.3677009036932475	0.22282928110156064	84.59963419633874
12	5.0	ltm	262	diff_vonmises	-0.07844305169607634	-4.494455794311708	1.114611314551665	102.85494580899886	1.0892746693324489	103.72761048864471	0.17487522527017063	-0.2571013591971685	0.4319765844673391	81.43168963185178
13	5.0	perception	262	diff_vonmises	-0.11308702039550775	-6.479408986372456	1.285907235700789	12.51989419949774	0.8959597733471849	13.3340370279729	0.6510860890156085	-0.41027450453775505	1.0613605935533634	86.56235518239819
14	5.0	wm	262	diff_vonmises	0.06268217334990847	3.5914239836571604	1.1578858646002745	1.337203562111898	2.4855651233085844e-16	2.001725204160047	0.17794991178119818	-0.2695786019970916	0.4475285137782898	122.249407979466
15	6.0	ltm	262	diff_vonmises	-0.4414499614204586	-25.293219655605295	0.7391116033712427	125.23914345312072	0.7267028336115647	125.87175239518326	0.11331318571162541	-0.189348445220336	0.3026616309319614	100.30851019243146
16	6.0	perception	262	diff_vonmises	0.10667215897654897	6.111864500904815	0.25041550167284676	113.40601901730061	0.23287703316852496	114.11460977735271	0.20916870968670054	-0.36254603345103575	0.5717147431377363	151.51517975957768
17	6.0	wm	262	diff_vonmises	0.20314540900507183	11.639374563449524	0.09935320658783782	11.198838775695268	2.785578664292703e-10	11.988402092181214	0.055662141040203394	-0.29820444477586494	0.35386658581606834	173.06210893175148
18	7.0	ltm	262	diff_vonmises	-0.1417494452800098	-8.121644962865169	1.0648421395265812	109.04507830996855	1.0455097624303422	110.2108084478044	-0.011671505115849357	-0.2645081501293429	0.25283664501349357	76.93322818088114
19	7.0	perception	262	diff_vonmises	-0.1787708513337801	-10.242815281386283	1.1673555699107274	3.4505261813507184	0.3456892615073091	4.78306884603539	0.24316741949893506	-0.4033308128070805	0.6464982323060156	101.25072812066398
20	7.0	wm	262	diff_vonmises	0.3688938661533216	21.136061618849215	0.8591649023728883	54.377334359233714	0.8237190797047166	55.566436006754344	0.0014104868505242507	-0.2648826877140369	0.26629317456456114	87.24849454187265
0	1.0	ltm	263	diff_vonmises	-0.2728352536120744	-15.632308534353312	1.0666513525157868	1.098493695367523	2.974686563266005e-18	2.501049196726401	-0.008888874413108483	-0.35195743604361635	0.34306856163050786	125.34557801298654
1	1.0	perception	263	diff_vonmises	-0.10170015762975534	-5.826989808000179	13.222243284466217	0.7412865421616179	0.0008511350019828123	2.3315248339661	0.6933603769725263	-0.371109868344859	1.0644702453173853	37.26835277253974
2	1.0	wm	263	diff_vonmises	-0.14965043498529443	-8.57433832695429	4.446217343689809	0.4462212040240118	7.176829098385657e-18	1.6810996859072296	0.09573838948228147	-0.2675053870724857	0.3632437765547672	64.8476987089553
3	2.0	ltm	263	diff_vonmises	0.008662803546346666	0.4963420819566262	3.2234468560642697	0.5010957676665102	0.07251643415893247	1.2741132968900195	0.12404550186180735	-0.19303509847601724	0.3170806003378246	73.49983834670294
4	2.0	perception	263	diff_vonmises	0.016087913697821015	0.9217695560558498	5.167099862275173	1.639424224088704	0.509242265178562	2.20574925115686	0.8986386545286006	-0.3448694815668596	1.24350813609546	55.80416102880153
5	2.0	wm	263	diff_vonmises	0.2451774478800225	14.047632995314002	2.6064010892070737	0.6694026694063968	0.14304619236438967	1.2631831919496794	0.1734902104036349	-0.17837679811417412	0.35186700851780905	79.6616614232799
6	3.0	ltm	263	diff_vonmises	-0.17900108886665086	-10.256006920305284	1.4635033874572805	184.83208795054742	1.4503542991582579	185.49081387748424	0.14934066861842155	-0.21207768940791283	0.3614183580263344	70.56721554255654
7	3.0	perception	263	diff_vonmises	-0.036763494644832063	-2.1063930833006808	4.088749588272774	2.114162394249444	0.2921186909804042	2.640569348901215	1.0940212598129389	-0.38392736548225215	1.477948625295191	64.10484346986681
8	3.0	wm	263	diff_vonmises	0.16172717595806502	9.26628461496676	0.6911285801576008	103.01613155936465	0.6736855855017512	103.23851930198411	0.28002885465001626	-0.18688721084810478	0.46691606549812104	110.51210198669335
9	4.0	ltm	263	diff_vonmises	-0.3225401609570747	-18.480189946310638	7.086466230388846	0.4200959722766333	1.598238897429923e-32	1.518544949254268	0.19589708878448087	-0.24168362875065746	0.43758071753513833	51.116118368161295
10	4.0	perception	263	diff_vonmises	-0.06969033722717363	-3.9929621959604935	1.7300440111973496	4.569274658852328	0.44153363583997357	5.703443759603372	0.8133163310039617	-0.5336044188482043	1.346920749852166	87.99755896497075
11	4.0	wm	263	diff_vonmises	-0.3472619288467995	-19.896642908493906	0.9226072987598948	209.5219481737492	0.910821657207102	210.63909756531635	0.10707161183243841	-0.2867285067839873	0.3938001186164257	87.24278632603226
12	5.0	ltm	263	diff_vonmises	-0.10596410559331497	-6.071296030375548	1.0868786154999925	134.96813221411708	1.0723867004673884	135.32247270284893	0.24115449885980667	-0.1639943453978674	0.40514884425767406	86.4251576711867
13	5.0	perception	263	diff_vonmises	-0.06531204381793215	-3.742104462141012	0.9695299487879927	191.2182876204757	0.9477306657342875	191.44897374384246	0.71456725904482	-0.3267569725385133	1.0413242315833333	94.83062975737684
14	5.0	wm	263	diff_vonmises	0.03942529846683728	2.2589032081933715	0.4242714655723882	77.12879291785468	0.4024103074756987	77.37741890162718	0.2533570223823034	-0.2300098617078543	0.4833668840901577	134.29344395329082
15	6.0	ltm	263	diff_vonmises	-0.4720858684892314	-27.04852783220098	0.6333365082569743	144.99393711617796	0.6221863302807137	145.44930901201417	0.18391653162717603	-0.19748997704426863	0.38140650867144466	111.73537071949957
16	6.0	perception	263	diff_vonmises	-0.06339076837114774	-3.6320234877581536	0.6685504589155422	239.5857672034663	0.6583378060367863	239.9224322023348	0.37231246618482317	-0.2618726083497265	0.6341850745345496	111.75994613202855
17	6.0	wm	263	diff_vonmises	0.12044720703462633	6.901116617222528	0.0003408933367053425	3710.2472448735957	9.101829404811168e-34	3710.6367908231127	0.1393176334670443	-0.26327964979191165	0.40259728325895594	179.43679209358783
18	7.0	ltm	263	diff_vonmises	0.0023613847257245787	0.13529737859067584	1.2182899225304893	143.3124872198882	1.1989418847017907	144.4609824828002	0.07632307392856319	-0.2957222449512642	0.3720453188798274	74.60251633816918
19	7.0	perception	263	diff_vonmises	-0.14405963439918146	-8.254009049270751	0.7404140296761892	164.98902441248256	0.7167628697198201	165.96176811683148	0.46461433092540005	-0.42529653924761135	0.8899108701730114	104.30338221196492
20	7.0	wm	263	diff_vonmises	0.3050635390900474	17.478853273183926	0.9794148742727188	79.92051367794373	0.9561476144743954	80.67234700837977	0.10200069796302458	-0.2036109764953551	0.30561167445837967	85.84565002886043
0	1.0	ltm	264	diff_vonmises	-0.08263123362003269	-4.734420942387389	3.1526574810241526	0.5523025390865793	5.290128496865441e-22	2.8213665840018627	-0.07697475555133776	-0.44835479874009637	0.3713800431887586	77.35004217404861
1	1.0	perception	264	diff_vonmises	-0.09522509249982045	-5.455995903982582	13.030812990216432	0.6938955280275472	0.0011872267974271432	3.0659319568203687	0.5004028510116119	-0.4880478979735791	0.988450748985191	37.54777569528454
2	1.0	wm	264	diff_vonmises	-0.1782213277619735	-10.21132989997881	4.395760288947663	0.5469698385143026	0.07823678941847338	2.7138911451378744	-0.02373867982335165	-0.4262178662146978	0.40247918639134617	62.012379805858785
3	2.0	ltm	264	diff_vonmises	0.01672266365206405	0.9581380494800978	2.7707462777493865	0.6070187302873202	0.019220476638439312	1.9763535098915994	0.05922060459931877	-0.3071668239024406	0.36638742850175937	81.13184192670391
4	2.0	perception	264	diff_vonmises	0.017214360438850718	0.9863102001631178	5.107972929035146	1.6669479763324588	0.414133089698682	2.888337240656756	0.7953617143988584	-0.45794077308509473	1.2533024874839531	56.015324587384754
5	2.0	wm	264	diff_vonmises	0.15516235109851093	8.89014785727175	2.4814344983741905	0.933168303664935	0.22799477813328994	2.1544448093656925	0.12241194359419805	-0.2955793261037516	0.41799126969794964	77.3332298545985
6	3.0	ltm	264	diff_vonmises	-0.16764867895276156	-9.605561744936951	1.114895289968648	233.44097910491826	1.1010591782801786	234.76405589893187	0.12682623074020682	-0.34536536051562905	0.4721915912558359	78.96307699668506
7	3.0	perception	264	diff_vonmises	-0.04097454142096865	-2.347668290905479	3.366072947054762	2.7316179997021792	0.3692188326255982	3.968212807307407	1.0259044207783279	-0.5446655605118002	1.5705699812901281	68.2498227153329
8	3.0	wm	264	diff_vonmises	0.11408386776086685	6.536524133226267	1.0346185940416865	2.964218554034745	0.27723325096869045	3.8580236553046783	0.23741687939279643	-0.3261807142819194	0.5635975936747158	110.61914060917624
9	4.0	ltm	264	diff_vonmises	-0.3051864915999761	-17.48589793308338	2.9096101426058723	0.6680992105745043	5.276179160718751e-17	2.6482703177438016	0.008462188581767727	-0.4202081348329022	0.42867032341466993	80.56047356337415
10	4.0	perception	264	diff_vonmises	-0.07309318212644171	-4.187930847026174	0.9216224066911881	398.69266915924027	0.9047036921517542	400.4889882787801	0.7025144937908578	-0.6616194018825112	1.364133895673369	92.29792843908666
11	4.0	wm	264	diff_vonmises	-0.30403948898818794	-17.42017952433744	0.7382858677939884	252.32381444023017	0.726883142227423	254.32676426850932	-0.0312103625126241	-0.43340952714725844	0.40219916463463434	92.73396390120902
12	5.0	ltm	264	diff_vonmises	-0.13214217759440958	-7.571189071827858	0.8653334848750658	167.06559709821815	0.8507170635483652	167.76137118464496	0.24781648741947038	-0.2505158001572614	0.49833228757673176	94.95881125462935
13	5.0	perception	264	diff_vonmises	-0.07237967275673475	-4.147049771498926	0.9690888234878521	267.1094402875255	0.95059820608823	267.8224374661484	0.7003340772557749	-0.42161528114480973	1.1219493584005846	92.78130927855602
14	5.0	wm	264	diff_vonmises	-0.01904126917524759	-1.0909843603142368	0.3912945143048646	139.46059561740208	0.37700696076864515	140.15789429680402	0.2080611578043019	-0.3209778643993637	0.5290390222036656	135.52696074032485
15	6.0	ltm	264	diff_vonmises	-0.46372755750661315	-26.569631889039112	0.6889867235301345	150.15739692479787	0.6766482714872164	150.95295750559671	0.12997779573440482	-0.23753476364183435	0.36751255937623917	103.7223843859149
16	6.0	perception	264	diff_vonmises	-0.09307810943002034	-5.332982835396995	0.5538319249910649	258.7695484481755	0.54373783725363	259.5070996552615	0.3035194243055912	-0.3454122632199983	0.6489316875255895	119.2564035803106
17	6.0	wm	264	diff_vonmises	0.11174971673485205	6.4027871306894895	0.03184969508017929	40.604833994729134	1.3422438517246736e-15	41.39576153190692	0.08156335139056115	-0.33004644480768786	0.411609796198249	177.7144232573129
18	7.0	ltm	264	diff_vonmises	-0.18672515961038885	-10.698563574581945	1.0402505086655318	119.933707484602	1.0169917829840596	121.38431858059813	0.02595614848029726	-0.33896133603222367	0.36491748451252093	79.33919336619235
19	7.0	perception	264	diff_vonmises	-0.06779306489576663	-3.884256498783926	0.5828525632247739	250.48738334646376	0.5669692586335975	252.0920833485534	0.33493338243683013	-0.5532793419670057	0.8882127244038358	114.39151222234979
20	7.0	wm	264	diff_vonmises	0.2518370268288958	14.429198762418611	0.9999843496253136	125.48036230211841	0.9804793864212518	126.87118328846769	-0.00675826308673777	-0.31321416600323637	0.3064559029164986	79.79891066369467
0	1.0	ltm	265	diff_vonmises	-0.45276762360150397	-25.94167393253402	0.00045711217029839184	1660.1491645405526	1.4337216162057656e-25	1662.1426459622787	-0.19648007462330952	-0.4380371652076178	0.2415570905843083	174.2007346510092
1	1.0	perception	265	diff_vonmises	-0.128070833498793	-7.337918238203521	11.823971045264623	0.80747828511299	0.19141334381329891	2.9084810852546337	0.5398362424854297	-0.504928209140458	1.0447644516258876	38.42949009056326
2	1.0	wm	265	diff_vonmises	-0.11842475944335466	-6.785238905956263	3.0178056449531794	0.6022700500049905	0.11899781298029927	2.1962986776160323	0.0034519327118827103	-0.32990268357653124	0.33335461628841395	72.66363311299315
3	2.0	ltm	265	diff_vonmises	-0.09607609005512673	-5.5047544722775825	4.255748097924402	0.41259092038167966	4.704754838423835e-26	1.7306857781853697	0.052598373387600095	-0.27538119159807806	0.32797956498567815	66.32488863383298
4	2.0	perception	265	diff_vonmises	-0.009123698619811728	-0.5227494244645462	6.779770691465784	1.321703089471347	0.36081031544917774	2.6559258792536817	0.7582357078193885	-0.44989009041939904	1.2081257982387876	49.487848612604864
5	2.0	wm	265	diff_vonmises	0.4811474505735509	27.567718241343847	3.799681387473654	0.47156375344868423	8.863759942672359e-15	1.4624083207730219	0.11971681857852257	-0.2325729701713376	0.35228978874986017	70.2809420373593
6	3.0	ltm	265	diff_vonmises	-0.22608065240452568	-12.953467212343508	3.2539731478062106	0.6062646182458337	0.2369637237805208	1.4892780525903844	0.11954295652894137	-0.21770637815893218	0.33724933468787355	68.86730277175474
7	3.0	perception	265	diff_vonmises	-0.09339273452597198	-5.351009525523922	3.6330209881080924	2.172703311722287	0.3713856820787099	3.124977419359939	0.8875682075226788	-0.4394143047234587	1.3269825122461376	66.09995744160668
8	3.0	wm	265	diff_vonmises	0.17688029088889634	10.13449414698007	0.9704032169734761	125.38838877695636	0.9562282428900274	125.54721920573424	0.2842594891934951	-0.14354070451345535	0.42780019370695044	93.85354468364599
9	4.0	ltm	265	diff_vonmises	-0.2997236360905901	-17.172899368305774	5.527075747625323	0.5651048875005824	0.35949983379706635	2.1817997583312745	0.03501476742392634	-0.3706385725926724	0.40565334001659875	51.757310348908135
10	4.0	perception	265	diff_vonmises	-0.13370809389966995	-7.660909467189997	1.2382760811049391	13.777488297571479	0.841857359565187	15.395596878112285	0.5228177860772139	-0.5433732100470419	1.0661909961242557	85.84453648853784
11	4.0	wm	265	diff_vonmises	-0.6001667297851091	-34.38702062085527	1.1369103838353574	157.4406012914584	1.1211317479926515	158.8980306144191	-0.06780488847866195	-0.3236008836354429	0.255795995156781	72.1771705202597
12	5.0	ltm	265	diff_vonmises	-0.2687388484930925	-15.397601809859863	1.0187867487643048	124.45650388004253	0.9988285591798322	125.29887198227708	0.18184396059105978	-0.251860986525994	0.43370494711705376	85.55779527554175
13	5.0	perception	265	diff_vonmises	-0.10158081758974459	-5.8201521273806405	2.2012441287319557	2.499006756210504	0.29956794157698635	3.4872209948421746	0.6333897194387663	-0.4188862825270532	1.0522760019658195	82.93107775006882
14	5.0	wm	265	diff_vonmises	-0.20363743396868672	-11.667565517279735	0.5351899820813543	122.37779498271296	0.5208897578339217	122.84176455550089	0.21213368883150707	-0.23356232984661673	0.4456960186781238	121.44554718799621
15	6.0	ltm	265	diff_vonmises	-0.37066454365623663	-21.23751396664501	1.6277957850753437	1.0447884377692198	0.17588067961243264	2.114180550556829	0.07748670909339267	-0.26540769394356056	0.34289440303695323	94.37079895542422
16	6.0	perception	265	diff_vonmises	0.17107264350120008	9.801740462764895	0.6670253975461258	2.6332583241580445	1.2568751033746992e-09	3.7036501862584523	0.14332121031131406	-0.39643371536618466	0.5397549256774987	143.27022321827803
17	6.0	wm	265	diff_vonmises	0.4247317628252784	24.33533743503993	0.00017088691433819888	3772.4235677062966	6.471577646491865e-31	3773.4632004972764	-0.06285959308559086	-0.2680570363448851	0.20519744325929423	174.47905309141856
18	7.0	ltm	265	diff_vonmises	-0.22123103786085857	-12.67560476672612	0.925286176874164	175.8699182218788	0.9101711593052816	177.21444807619267	0.06929793795857364	-0.324224096615346	0.39352203457391965	85.68467181650624
19	7.0	perception	265	diff_vonmises	-0.34482572903452346	-19.757058941199926	0.700893635405837	254.0798012299609	0.6858835762266585	255.59488073371082	0.2996278269732642	-0.47462544646598914	0.7742532734392533	103.62056758839567
20	7.0	wm	265	diff_vonmises	0.474356311381514	27.17861462755425	1.3588682257222469	59.78733904995754	1.3121966998031913	60.58902409466238	0.1836147034014033	-0.2517639929750475	0.43537869637645077	73.95847419358779
0	1.0	ltm	266	diff_vonmises	-0.5776411936675645	-33.096402470050464	0.43669094618153104	1.9727239303493689	6.485926575098553e-33	2.57737232392711	0.05332588162474766	-0.21666141166518849	0.26998729328993615	149.77296398157847
1	1.0	perception	266	diff_vonmises	-0.11132604755580831	-6.37851267482051	12.705723896386694	0.873336170326631	0.14136987003020685	1.6141030153179583	0.9344654864136437	-0.27236423870079635	1.20682972511444	37.64098728334622
2	1.0	wm	266	diff_vonmises	-0.059731341862240765	-3.4223537933594907	3.7382396493800294	0.367152768008284	6.292594773763689e-15	0.698451096840584	0.1608144620834212	-0.11100790732389391	0.27182236940731513	70.88456973710973
3	2.0	ltm	266	diff_vonmises	-0.1460510473217462	-8.368108605001522	12.806921536703161	0.21124628655605224	4.798283390399445e-19	0.3962536252278291	0.23539483204294057	-0.06306572317084763	0.2984605552137882	37.88589690168419
4	2.0	perception	266	diff_vonmises	-0.006603258441788523	-0.37833883974861476	7.245953401671439	1.3734870863373252	0.6207921360114943	1.2843588993644952	1.1013367876982145	-0.2198436292783444	1.3211804169765589	48.263113939858385
5	2.0	wm	266	diff_vonmises	0.4608332019052446	26.403797528670644	2.6409103308399526	0.41348995559177026	4.054948241497532e-19	0.45751026314641896	0.178806443000741	-0.0715358180370988	0.2503422610378398	84.52383544992634
6	3.0	ltm	266	diff_vonmises	-0.16505534696046437	-9.45697476690207	2.5610900558341556	49.43351220900199	2.535581130350167	49.521112079841544	0.12065599536403226	-0.07215075464912424	0.1928067500131565	55.988964866388756
7	3.0	perception	266	diff_vonmises	-0.04698480942547207	-2.69203128130604	5.080924756138007	1.683076014315922	0.5936169320355451	1.3793242585877552	1.107265952802948	-0.20153775733726184	1.30880371014021	57.19333251855903
8	3.0	wm	266	diff_vonmises	0.1838743109461223	10.535221978088963	1.638978730666669	44.644212812580975	1.6224433539772865	44.30220862835492	0.28088254371880694	-0.019268495541006736	0.3001510392598137	82.94734336020178
9	4.0	ltm	266	diff_vonmises	-0.3514601035034833	-20.13718059798067	11.875698593378253	0.32846534041832715	0.5872129101852408	0.7270177368809709	0.2553075574580407	-0.14880573158284108	0.40411328904088173	37.38797644870209
10	4.0	perception	266	diff_vonmises	-0.08600391562029022	-4.927661386641885	3.433409762766622	1.7328612162295387	0.06443855555209967	2.180485356495943	0.8549130237807074	-0.3286290601877286	1.183542083968436	72.66436429619671
11	4.0	wm	266	diff_vonmises	-0.5028812128981359	-28.812971095483007	1.4079199633083814	87.58078863746582	1.3886169232326433	87.98334102480308	0.1353965627799667	-0.14141245238316635	0.27680901516313305	73.37815905959188
12	5.0	ltm	266	diff_vonmises	-0.02222033686148516	-1.2731315215220695	1.7991088881621866	101.36119218169367	1.7835952220266678	101.47978211692696	0.20062464474050756	-0.09711493092361145	0.297739575664119	68.12489322262135
13	5.0	perception	266	diff_vonmises	-0.0992166988696424	-5.684698102450915	2.557732500231457	1.6271294731977715	7.42803254360178e-10	1.4449597418652977	0.7418829112826332	-0.22413780497267008	0.9660207162553033	86.00250124618086
14	5.0	wm	266	diff_vonmises	0.08890156676977617	5.093684568008662	1.3998327044166388	0.9575065112811194	1.4660716903113367e-14	0.7922516647748293	0.2717050245312846	-0.10189259585525703	0.37359762038654165	113.63118713497806
15	6.0	ltm	266	diff_vonmises	-0.4202464088356506	-24.07834558181209	0.5302691580384958	45.38914574330202	0.5045532795360193	45.52427373500838	0.1852694115745166	-0.1418324509546287	0.3271018625291453	123.88838475915216
16	6.0	perception	266	diff_vonmises	0.12926523558881753	7.406352437003531	0.4480322798689914	99.2826382886391	0.4305815172763187	99.26507049522303	0.3245161932682059	-0.20404835315149938	0.5285645464197053	133.07921810311473
17	6.0	wm	266	diff_vonmises	0.20080616487222275	11.505345747386531	0.00020524793702044838	4463.95124241422	1.4372413522830836e-29	4464.005220824381	0.13723154563933804	-0.15439844479374187	0.2916299904330799	178.63128417435146
18	7.0	ltm	266	diff_vonmises	0.11532700135429519	6.607750441500643	1.4325131176248043	120.94090264181185	1.4134455427512531	121.6121848784113	0.1292102438000171	-0.2075218274235482	0.3367320712235653	70.97816170371544
19	7.0	perception	266	diff_vonmises	-0.2554360299883736	-14.635406453910939	2.4462610854708817	1.3575210441061254	0.04292975943058839	1.7165657580620144	0.5048129211279675	-0.25567285652532573	0.7604857776532932	86.51199180373926
20	7.0	wm	266	diff_vonmises	-0.18049822922999378	-10.341786744463514	0.0002583725914153704	3675.316166323105	2.5088555014993772e-30	3675.461414091714	0.12802385838404007	-0.17423813606683325	0.3022619944508733	179.05562111427983
0	1.0	ltm	267	diff_vonmises	-0.06591942848564829	-3.7769050401421023	1.1167826563747585	0.743750051345022	1.0816599842051439e-20	3.079771034672722	-0.21968017049464356	-0.46117944752324097	0.24149927702859741	123.84432680466475
1	1.0	perception	267	diff_vonmises	-0.06149548165776349	-3.523431558114015	12.995340215354114	0.7843294513823118	0.08724523936289771	3.3054411298120967	0.5432873937460139	-0.5476893141226413	1.0909767078686552	37.11836779783661
2	1.0	wm	267	diff_vonmises	-0.06969475374373964	-3.993215243719875	3.794080175968354	0.4303341394933557	8.727012269231146e-15	2.5876134099746446	-0.09040782305587497	-0.41166869226910213	0.32126086921322716	70.3426853829636
3	2.0	ltm	267	diff_vonmises	-0.06100123468335814	-3.4951132924434782	5.87132255140392	0.3299419031225755	3.9736205011452443e-32	1.5485947276187833	0.0649798516147028	-0.24646402942129775	0.3114438810360005	56.25691422883838
4	2.0	perception	267	diff_vonmises	-0.01936531365658829	-1.1095507414695647	7.7395954242916725	1.3261471543668322	0.3258611683441628	2.5032225559559	0.9089593065937184	-0.4288849741344152	1.3378442807281337	46.90531734686218
5	2.0	wm	267	diff_vonmises	0.015102458098076421	0.8653071092929512	3.275140041244586	0.7599602628574262	0.2515883136126959	1.9564469860546616	0.12888836658130548	-0.2870968463631225	0.415985212944428	68.07492643551117
6	3.0	ltm	267	diff_vonmises	-0.24219207066353685	-13.87658348055486	1.4769827848828032	4.33054654729569	1.055116503451061	5.00212713633526	0.09700679153575242	-0.189691778414672	0.2866985699504244	74.85681375261655
7	3.0	perception	267	diff_vonmises	-0.050100183349650745	-2.8705290587665875	3.827970541940314	2.5062221806789715	0.6427749146474465	2.920305822536984	1.081896459143821	-0.39031925956382063	1.4722157187076417	62.84266470895787
8	3.0	wm	267	diff_vonmises	-0.027515324077033866	-1.5765119415487379	1.7036363802246024	3.5563157101904843	0.9759586784784243	4.101017908620634	0.28163292146710783	-0.21816549421452947	0.4997984156816373	76.81443850716221
9	4.0	ltm	267	diff_vonmises	-0.15798554914306528	-9.0519051899543	2.667264762918587	0.5839066952531896	0.14913725409354986	2.040616196598826	-0.0175133458759687	-0.2992276156849993	0.2817142698090306	75.30265539053624
10	4.0	perception	267	diff_vonmises	-0.09567678168032513	-5.481875787677223	2.883330607452088	2.451765299118405	0.21945286202381517	3.6315223340318257	0.8584093144896461	-0.4979072210965239	1.35631653558617	75.41767748832817
11	4.0	wm	267	diff_vonmises	-0.17147001209659565	-9.824508006192103	0.7081542864680698	183.63160569784742	0.697193507526291	185.05814979017515	-0.0214946833343177	-0.30956877992031906	0.28807409658600136	94.84227861468254
12	5.0	ltm	267	diff_vonmises	0.05423260190285189	3.1072992010465708	0.9157817629376367	93.76470080416156	0.890798916609249	94.84947918794846	0.09789288529609408	-0.2762582769001316	0.3741511621962257	87.7499601639837
13	5.0	perception	267	diff_vonmises	-0.0453845856890295	-2.6003452149312256	1.0325775252500626	31.34062086484247	0.8744538628087651	32.42512408544538	0.5957539254557567	-0.46131602131441296	1.0570699467701696	91.45708698767899
14	5.0	wm	267	diff_vonmises	-0.04767944509695563	-2.731830973581284	1.2579941002995256	1.230813187856109	2.32615992662643e-15	2.335024119475879	0.10813660788310858	-0.33287250533847845	0.44100911322158703	118.56222684034404
15	6.0	ltm	267	diff_vonmises	-0.4290068197576552	-24.580280154443262	0.6342405531646605	146.4977044748894	0.6188398148333293	147.7117976326139	0.1012859916967841	-0.3245365792724524	0.4258225709692365	106.13019390969382
16	6.0	perception	267	diff_vonmises	0.09955811755614284	5.704259952234291	1.1445622685867523	2.3597350074140695	0.020722018039507132	3.3682843364122292	0.32314352927808465	-0.4368075196246057	0.7599510489026904	121.45390609214083
17	6.0	wm	267	diff_vonmises	0.04978744487231567	2.8526104639239396	0.3668983050575189	4.159253030057861	7.858836204713178e-21	5.352608526764289	0.07212817868022114	-0.4082857875726076	0.48041396625282873	159.23711133438087
18	7.0	ltm	267	diff_vonmises	-0.19375172902777277	-11.10115634665374	1.0064309479142206	149.5096131978435	0.9916442434111097	150.7272818750517	0.004085543420373483	-0.2776570019467641	0.2817425453671376	79.85527849947132
19	7.0	perception	267	diff_vonmises	-0.07153616321462815	-4.098720234757205	0.4806540778343414	166.9416066432347	0.46399166535972736	168.3007062937473	0.19132647894000598	-0.45029494014707616	0.6416214190870821	123.92538375692735
20	7.0	wm	267	diff_vonmises	0.3117414892944774	17.861471635696294	0.7048143724747065	88.3693958277914	0.6849951065754427	89.4660195462588	0.024827106066954485	-0.2555910513589481	0.2804181574259026	97.80172138405374
0	1.0	ltm	268	diff_vonmises	-0.4248641333028755	-24.34292170473837	0.0005051510113360076	1850.4960033109676	5.516857585006643e-23	1851.3078850744141	0.019575969576976604	-0.2779683871058296	0.2975443566828062	174.87889876463802
1	1.0	perception	268	diff_vonmises	-0.14713716564062984	-8.430338600725399	14.027205502197859	0.7409544309618689	0.140931784159402	1.7344120747317173	0.7802228871850456	-0.2950391954181205	1.075262082603166	35.78492070283943
2	1.0	wm	268	diff_vonmises	-0.07335374387775931	-4.20285993567921	2.6053828631402904	0.663858966244222	0.23287086352984893	1.1542494712071742	0.17205829162772845	-0.15555224000158452	0.327610531629313	77.60408957821556
3	2.0	ltm	268	diff_vonmises	-0.06967662839524728	-3.9921767377490593	5.593839834246486	0.2898827431457838	6.114945865087505e-14	0.6628963072724432	0.16128894236235683	-0.10549953066632582	0.26678847302868264	57.65365779831478
4	2.0	perception	268	diff_vonmises	0.023340965622257088	1.3373388199152765	5.433762650565326	1.5666961151457033	0.7488259164991504	1.7773115904615184	0.897497567476802	-0.27959327668283707	1.177090844159639	53.68035630820026
5	2.0	wm	268	diff_vonmises	0.6345706333605154	36.358219094501095	3.6768666226882543	0.4677084312393647	2.5042478989148465e-21	0.5173816030918788	0.26098296029599144	-0.08212401091586646	0.3431069712118579	71.4509225752964
6	3.0	ltm	268	diff_vonmises	-0.16638340104051202	-9.53306666065393	2.164396692686031	61.168787093200955	2.1359667247216154	61.41382348169506	0.12993821660082006	-0.1192972396718801	0.24923545627270016	59.29575102809352
7	3.0	perception	268	diff_vonmises	-0.06751049027736677	-3.8680661657520945	5.661717164502002	1.3653877064961957	0.1116569795861354	1.578858780843885	0.9845457412266425	-0.24613802081956102	1.2306837620462034	56.41662221280484
8	3.0	wm	268	diff_vonmises	0.45717901593866656	26.19442809522979	0.9681140126014876	33.84131077359722	0.9431443083197847	33.3170509158644	0.3338988617094518	-0.03327650028306661	0.36717536199251843	106.5000089275469
9	4.0	ltm	268	diff_vonmises	-0.35024394542867326	-20.067499873073302	8.542935379179013	0.45027779622006414	0.5212757933985082	1.0309876961272373	0.25841179618119237	-0.19346250928749284	0.45187430546868523	43.47819199490132
10	4.0	perception	268	diff_vonmises	-0.06705803113713381	-3.842142166614628	2.228416123035202	2.5126876052386913	0.3452800197548856	3.3757839697223315	0.6466006031936904	-0.3940301589827464	1.0406307621764368	81.7360092922471
11	4.0	wm	268	diff_vonmises	-0.5874141215206681	-33.65634998951914	1.5217870219543919	117.04978929756754	1.504283290385808	117.60659539150092	0.11581586841566605	-0.17872159170263302	0.29453746011829907	68.90374459697239
12	5.0	ltm	268	diff_vonmises	-0.25854506734613286	-14.813541172859049	1.5530638355593063	105.12196034523127	1.5358980529845518	105.29412980425161	0.23706100222744908	-0.11974726151309412	0.3568082637405432	73.30970942823757
13	5.0	perception	268	diff_vonmises	-0.10743314243095875	-6.155465641121782	2.2320761752234186	1.9393183204248616	0.2147535467815656	2.054999959721529	0.6679245107085842	-0.25432346668445716	0.9222479773930413	86.22290975561731
14	5.0	wm	268	diff_vonmises	-0.016398680940162228	-0.9395752074529206	1.1506970724905385	1.3014978153227694	9.29602309804717e-11	0.9866316615689931	0.3245230454967185	-0.10881482477862356	0.4333378702753421	122.55730561712926
15	6.0	ltm	268	diff_vonmises	-0.4456136698871	-25.531782577866732	0.6891876559887211	36.2924550732291	0.6474947546649895	36.606190708694	0.20176500129801767	-0.16942258679348665	0.3711875880915043	109.89601758407264
16	6.0	perception	268	diff_vonmises	0.014484702140550568	0.8299123001576569	0.7420522930698992	147.84232920485573	0.7276254943065057	148.15747871483663	0.3156892828186173	-0.21434037869209277	0.5300296615107101	106.04735772976848
17	6.0	wm	268	diff_vonmises	0.4430373362459242	25.384169533609786	0.00014722561356030723	5246.150945984505	1.0331215417752014e-29	5246.372884914652	0.0876052347955465	-0.1582415422651593	0.2458467770607058	174.02254387947806
18	7.0	ltm	268	diff_vonmises	0.10901076902103228	6.245856986380611	1.353400788158478	147.35330930437138	1.3316590891524689	148.4709901516587	0.12731191501665506	-0.3131309847473851	0.44044289976404016	71.75281365414713
19	7.0	perception	268	diff_vonmises	-0.3508877059218536	-20.104384632349795	1.5513216954725932	3.9410490489916863	0.5300680428872054	4.613852542496253	0.5778639717398466	-0.3561450348575387	0.9340090065973853	89.76268569857844
20	7.0	wm	268	diff_vonmises	0.6731922887578258	38.57107694657563	22.25076199050343	0.38593250573697496	0.4527387241366186	0.2777169042079079	0.655569590318544	-0.056811684349275485	0.7123812746678195	28.481115122496334
0	1.0	ltm	269	diff_vonmises	-0.30553181478527563	-17.50568349416906	0.00034651185689448644	2082.0526588108783	6.0133652919983275e-28	2083.4719468671274	-0.11105776088180619	-0.34069576791284817	0.22963800703104198	177.3293680077885
1	1.0	perception	269	diff_vonmises	-0.10956295772799644	-6.277495068784443	14.383448819960057	0.7040118614078864	0.1383937126850547	2.388812817057227	0.6208981332363717	-0.40784191725417074	1.0287400504905424	35.20989066436832
2	1.0	wm	269	diff_vonmises	-0.0534339826392264	-3.0615416878029844	3.0578078968435394	0.48911017220652414	5.06419456152702e-12	1.5897733432218648	0.07082434465535958	-0.2523051970623876	0.32312954171774716	78.56585018430306
3	2.0	ltm	269	diff_vonmises	-0.10464481931479953	-5.995706494647092	15.694894598085783	0.2197249207132825	1.0821382577373511e-22	0.8805275445562423	0.20428204594730417	-0.14014031124468707	0.3444223571919912	34.18535548975839
4	2.0	perception	269	diff_vonmises	-0.0051688393874568025	-0.29615268188226046	7.575707495090485	1.3091213402454158	0.5458518925892124	1.927692012619258	0.91979133472894	-0.3431068897922722	1.2628982245212121	46.71659709265282
5	2.0	wm	269	diff_vonmises	0.27611161954822966	15.820030474635438	3.779174750977801	0.41316565543575684	0.06337464858545606	0.9046835871613012	0.1546760037550563	-0.13887020902747357	0.2935462127825299	68.64551607671129
6	3.0	ltm	269	diff_vonmises	-0.21581993767152274	-12.365571563354736	2.0714643930265972	44.90395136141349	2.0327217040533516	45.207207035538964	0.10984703382083438	-0.12813106049327594	0.23797809431411032	59.83838921315328
7	3.0	perception	269	diff_vonmises	-0.05332185158704758	-3.055117051760777	5.052239078502186	1.7888910174451804	0.6243470366047992	1.9351339163248928	1.0370099495720906	-0.2924623526592241	1.3294723022313146	56.31568162301292
8	3.0	wm	269	diff_vonmises	0.1405782840969903	8.054542369948603	1.6086381971372337	95.32914967580966	1.5920588507303448	95.31526895426289	0.27682655674899337	-0.08784812267603748	0.36467467942503085	74.6273686616133
9	4.0	ltm	269	diff_vonmises	-0.40176830357408305	-23.01962813692579	25.077972315892044	0.1941388782177771	1.1202682733090738e-14	0.993665961403716	0.22773855878931265	-0.15814684953956104	0.3858854083288737	27.01209612586726
10	4.0	perception	269	diff_vonmises	-0.07550632545583932	-4.326193775160805	2.9297727891007885	2.1836605596305008	0.3102700184944102	3.0768813365435776	0.7588585732135331	-0.40782240499041317	1.1666809782039462	73.46689145487684
11	4.0	wm	269	diff_vonmises	-0.25929640204072774	-14.856589479861086	0.9278528487240899	144.54258196107747	0.9179837112027386	145.29815022685102	0.024935923062315624	-0.1775186440089911	0.2024545670713067	84.66785393642733
12	5.0	ltm	269	diff_vonmises	-0.0781344292187778	-4.47677302889963	1.4045232626598763	117.44100494317979	1.3840469519538288	118.16983660299533	0.1288955191235388	-0.220364414785152	0.3492599339086908	71.50795472600927
13	5.0	perception	269	diff_vonmises	-0.04765746460336151	-2.7305715840667264	0.9654372411422301	202.39184999736554	0.9448076204006334	203.2012596881088	0.524491131301005	-0.37482480779049254	0.8993159390914975	91.86191357539394
14	5.0	wm	269	diff_vonmises	0.023143275842452838	1.3260120298796223	1.5297471610468834	1.0260677027970275	4.2104221705985055e-16	1.4439381715621329	0.21994608686042352	-0.208710164583945	0.42865625144436853	109.53910682883756
15	6.0	ltm	269	diff_vonmises	-0.472434276954659	-27.068490166816613	2.1113855672399966	0.9364196264535701	0.008481881316899705	1.8316628219031281	0.2051342579122834	-0.28173457060768403	0.48686882851996743	93.80358041579372
16	6.0	perception	269	diff_vonmises	0.052924264884408566	3.0323370117090387	0.8266241789027952	146.9751410915828	0.8042622630554186	147.8202512966035	0.37026308724477985	-0.3381532834568901	0.70841637070167	98.213971514848
17	6.0	wm	269	diff_vonmises	0.1856627858759248	10.637694043331603	0.0007665830868109566	1617.1774100982057	4.153201770380623e-23	1617.9846985388392	0.06885442776814443	-0.32574670032465747	0.3946011280928019	178.7802341950636
18	7.0	ltm	269	diff_vonmises	0.06485272207748617	3.715787264974854	1.316875672563735	194.6220696137346	1.301779585548796	195.94263029447018	0.007873466611584945	-0.3277293355869695	0.33560280219855443	69.50165593085075
19	7.0	perception	269	diff_vonmises	-0.24958796783183446	-14.300337174011071	1.5774786492632806	1.556999361541954	3.0527907203391987e-12	2.698440455245738	0.2658648020343752	-0.3998196159291095	0.6656844179634847	107.92163490480657
20	7.0	wm	269	diff_vonmises	0.6911357962848346	39.59916419753446	11.419224495011125	0.33339464162940835	0.008170667477177714	1.0526481596752384	0.275297016676167	-0.16779565378987696	0.44309267046604395	40.082288545531895
0	1.0	ltm	270	diff_vonmises	-0.28843962821581515	-16.52637334108878	0.00027546531641980157	2253.9721047143025	1.3048962410526256e-31	2256.422461192959	-0.2911650245621331	-0.4887940586776267	0.1976290341154936	177.61962948146325
1	1.0	perception	270	diff_vonmises	-0.05666521397383982	-3.2466776059067577	10.298857841371417	1.0387809708569096	0.17821773602072594	3.6422735260950883	0.6255878927596742	-0.6217169941694911	1.2473048869291654	41.11720408016916
2	1.0	wm	270	diff_vonmises	-0.048988441307194125	-2.806830931826569	5.176462317534401	0.317263303062643	2.8634599041763323e-13	2.574212996624108	-0.12947010233374256	-0.4096897833445914	0.2802196810108488	59.985942572774434
3	2.0	ltm	270	diff_vonmises	-0.1188839675995369	-6.811549595223489	7.330390429322227	0.30300757809837164	1.7214307526888136e-38	1.7146319597104962	0.04840343251028606	-0.27289201398274493	0.321295446493031	50.23808099284335
4	2.0	perception	270	diff_vonmises	-0.04228215101187885	-2.4225888017154613	9.17460886940562	1.2664305101349314	0.21948218767303845	2.7206762066600416	0.9751255253459911	-0.4626685885824148	1.4377941139284058	43.684324927893186
5	2.0	wm	270	diff_vonmises	0.01018529511112082	0.5835744229624538	3.2974834264890838	0.5573701624462086	0.04140342273924444	2.055576651958367	0.0442356380363636	-0.31784296853290317	0.36207860656926677	73.12340709028467
6	3.0	ltm	270	diff_vonmises	-0.2284547922442209	-13.089495405131911	2.3511023982285266	0.6063927143873559	0.2633333483632514	1.2660662364799065	0.08694366516619284	-0.1673822182076413	0.2543258833738341	78.56732609320497
7	3.0	perception	270	diff_vonmises	-0.06802661787207204	-3.8976380986189447	2.961339674852083	3.4982720602065753	0.8826156793202588	3.8421103313508307	1.047104101381651	-0.3965040204421194	1.4436081218237704	67.35970512686379
8	3.0	wm	270	diff_vonmises	-0.07414517709935955	-4.248205719043346	1.385435777871793	174.77419136992637	1.3695802131542383	175.3000105413363	0.28109853054247935	-0.21725462697033393	0.4983531575128133	75.42361143886686
9	4.0	ltm	270	diff_vonmises	-0.08092907796841911	-4.63689460747559	2.9281122097145627	0.7393313537442285	0.41296237732989677	2.3969688476870488	-0.07517818386670477	-0.3525583541416727	0.2773801702749679	64.26050474712673
10	4.0	perception	270	diff_vonmises	-0.1344961048027502	-7.7060591661467885	3.243621830111797	2.087665684149329	0.14330846435070005	3.253429316225293	0.8345669810299268	-0.4724094681139862	1.3069764491439129	72.78315560558573
11	4.0	wm	270	diff_vonmises	-0.2974911820095595	-17.044989171505964	0.7377271250906278	157.29927976714472	0.7251471390559535	158.91276924099023	-0.08927392507475673	-0.32542470279038227	0.23615077771562554	89.31470653305222
12	5.0	ltm	270	diff_vonmises	0.027112654277492605	1.5534406614976446	1.9411569078958169	0.9678661845820871	0.25025523342781386	2.0612695229487685	0.07551328075519892	-0.26031192926818464	0.33582521002338356	84.44263254644878
13	5.0	perception	270	diff_vonmises	-0.07363201180433132	-4.218803513445642	2.583246565242032	2.1597820555168545	0.14696677190846685	3.1892470244162827	0.7127559627119575	-0.4421541360388223	1.1549100987507799	80.89054753551781
14	5.0	wm	270	diff_vonmises	-0.1795772800809761	-10.289020245078635	1.5467770657227533	0.9276427854693677	2.200066004753897e-18	2.083564313833958	0.07774724712452963	-0.313048378156078	0.39079562528060763	108.92624452793822
15	6.0	ltm	270	diff_vonmises	-0.34198230886540065	-19.594142966126814	0.5195710309591608	80.90504777780018	0.49937175768078995	82.02676456442077	0.02923227443904608	-0.28468053517465997	0.31391280961370605	115.63933779608215
16	6.0	perception	270	diff_vonmises	0.225278907464605	12.907530611040084	0.15183471800130582	13.57039903850358	2.880493257427054e-08	14.451694887787072	0.19944740269779482	-0.45516035478500494	0.6546077574827998	169.89242773757687
17	6.0	wm	270	diff_vonmises	0.06731216730849847	3.856703096655436	0.26490491001285565	4.015714266840004	6.628172270726963e-09	5.179136529710944	-0.005738671737665735	-0.34239219248426905	0.3366535207466033	164.8000094083542
18	7.0	ltm	270	diff_vonmises	-0.3574069887375022	-20.477912023138625	0.7850352222914027	100.94919821092479	0.768824693760949	101.77921782443623	0.06539518119257437	-0.20995614182087863	0.275351323013453	94.59446421482222
19	7.0	perception	270	diff_vonmises	-0.13353538553144648	-7.651014006604201	0.5751500817650502	192.46722862845226	0.5617587523206394	193.5865296225739	0.19702914330807886	-0.36732950092530103	0.5643586442333799	114.39528064660952
20	7.0	wm	270	diff_vonmises	0.27452988459276867	15.72940373737921	0.7239372906623978	58.02772242138664	0.6965791667507004	58.90714967258987	0.053031617019072996	-0.21864154768512822	0.2716731647042012	98.4511329361016
0	1.0	ltm	271	diff_vonmises	-0.14409838663612284	-8.256229388894182	0.0004064075752015894	1725.877130154276	4.718038440140426e-28	1728.4471583302852	-0.2973896689126718	-0.5206530239828453	0.22326335507017347	179.38368596511992
1	1.0	perception	271	diff_vonmises	-0.029520557345406716	-1.691403344765726	9.638201314353838	0.9246486825964698	0.04095596351686992	3.7403405719447202	0.5095146115970787	-0.6015247576793922	1.1110393692764708	43.31282142695366
2	1.0	wm	271	diff_vonmises	-0.006339238874692802	-0.3632116328451589	4.319429803596167	0.4279714663746418	0.015077961449921752	2.9503133354244824	-0.13361698621720097	-0.4662151431723976	0.3325981569551966	64.65933243250029
3	2.0	ltm	271	diff_vonmises	-0.023016185501696453	-1.318730289737402	3.2568179012853675	0.31900946623274956	7.461507854335627e-28	1.4496318618406046	-0.01184309919637494	-0.2303914381200752	0.21854833892370026	76.07722213345613
4	2.0	perception	271	diff_vonmises	-0.003886699891265643	-0.22269150000347732	7.374139043277128	1.5273606689457686	0.39523632732959685	2.5662522027749985	1.0411336748249713	-0.4414527800170289	1.4825864548420002	47.776919996502784
5	2.0	wm	271	diff_vonmises	0.06917439378221009	3.963400814096642	2.5422668315957333	0.938720865128375	0.28836606843664514	2.147011013014654	0.11212532756990723	-0.29122818613629253	0.40335351370619976	74.79018011091938
6	3.0	ltm	271	diff_vonmises	-0.20673952603615114	-11.845302300406459	1.2136281548671488	69.1410789193104	1.1948730677230348	69.66513275184161	0.04119173942254051	-0.13664989867824318	0.17784163810078368	75.09838356552899
7	3.0	perception	271	diff_vonmises	-0.03876381962322378	-2.2210032622171236	4.501427427219769	2.008240564916752	0.5983313549364355	2.197985400543151	1.0630853886026506	-0.31641446626070824	1.3794998548633588	59.34111869803917
8	3.0	wm	271	diff_vonmises	0.024994516184181404	1.4320802883250254	1.2548604670813632	125.85885315553163	1.2382490904259382	126.26628241429547	0.22605562877081553	-0.1693278650881478	0.3953834938589633	79.6217452637475
9	4.0	ltm	271	diff_vonmises	-0.373644552574722	-21.40825590058557	2.951402056536195	0.38929616206070833	2.3520182859540124e-25	1.9614971415245195	-0.059594369083347865	-0.3114918503347614	0.25189748125141354	79.96561800915879
10	4.0	perception	271	diff_vonmises	-0.04922883648801877	-2.820604561103105	3.4689462838120733	1.9043808013503725	0.06209706967583657	2.746183641158537	0.8889855330349781	-0.4158577546753526	1.3048432877103306	72.17804106820685
11	4.0	wm	271	diff_vonmises	-0.09030074244276817	-5.17385142886848	0.6689902164003878	187.2602987677309	0.656592684334367	188.98720986105687	-0.035519351922403075	-0.3724973538881926	0.33697800196578953	97.41162573476147
12	5.0	ltm	271	diff_vonmises	0.011457879329319486	0.6564881277401928	0.9208742195717534	42.824598297391056	0.8699029930633618	43.86280339305992	0.0866986157505103	-0.26189809218879123	0.34859670793930153	87.95027011564085
13	5.0	perception	271	diff_vonmises	-0.08252470682250694	-4.728317406484118	1.2976961590555933	10.216934319114385	0.8126711328193732	11.052426425016282	0.6738154130162788	-0.42570793856049727	1.0995233515767762	88.15555290769854
14	5.0	wm	271	diff_vonmises	0.11319209347798707	6.485429230538951	0.382463952625045	59.58967434740129	0.3517757502510988	60.58300345485455	0.1150079176199732	-0.33803537053026655	0.45304328815023975	135.55618124068437
15	6.0	ltm	271	diff_vonmises	-0.49906215534474246	-28.594155215956004	0.5871482754900798	145.74036732866406	0.575247456799139	146.50390520887203	0.12844261200709894	-0.24480093990554863	0.3732435519126476	112.78831270295196
16	6.0	perception	271	diff_vonmises	0.14012832867924943	8.028761823543006	0.25044256761305245	201.1614787111276	0.2378888272212615	201.79298369141193	0.3185334860473432	-0.4259157531522497	0.7444492391995929	151.4667463743769
17	6.0	wm	271	diff_vonmises	0.08302594501923889	4.757036239687607	0.46396856440074746	3.6659930196396773	1.5483297564946385e-12	4.565216680154327	0.15334439320411175	-0.37868080751516475	0.5320252007192765	153.93217982978015
18	7.0	ltm	271	diff_vonmises	-0.39526181744644767	-22.64683394235186	2.340248789366026	0.35290557001351314	1.6340007343942193e-13	1.38197408664942	-0.01992179577267214	-0.21809271946667683	0.19817092369400469	89.77377274291848
19	7.0	perception	271	diff_vonmises	-0.0359252063509801	-2.0583627020477406	1.5310099550041965	1.7928863526926386	0.0845987656207371	2.9726405029946257	0.2723310307703435	-0.39716247195482657	0.66949350272517	104.33645102541645
20	7.0	wm	271	diff_vonmises	0.18547227897838708	10.62677880213456	0.5470759362764586	116.9435792855984	0.5334999548107306	118.05164776709636	0.018082878845543604	-0.2696171188954324	0.287699997740976	111.51502170984708
0	1.0	ltm	272	diff_vonmises	-0.1280963306483437	-7.33937911726239	2.2643770934611123	0.5775447278259094	1.1219432646068817e-33	2.6512599611983574	-0.10096252514313453	-0.41849595707829446	0.3175334319351599	91.35530246511748
1	1.0	perception	272	diff_vonmises	-0.10488743747257717	-6.00960749112099	12.29318577126662	0.8119464404365113	0.11143932619886715	2.947076354623607	0.6010045192722416	-0.49268404314842534	1.093688562420667	38.07360842559078
2	1.0	wm	272	diff_vonmises	-0.19422534750951342	-11.128292686756874	5.05970121063948	0.43101527785149246	0.05251282098556012	2.302986353794617	-0.009911914842721081	-0.36424973449859693	0.35433781965587585	58.728003045614145
3	2.0	ltm	272	diff_vonmises	-0.06950790992446003	-3.9825098814470485	3.2687230231578988	0.6029172156273325	6.469669847272533e-15	2.1021784860808	0.07996082818975592	-0.33397177786353177	0.4139326060532877	75.92947110330115
4	2.0	perception	272	diff_vonmises	-0.01723180496415167	-0.9873096978384717	5.600989178670161	1.463648454472417	0.28218850707777704	2.9221522390522106	0.7433644583453825	-0.4695579928705401	1.2129224512159227	54.573201489623585
5	2.0	wm	272	diff_vonmises	0.19293201411654748	11.05419014183659	2.8913700829067457	0.5738801904405397	4.958861709799531e-13	1.9294024478197216	0.060948997104484204	-0.3059403262779452	0.3668893233824294	80.82677685338467
6	3.0	ltm	272	diff_vonmises	-0.15272810507635018	-8.75067583390543	1.6991447153860488	2.2249834868316816	0.4837454825167208	3.552212850358774	0.17392297417761815	-0.3491726547778288	0.5230956289554469	82.90092310937882
7	3.0	perception	272	diff_vonmises	-0.07209605734128739	-4.130799805188943	2.415091700015972	4.137021117363208	0.5600959788989798	5.483482012635065	0.9742167929223973	-0.5967423718882279	1.5709591648106251	75.09925200993095
8	3.0	wm	272	diff_vonmises	-0.03242094474271578	-1.8575833015844687	0.7947184063553853	132.55563812976425	0.7744580151157159	133.39902684008953	0.2608981097901122	-0.2950443782802523	0.5559424880703645	98.8848523175711
9	4.0	ltm	272	diff_vonmises	-0.22120742209426697	-12.674251682970455	5.286400036465224	0.5366791390347314	0.11989132651635802	2.54162121147229	0.0249241968309053	-0.4062355388812403	0.4311597357121456	56.145861851791665
10	4.0	perception	272	diff_vonmises	-0.1600712878535179	-9.171409215230295	0.9209832052128355	442.52719657066996	0.9056066492447844	444.52591744136583	0.6479276985294291	-0.6842815639753255	1.3322092625047546	91.6123870446876
11	4.0	wm	272	diff_vonmises	-0.5012223605521456	-28.717925857222387	0.9245992025710367	214.7275437714294	0.9107864170879277	216.6148470693841	-0.04858247085445555	-0.40770332932418896	0.3591208584697334	81.72500012015793
12	5.0	ltm	272	diff_vonmises	-0.16889811277623867	-9.677149029803083	0.8400046007410774	131.8851388059621	0.8225543885827966	132.52867301341718	0.2411463034261203	-0.2387531001707348	0.4798994035968551	96.69869015183096
13	5.0	perception	272	diff_vonmises	-0.08093304386961131	-4.637121836875869	1.941562663160458	3.0154314483458724	0.29577759022335487	3.731775581420563	0.7467280451388578	-0.41854078451566	1.1652688296545177	88.33109727364743
14	5.0	wm	272	diff_vonmises	-0.1890139019163603	-10.829698849107148	0.510854805356444	117.753472325175	0.4944218603571348	118.44753030937645	0.19128190136721557	-0.2811699155271796	0.4724518168943952	122.55750105138573
15	6.0	ltm	272	diff_vonmises	-0.3629345478553662	-20.794617831601286	0.630227171837234	106.90240510385065	0.6152935946397728	107.79105337204567	0.06422114365931364	-0.23299059964812585	0.2972117433074395	106.03955425157609
16	6.0	perception	272	diff_vonmises	-0.022385161591372136	-1.282575282903977	0.31403787221606844	160.59871120822137	0.30188330232672106	161.3588525340621	0.1900798152681915	-0.3443956740153382	0.5344754892835297	143.86501473174764
17	6.0	wm	272	diff_vonmises	0.11457771860968319	6.5648197025723976	0.0002507810605044945	3252.9934377123764	2.8309977465542184e-31	3253.8166654368533	-0.0011794933585633771	-0.2608457514870679	0.2596662581285045	179.48873277996438
18	7.0	ltm	272	diff_vonmises	-0.2760963513390852	-15.819155670690739	0.9738864517832827	138.48508589209948	0.9544327403038803	139.6405500624029	0.12624313877639537	-0.30224658766080204	0.4284897264371974	85.33694273454728
19	7.0	perception	272	diff_vonmises	-0.18294981046190656	-10.4822520021856	0.6488213546730747	297.2264970515364	0.6358573419431156	298.6810010928174	0.33576941092617574	-0.49348416417467433	0.8292535751008501	108.42475938591255
20	7.0	wm	272	diff_vonmises	0.26201165225606726	15.01216185752203	1.1782360663751417	102.52336718804906	1.154038837310086	103.58224382509115	0.0680524812663279	-0.2693128862743386	0.3373653675406665	75.95434180657853
0	1.0	ltm	273	diff_vonmises	-0.32211187465031405	-18.455650948510005	0.0005957628646795259	1452.7434983680519	5.78514417681652e-26	1454.8626269959727	-0.19950653083131442	-0.47499203441611826	0.27548550358480384	177.02227760190863
1	1.0	perception	273	diff_vonmises	-0.05555523468204628	-3.183080477140068	8.306119990560381	1.076929965434162	0.08312654466575127	3.398993321587016	0.6315488409951405	-0.5504640705795785	1.182012911574719	46.34475442818979
2	1.0	wm	273	diff_vonmises	-0.041171473974067965	-2.3589516950468052	4.236739120158592	0.47966331654430644	0.05864364663308504	2.4943713676151056	-0.040127940095687764	-0.3911486565394094	0.3510207164437216	63.64664333015341
3	2.0	ltm	273	diff_vonmises	-0.03659963201497811	-2.0970044461901347	2.8189329273379613	0.38373946299136685	0.04497504169760667	1.4585369224973463	-0.0001649254763087249	-0.22332243703018004	0.2231575115538713	78.4513903319845
4	2.0	perception	273	diff_vonmises	0.005050791196562602	0.28938901876486806	6.198132200902085	1.6593029433976154	0.41856352472557196	2.5411250477323355	1.0231724757120664	-0.4197400280025682	1.4429125037146346	51.741977930152785
5	2.0	wm	273	diff_vonmises	0.31152165551132405	17.84887608772721	2.962790215731304	0.565791146901648	0.002368085066870359	1.5745811724437562	0.11673944011626403	-0.24902677979532226	0.3657662199115863	79.66940112500134
6	3.0	ltm	273	diff_vonmises	-0.13036043392486577	-7.469102679388846	1.0854175613943216	50.2357827404097	1.0590196678045334	50.80599484897025	0.047864555183689816	-0.1458861983612243	0.1937507535449141	80.00329617348066
7	3.0	perception	273	diff_vonmises	-0.049875691342915314	-2.8576666142462246	4.246517856059122	1.8648878955708674	0.365264091986733	2.128555447457264	1.0089720998297758	-0.30769537710141404	1.31666747693119	62.598387116817776
8	3.0	wm	273	diff_vonmises	0.12033886638628238	6.8949091553227095	0.9700165818870777	113.96359108313425	0.955729552363025	114.16144976272061	0.24297376542370586	-0.13568999999046127	0.37866376541416713	93.15353188857534
9	4.0	ltm	273	diff_vonmises	-0.3299657791989224	-18.905646531843864	5.878874561705252	0.39036060320482185	0.13420283907754224	1.9303658728837667	0.01902958240615027	-0.3125141910585239	0.3315437734646742	53.16857156328717
10	4.0	perception	273	diff_vonmises	-0.053470072366650946	-3.0636094768681885	3.140703027690268	1.8060124464379614	1.1831038569892847e-17	2.6696018043848793	0.7891710485230687	-0.4226091055932681	1.2117801541163369	77.49959729777697
11	4.0	wm	273	diff_vonmises	-0.36621659270105716	-20.982665149432044	0.8757699069228055	188.62885393465734	0.861706678526373	190.30221370431963	-0.021925107911904718	-0.3655648956331703	0.3436397877212656	84.93519235660416
12	5.0	ltm	273	diff_vonmises	-0.1852597853806676	-10.614603815811682	0.894401886435596	118.57731138147429	0.8790985451727809	119.2412329716589	0.13418444933103046	-0.19706891243241564	0.3312533617634461	91.27194043862015
13	5.0	perception	273	diff_vonmises	-0.11841086450226362	-6.784442784475163	2.5863826797679406	2.1663218269129207	0.2006331173660186	2.543344299033806	0.8126112870688396	-0.3356141748207321	1.1482254618895715	80.54600548403124
14	5.0	wm	273	diff_vonmises	0.021780479920131997	1.2479295751929997	0.39115366259513873	96.32736338309797	0.3743271486786072	96.80543839757468	0.18935224712245713	-0.2520904267338224	0.44144267385627955	136.1715438100857
15	6.0	ltm	273	diff_vonmises	-0.468473139996108	-26.841533737018352	0.5015506081652115	89.92643841573381	0.48854763811787283	90.35382159239047	0.11383973942482939	-0.171796672633878	0.2856364120587074	122.49888976073437
16	6.0	perception	273	diff_vonmises	0.1622219128131543	9.294630948732951	0.033369103722455586	219.05144038940605	0.02477509362579949	219.3778615705948	0.2506536238589163	-0.34586490111033186	0.5965185249692482	175.79342647068754
17	6.0	wm	273	diff_vonmises	0.22419461925192682	12.845405472677841	0.00035080918574405945	3162.734583403466	1.1905303573154021e-29	3163.271077703514	0.09121413287215319	-0.2619545990882557	0.3531687319604089	178.31587269720382
18	7.0	ltm	273	diff_vonmises	-0.6875563131022325	-39.39407491833331	0.00029922567477423244	2870.28617180266	4.463963127672631e-27	2871.1338866029796	0.001781331801566921	-0.2715968844134977	0.27337821621506464	166.94180860488584
19	7.0	perception	273	diff_vonmises	-0.11804721662233075	-6.763607295726129	0.9165661981825958	19.135988274607694	0.7255097886271258	20.098636572138695	0.41895500549664444	-0.38325464124857045	0.8022096467452149	97.92770800449584
20	7.0	wm	273	diff_vonmises	0.10522403990821784	6.028893390057024	1.091822176929406	1.7063926052811595	0.2076970325292026	2.6151913469896266	0.10578066204335146	-0.2655446727269072	0.37132533477025864	110.24711376230891
0	1.0	ltm	274	diff_vonmises	-0.17181098803668857	-9.844044488474934	0.0002106573346847	4793.574540123072	2.1915478675758323e-29	4795.152569152568	-0.0904283305764011	-0.4118569825592431	0.321428651982842	179.1447018964146
1	1.0	perception	274	diff_vonmises	-0.07690927932098465	-4.406577110485198	9.040566285277018	1.184243397506319	0.2753606896356192	2.8862349438193404	0.8058111771980823	-0.502078715061824	1.3078898922599063	43.571420908130335
2	1.0	wm	274	diff_vonmises	0.006405312790279189	0.36699738934416254	3.1026643661348037	0.48483600749066985	1.0128538613438865e-14	1.791825566111259	0.03848097117556759	-0.2845244604425288	0.3230054316180964	77.98829499594598
3	2.0	ltm	274	diff_vonmises	-0.06438867632658551	-3.689199401947267	5.099191800710108	0.29318738567711	7.213294659410776e-15	1.2042740701126684	0.06522208036775651	-0.1916566055956603	0.2568786859634168	60.45132948610447
4	2.0	perception	274	diff_vonmises	-0.03861381087508905	-2.2124083940589623	8.249055065706004	1.2176225597252974	0.19839929457163819	1.9640547336644536	0.9951781732613814	-0.3255273354865772	1.3207055087479587	46.31204984292549
5	2.0	wm	274	diff_vonmises	0.3007337284322017	17.230773396398604	2.8484880905818417	0.514580250841457	2.098708702547838e-13	1.2078287714513014	0.13493581152493683	-0.19113386155830328	0.3260696730832401	81.42369101599888
6	3.0	ltm	274	diff_vonmises	-0.2019109097267377	-11.568642964989031	2.4517644005902137	0.4544032335175352	0.3099315128266185	0.7993303743023131	0.09539004535881468	-0.10280712380665542	0.1981971691654701	77.42587510670842
7	3.0	perception	274	diff_vonmises	-0.07664797025146218	-4.39160520365307	3.521416882587544	2.1098817004243613	0.4484922048209104	2.114149897405415	1.010781351559317	-0.2756759173351013	1.2864572688944182	67.72612214310496
8	3.0	wm	274	diff_vonmises	-0.04949256814157777	-2.8357152717760425	1.2987412185845568	103.5594015900996	1.2835124852734177	103.50645698711543	0.3079882454209155	-0.09403570931738248	0.402023954738298	83.71465734170997
9	4.0	ltm	274	diff_vonmises	-0.16702762308622515	-9.569977864942576	5.319308987567712	0.5116024047193305	0.4658896844776242	1.4517804603177615	0.10943009203184889	-0.24552339121085082	0.3549534832426997	52.56996491085707
10	4.0	perception	274	diff_vonmises	-0.12238031873358683	-7.011875758900329	3.4209651863234423	1.7919203047732413	0.007976653688879403	2.5462654613832836	0.8553521987059748	-0.40067481968562024	1.256027018391595	73.95260423190041
11	4.0	wm	274	diff_vonmises	-0.46330781113383157	-26.545582193412802	1.0410289758591211	115.30986837875096	1.0241267336136186	116.17278510180763	0.06876696032087892	-0.2184118969376403	0.2871788572585192	81.47583882363561
12	5.0	ltm	274	diff_vonmises	-0.15474431085686569	-8.866195915758848	0.9028871375481916	94.88370821855126	0.8869530593195933	95.52210947292858	0.08357820509257508	-0.17213440061704333	0.2557126057096184	89.3195323844654
13	5.0	perception	274	diff_vonmises	-0.07440147810083057	-4.262890684712612	2.8639112419381494	1.7588097764192514	8.039992283911858e-17	2.2031034556453295	0.7710764400899559	-0.34698436220239215	1.118060802292348	81.23136077799205
14	5.0	wm	274	diff_vonmises	-0.21455822049184542	-12.293280494020077	0.609911858081453	7.916231667601253	0.4232906021420356	8.396207834443116	0.16498210920083722	-0.21207159323298286	0.3770537024338201	121.92815982784442
15	6.0	ltm	274	diff_vonmises	-0.3209863278204153	-18.391161865512476	0.6261171675480494	1.8423087660937194	1.9105455642184944e-11	2.6655191776145384	0.07411631611920677	-0.28176628659338326	0.35588260271259003	144.36485545113436
16	6.0	perception	274	diff_vonmises	0.25933469982227464	14.858783781108437	0.17204003681782723	181.14256077051104	0.16041431267073603	181.62740457673053	0.27048807501941496	-0.37054107311312734	0.6410291481325423	159.33270682828027
17	6.0	wm	274	diff_vonmises	0.1689426202961206	9.679699122848913	0.00038530463291718513	2340.4832508467016	2.415024190652809e-23	2341.218083271621	0.02658514204591711	-0.2604619187418393	0.28704706078775644	178.98671729031423
18	7.0	ltm	274	diff_vonmises	-0.20101105847675613	-11.517085286175517	0.6928845425015786	88.72855321940702	0.6745828719571358	89.44721584567583	0.10823283963922492	-0.2101341594514139	0.3183669990906388	103.34708652459155
19	7.0	perception	274	diff_vonmises	-0.19259338008877872	-11.034787841245924	0.6965882808899537	187.95863255470192	0.6801270594498677	188.72081329548635	0.37540871954259813	-0.34822265134668484	0.723631370889283	107.44721252402044
20	7.0	wm	274	diff_vonmises	0.2007579505662405	11.502583271141596	1.6017968744923194	0.9370959103711947	1.999009332459396e-08	1.3924989856225594	0.20076565269896982	-0.20446528888224538	0.4052309415812152	107.2563678825548
0	1.0	ltm	275	diff_vonmises	-0.0026272097498845656	-0.15052803056400624	6.3509336244353465	0.33873513823729323	2.3954134645590292e-33	3.2784736733466207	-0.18850894325413442	-0.5217842758942574	0.33327533264012293	54.04003248130479
1	1.0	perception	275	diff_vonmises	-0.1457040045103691	-8.348224516599261	13.662971667376569	0.6116696319221442	0.06592406980025378	3.4766966102275054	0.30282221320927916	-0.5714011162921436	0.8742233295014228	36.21715300982072
2	1.0	wm	275	diff_vonmises	-0.15446578578144368	-8.850237604448603	2.4329580005461846	1.120142557736091	0.25870909401941605	3.6267281765579296	-0.08559998310784811	-0.5107472208736192	0.4251472377657711	73.58216798298119
3	2.0	ltm	275	diff_vonmises	-0.05103060957937722	-2.923838554878184	2.110274338574117	0.6746257515070786	4.052184624966368e-21	2.5508661864744386	-0.04650793723671903	-0.4007020457465706	0.35419410850985156	94.55441653351176
4	2.0	perception	275	diff_vonmises	0.0313936614147526	1.7987243025280248	5.281903705119094	1.6130270871254901	0.4422449456729778	3.3937793926134687	0.6391560314370226	-0.5544841955616979	1.1936402269987205	54.27318659852753
5	2.0	wm	275	diff_vonmises	0.45536774101772926	26.090649686722188	3.7971152768116876	0.5571751549707481	4.041670028496903e-14	1.9393645607194745	0.10768482498814574	-0.30844988861463124	0.416134713602777	70.30036318912434
6	3.0	ltm	275	diff_vonmises	-0.1916507620136209	-10.980779803846637	1.8073695378951182	1.7945619027254944	0.4140669535213894	3.5600064456604765	0.048990600483459046	-0.40179771076032833	0.4507883112437874	80.25909365998311
7	3.0	perception	275	diff_vonmises	-0.08702788267664303	-4.986330377331336	3.5802202368858325	2.2416328515355928	0.26826906620820157	4.120749722256873	0.7791307412120948	-0.5991129781308397	1.3782437193429344	66.92772328851947
8	3.0	wm	275	diff_vonmises	0.35924519647544795	20.583233568391204	0.5698079714372177	55.69026883221261	0.5285009335177897	56.40845680404154	0.2518619920258338	-0.31121236015238196	0.5630743521782158	118.4272843962228
9	4.0	ltm	275	diff_vonmises	-0.45382445732783916	-26.00222604470011	0.9497013935399843	156.90566831630656	0.9248249494726952	159.60466463898845	-0.14191591030719763	-0.5645794048865298	0.42266349457933217	78.8259292983083
10	4.0	perception	275	diff_vonmises	-0.06498034131864433	-3.7230993088778788	0.893727623493052	441.061583821649	0.880390735075026	443.3974691966015	0.37586740202291935	-0.6565750539471225	1.0324424559700418	90.43690286695818
11	4.0	wm	275	diff_vonmises	-0.582458845702273	-33.37243359880187	0.9144759676894438	225.5729245683636	0.9006220294337094	228.15104519780027	-0.2373671619482991	-0.5102086998560651	0.272841537907766	75.92769327962523
12	5.0	ltm	275	diff_vonmises	-0.32283388052408435	-18.497018837860697	1.780510440108909	1.8686147736581635	0.29475965239437046	3.0425258616622823	0.2619450279472634	-0.34706942640119703	0.6090144543484604	88.36818796966031
13	5.0	perception	275	diff_vonmises	-0.11177702015280563	-6.404351501304511	1.0495978045228578	199.13926028331295	1.0212025882177562	200.5114075827956	0.5917491137316091	-0.5151552859152133	1.1069043996468224	86.84044094721756
14	5.0	wm	275	diff_vonmises	-0.14657527884164373	-8.39814485857938	0.4351763790931758	168.67192277538007	0.42305979266376015	169.32502017190808	0.22539060019035873	-0.3099394205902186	0.5353300207805773	130.81482732526456
15	6.0	ltm	275	diff_vonmises	-0.4004901910932176	-22.9463976860292	0.8123269717117259	183.73116689525003	0.7997238650126554	184.9646109249265	0.06772478423093986	-0.29922474489252693	0.3669495291234668	91.87823792524406
16	6.0	perception	275	diff_vonmises	-0.023609388481819923	-1.3527183168930597	0.46067322536478955	165.6939198774913	0.4453998303009517	167.13879013285617	0.127406619033394	-0.43741722757362567	0.5648238466070197	124.9077657053173
17	6.0	wm	275	diff_vonmises	0.44430624021934384	25.456872375894115	0.0001911284884331723	4410.313861095849	6.938480722992463e-33	4411.609106956409	-0.07198510713010364	-0.3402916362922497	0.26830652916214603	173.9884160854249
18	7.0	ltm	275	diff_vonmises	-0.3936213539044185	-22.55284230494851	1.2904331457553109	2.7565512302044013	0.44116570670501126	4.80759852124642	-0.04280413222777657	-0.4358230975052084	0.39301896527743185	87.11806883316912
19	7.0	perception	275	diff_vonmises	-0.2861776149101446	-16.396769525471424	0.6446541307517608	281.339795100999	0.6283168659041283	283.7638531715629	0.2159532284112231	-0.6517021616226586	0.8676553900338817	105.45401434218296
20	7.0	wm	275	diff_vonmises	0.43495644928484695	24.921168816017765	1.2912371416934472	133.9277423425887	1.2630540521085738	135.6978127608402	-0.00284657143000544	-0.4314660540752975	0.42861948264529204	70.08621902070828
0	1.0	ltm	276	diff_vonmises	0.2176287383446664	12.46920820790629	1.696146001440534	0.6516662159124207	8.102395050146377e-39	4.497357652883006	-0.4116298414529051	-0.7055466210812537	0.29391677962834856	104.57296211750051
1	1.0	perception	276	diff_vonmises	0.011045250742324082	0.6328462511989095	9.394102803065794	0.7950832732295992	0.03967852896366323	4.722908932901392	0.17659109544841267	-0.7599858160947877	0.9365769115432003	43.72128509428265
2	1.0	wm	276	diff_vonmises	0.039085373127352725	2.2394269208913546	2.87330949398988	0.7177742266733279	0.03695744433662051	4.5300978553666456	-0.2892387827352984	-0.7020031339519112	0.41276435121661276	76.81603649046266
3	2.0	ltm	276	diff_vonmises	0.2394086021885501	13.717102484530404	0.9228365361349115	0.8542294825891494	1.4148890809570423e-19	2.4168293027353664	-0.10526088881296153	-0.3405284379439284	0.23526754913096687	131.30190890906508
4	2.0	perception	276	diff_vonmises	0.0003222481999280792	0.018463461811566897	7.203719322722877	1.4545707473769858	0.3664494043908195	2.9221818717454653	0.8795396921707652	-0.5015013062953018	1.381040998466067	48.11071121728176
5	2.0	wm	276	diff_vonmises	0.02971872837775651	1.7027577085411196	2.717953345139181	1.2925791658510808	0.4304272635415684	2.795842959130946	0.14615264632475977	-0.3744663773720126	0.5206190236967724	69.75554375411093
6	3.0	ltm	276	diff_vonmises	-0.2775701138916817	-15.903596044958942	1.0445808432042107	36.156950376253995	1.002016779460146	36.922843497242944	0.02850887268956548	-0.1833002572621476	0.21180912995171308	80.3731514672092
7	3.0	perception	276	diff_vonmises	-0.043915025548095656	-2.516145621115066	4.614246488359626	1.9211498723110407	0.45242714083400953	2.4555371962711443	1.011468975800391	-0.3669449655339784	1.3784139413343692	59.26348631889121
8	3.0	wm	276	diff_vonmises	0.007372644747880478	0.4224214279028443	2.702889053674018	0.941918457402485	0.31995163061109033	1.585897690001243	0.24211808489466086	-0.20864343926049045	0.4507615241551513	74.63620284560795
9	4.0	ltm	276	diff_vonmises	-0.3811374906164801	-21.837569626531327	0.24831180067658123	111.33760854581863	0.23397846680394624	113.35159176230991	-0.11908700101871617	-0.47046634283413447	0.3513793418154183	145.66478624240273
10	4.0	perception	276	diff_vonmises	-0.02764793432064858	-1.5841099488280626	2.981332471677072	2.366049470855833	0.1986718403217809	3.567771527854259	0.8581950937712172	-0.4978832831964889	1.356078376967706	74.64355150010357
11	4.0	wm	276	diff_vonmises	0.025085018717850478	1.437265701539504	0.6236293769311383	158.40137004003924	0.6066506057882093	160.50648988300108	-0.05194556514689452	-0.45413031201204745	0.40218474686515293	101.03998754497982
12	5.0	ltm	276	diff_vonmises	0.08180859089293305	4.687286986077447	0.6151730397879592	147.48280388861295	0.5986490424848208	149.2737431388864	-0.013589380141361573	-0.4016299609317553	0.3880405807903937	103.1484892312487
13	5.0	perception	276	diff_vonmises	-0.045789909820675496	-2.623568577009346	0.9643062499666826	365.59298946302926	0.9485540164437548	367.2704386785669	0.5362691152736971	-0.5671175785824545	1.1033866938561516	89.40333159013258
14	5.0	wm	276	diff_vonmises	0.0567197914383703	3.249804664280879	0.3264170205628189	78.33567043957282	0.29815560880771413	80.00528743809689	0.04725027805075044	-0.4833959861907111	0.5306462642414616	140.74788978615692
15	6.0	ltm	276	diff_vonmises	-0.5205601577608081	-29.82590002235861	0.6450154765093749	283.99666424496394	0.6346923843470343	285.6820921302857	0.09813698228477108	-0.42698902228086766	0.5251260045656387	103.94871746553032
16	6.0	perception	276	diff_vonmises	0.07011275059547864	4.017164699174275	0.5473043539588519	201.74830224964174	0.5269688614073904	203.30056078586742	0.38007053673667457	-0.5839156757792772	0.9639862125159517	118.75791406713861
17	6.0	wm	276	diff_vonmises	0.0527036359931278	3.0196959074	0.7084995939816442	4.207405912072535	0.0857924498274556	6.024143394273393	0.16132946782985935	-0.5864144595378558	0.7477439273677151	135.25073163557227
18	7.0	ltm	276	diff_vonmises	-0.6365109078328615	-36.46938863286349	5.72957942799068	0.24649530326830046	1.3779255085206844e-28	1.9589682819739673	-0.08207325766296364	-0.31177706055604276	0.22970380289307912	56.95767020235665
19	7.0	perception	276	diff_vonmises	0.0569893389360655	3.2652485982771267	0.48878348304955205	140.2810955525875	0.4656301996388215	142.19005495863237	0.14601785749704987	-0.5544096993737035	0.7004275568707534	121.71971935088243
20	7.0	wm	276	diff_vonmises	0.21200748635128133	12.147134193105826	0.532817025053936	160.1377188078826	0.519577722456509	161.9197359430753	-0.048434194106079076	-0.39331844167696417	0.3448842475708851	109.72900631282496
0	1.0	ltm	277	diff_vonmises	-0.2739374787599996	-15.695461383402607	0.0004145470200331346	1727.549047023649	4.322499305402688e-27	1729.9161369781928	-0.262745005196507	-0.4906995053577816	0.2279545001612746	177.84136609501437
1	1.0	perception	277	diff_vonmises	-0.0839868786828226	-4.812093683002998	10.440073200116018	0.9279804201089987	0.1763814671949182	3.4202741756737938	0.536796543591479	-0.5844281506250312	1.1212246942165103	40.817486165834026
2	1.0	wm	277	diff_vonmises	-0.08303037168767419	-4.757289869106253	3.9613545798608087	0.4289340331005927	0.010165291801027133	2.5129900601901918	-0.07599758570556026	-0.3970691171383583	0.32107153143279804	67.95737480192443
3	2.0	ltm	277	diff_vonmises	-0.08788396781681442	-5.035380442767021	4.609417942756855	0.3702057709643968	2.9991150499443772e-30	1.7721691846215983	0.025297632092717515	-0.2820190109634902	0.3073166430562077	63.65570998161493
4	2.0	perception	277	diff_vonmises	-0.025896910850609595	-1.4837836941664766	7.890416517459328	1.2869494030102573	0.2819438302140826	2.6842826863893827	0.8621884233163576	-0.4570615516944934	1.319249975010851	46.59230146377834
5	2.0	wm	277	diff_vonmises	0.21541640903614662	12.342451075635012	3.549535039380484	0.48678566188265926	5.598230272025619e-16	1.7528307255905984	0.0714582667766262	-0.27868222720773245	0.35014049398435865	72.78882672512893
6	3.0	ltm	277	diff_vonmises	-0.23401347575982664	-13.407984510225063	2.522918505076479	0.6646407333038936	0.28110494801440483	1.4451037603000834	0.0950749696575855	-0.19471669845642886	0.28979166811401436	75.65656756329696
7	3.0	perception	277	diff_vonmises	-0.07526827920598618	-4.312554729715303	3.418916757320487	2.5579525806956385	0.5633850226268053	3.173094309752839	0.9827509604139996	-0.41116109514737875	1.3939120555613784	66.25221198827208
8	3.0	wm	277	diff_vonmises	-0.0029591225903415003	-0.16954523548838762	1.2113696119713633	187.7951360673718	1.1988398721358262	188.20435074255352	0.279258244968716	-0.18767398294508197	0.46693222791379796	81.65944424077199
9	4.0	ltm	277	diff_vonmises	-0.20463695522358347	-11.724833866718939	4.532274988159977	0.48087316262317015	0.23068394231475506	2.1349400755146095	-0.026712087521171213	-0.34285317096442824	0.31614108344325703	57.65036600773246
10	4.0	perception	277	diff_vonmises	-0.12197411673936552	-6.988602099001651	2.551527699122324	2.528138548329726	0.2756969528824812	3.895999671160117	0.7063220995993889	-0.5058088119542448	1.2121309115536336	77.98695026461701
11	4.0	wm	277	diff_vonmises	-0.37877767458025113	-21.702362127228117	0.8204234597120591	163.62418138916485	0.8078106164515306	165.1839394170124	-0.08187450451389111	-0.31879547201391745	0.23692096750002634	84.74803391373048
12	5.0	ltm	277	diff_vonmises	-0.11974640276721739	-6.860963490435238	0.8726986620956442	103.72461871155613	0.8510016285744143	104.7787413205809	0.09893986844890179	-0.2702578778861344	0.3691977463350362	90.05655266851983
13	5.0	perception	277	diff_vonmises	-0.07897318844719246	-4.524830392715439	2.175357370109461	2.615743282625044	0.28299569221268284	3.6981682320187246	0.6536512188083136	-0.4476928729419646	1.1013440917502781	83.65400366350949
14	5.0	wm	277	diff_vonmises	-0.17512127269042538	-10.033709828120978	0.5369673461046787	59.84809592636184	0.5052482959120942	60.741624335717525	0.13456917103124155	-0.29072153017628466	0.4252907012075262	118.7576357772535
15	6.0	ltm	277	diff_vonmises	-0.37147437373576103	-21.283913812324503	0.6141105263261684	79.47183086492305	0.5898674377115477	80.65894078805333	0.051748650995318	-0.29696787491660004	0.34871652591191804	106.69639131609148
16	6.0	perception	277	diff_vonmises	0.19525825263983257	11.18747379136157	0.49104054280218146	4.17262245187911	4.217524784990787e-13	5.213798447972725	0.19275912577303467	-0.44681916430746016	0.6395782900804948	151.94331308903827
17	6.0	wm	277	diff_vonmises	0.16056973071414948	9.199967887472912	0.15874568729784674	6.125833244449049	8.524323359494485e-12	7.314234438000406	-0.028574757990854405	-0.3374657960000784	0.308891038009224	170.16750222961497
18	7.0	ltm	277	diff_vonmises	-0.30114429100486545	-17.25429689903827	0.8284211142256236	123.49896438828432	0.8114983856263843	124.63376244601014	0.051965774865252	-0.2711088848162184	0.3230746596814704	90.6776075050292
19	7.0	perception	277	diff_vonmises	-0.19569080253595358	-11.212257074838128	0.5721493592680502	256.10301103270655	0.5601122626017971	257.4826607857017	0.2253805105464437	-0.4437303442332947	0.6691108547797384	114.34046002944375
20	7.0	wm	277	diff_vonmises	0.3196377294850439	18.313892872637325	0.8635224918589388	53.64266653062882	0.8239859260625169	54.675837693692785	0.08628839586936365	-0.2611915810678225	0.34747997693718613	90.73759710837203
0	1.0	ltm	278	diff_vonmises	-0.024160102208620273	-1.3842718891586405	0.10141391195655083	11.039897987275737	5.031028406896161e-09	13.519784058415956	-0.21214230723341188	-0.5682088264087379	0.35606651917532606	174.18343042812273
1	1.0	perception	278	diff_vonmises	-0.07718733672186329	-4.422508626017922	8.889729036567154	0.8940738785821544	0.10748269918886517	3.4827013845457193	0.4320201301971236	-0.5722398742986721	1.0042600044957957	44.506579775770916
2	1.0	wm	278	diff_vonmises	-0.007289675524367569	-0.417667641566077	2.0233638148654847	1.2661043275312154	0.21404310007475225	3.493275892465577	-0.023116436399305496	-0.46865359549254443	0.44553715909323893	82.07634828928556
3	2.0	ltm	278	diff_vonmises	0.10755365059812425	6.162370250497221	2.3541091225159794	0.45615588739847696	1.29831225473989e-20	1.734584110952195	-0.01660309888646916	-0.27372700413369644	0.2571239052472273	89.62272147151381
4	2.0	perception	278	diff_vonmises	0.01601605189531788	0.9176521780642174	5.5992415238772075	1.537407445666332	0.42874856366864617	2.5716509230445483	0.8151753130864796	-0.4173280070648282	1.2325033201513078	53.81383750922964
5	2.0	wm	278	diff_vonmises	0.3690281620484732	21.143756206847335	3.2054715445167252	0.6358545263699898	0.05027081456367657	1.5196214409296092	0.1782280894742045	-0.2321774399954381	0.4104055294696426	74.57002094918741
6	3.0	ltm	278	diff_vonmises	-0.21700063718061607	-12.433220662098952	1.3056232675768962	2.883785274913273	0.7779827739682452	3.6384501489469327	0.059634849709666815	-0.18970613342995762	0.24934098313962444	81.57670423065542
7	3.0	perception	278	diff_vonmises	-0.0671612424469482	-3.848055739065009	4.497448138541386	1.6301828426074612	0.12151170887712595	2.236948189096966	0.9350448258540496	-0.34093934154656086	1.2759841674006105	62.854174621340434
8	3.0	wm	278	diff_vonmises	0.17177690282837343	9.842091549894652	0.7507197508128477	96.27006432557722	0.7329644825018962	96.43089563042626	0.2794714581778912	-0.16399996757568402	0.44347142575357523	106.6748962228312
9	4.0	ltm	278	diff_vonmises	-0.2636611234275202	-15.10666959407478	4.931982033425306	0.4350338340890645	3.209289690971591e-22	1.9383460882624155	0.06598712000723089	-0.30847788194694153	0.3744650019541724	61.48843274679459
10	4.0	perception	278	diff_vonmises	-0.038900835916151004	-2.228853717526382	2.3239627856669576	2.55257528997017	0.22889519475057127	3.7502286417434845	0.7001929255979972	-0.4819854329649489	1.182178358562946	82.55547703056797
11	4.0	wm	278	diff_vonmises	-0.30346950347081064	-17.387521759808138	0.8072489138188457	194.8763332277212	0.7951775460903031	196.34924784227036	0.003334976447881388	-0.3282316036014592	0.3315665800493406	89.59096221887008
12	5.0	ltm	278	diff_vonmises	-0.28600984098336374	-16.387156787554545	0.8347307535668613	167.45607340483463	0.8213255096031848	168.43513077301986	0.12726220939610755	-0.26561610763456756	0.3928783170306751	93.00746475089278
13	5.0	perception	278	diff_vonmises	-0.0727772357672798	-4.169828454093672	1.0454658430463324	56.54417599771714	0.9575109984659295	57.47421439661819	0.6302738053887786	-0.43584892169362277	1.0661227270824014	89.81021858377943
14	5.0	wm	278	diff_vonmises	-0.09137403070523924	-5.235346316509001	0.3693889474982819	144.1664464104201	0.35631833810013686	144.7441962358565	0.21551335093306534	-0.30037560670061936	0.5158889576336847	138.17876585090056
15	6.0	ltm	278	diff_vonmises	-0.4834468487570523	-27.699464052678525	0.5909000942252881	173.63805407034732	0.578415789812905	174.6997545378767	0.1320364827730458	-0.3139193686989259	0.4459558514719717	111.41192230744676
16	6.0	perception	278	diff_vonmises	0.07652147919464218	4.384357799951134	0.49679090949619564	208.60299114255932	0.48263133708657074	209.5653462114935	0.31681352286376097	-0.4253784007814332	0.7421919236451942	124.47436963771673
17	6.0	wm	278	diff_vonmises	0.26365547652380494	15.10634605032458	0.00036359916932460825	3670.1203461464	2.210052749191589e-31	3671.1589869400914	0.047098865991983985	-0.3776698876259843	0.4247687536179683	177.7309365383594
18	7.0	ltm	278	diff_vonmises	-0.2967853419717197	-17.004547516326387	1.8120339460490662	0.6892405507254046	1.9550111539856886e-14	2.211199329967694	-0.017016235196209595	-0.3429900094469406	0.325973774250731	101.43121349689754
19	7.0	perception	278	diff_vonmises	-0.1402846591410431	-8.037718899213115	0.6515959201283501	51.25555214520696	0.5728371606232041	52.792552445171594	0.3645560196938966	-0.5382469327122985	0.9028029524061951	111.28714652657956
20	7.0	wm	278	diff_vonmises	0.10600914154001863	6.073876400048044	1.4497843917993258	1.1805249019302249	5.696731186489488e-21	2.305624378169811	0.13397157894352324	-0.33937716059124795	0.4733487395347712	111.99195328880108
0	1.0	ltm	279	diff_vonmises	-0.1487049335925472	-8.520165087626133	0.000941993041260698	766.3400273048352	1.2075953202609079e-23	768.7575601717258	-0.2698474101910051	-0.4996230954362062	0.2297756852452011	179.31629758692608
1	1.0	perception	279	diff_vonmises	-0.034440722739364944	-1.9733080563458545	10.255892230453103	0.8338568231101711	1.1008892045353386e-18	3.5266894908550888	0.490442226013566	-0.5612900639204016	1.0517322899339676	42.374335489549196
2	1.0	wm	279	diff_vonmises	-0.013106855009826624	-0.7509674747529648	4.020143209155959	0.4681444270623909	0.026251867070929264	2.8478636410270526	-0.10431693916420753	-0.4479013319976522	0.34358439283344466	66.43531547866641
3	2.0	ltm	279	diff_vonmises	0.019179702045644797	1.0989159795338783	3.00051412817118	0.32387801658425164	8.044559799340256e-33	1.3254656009430719	0.00119175860580914	-0.21042908027101057	0.2116208388768197	79.32806510314106
4	2.0	perception	279	diff_vonmises	0.007524432514858078	0.43111822633237595	6.945344200027547	1.588595735484852	0.4720146938252096	2.462733910855381	1.0427526270928955	-0.42323156435280573	1.4659841914457012	48.837876992891125
5	2.0	wm	279	diff_vonmises	0.07344261771445375	4.207952031430936	2.472132583482884	1.0198316558064748	0.3713098496360296	2.0807000949361916	0.13316963309912316	-0.26969354511522614	0.4028631782143493	74.18573647049254
6	3.0	ltm	279	diff_vonmises	-0.21015030498793885	-12.040725539195948	1.360691875699614	86.20213333866778	1.3446505585858661	86.7101964392816	0.042963146605849545	-0.1384866462442904	0.18144979285013996	70.77818835057167
7	3.0	perception	279	diff_vonmises	-0.030849259772276014	-1.7675323860541268	4.928812602991102	1.891963750550487	0.5840722429112527	2.065650511131441	1.0857025389105466	-0.30958330810857126	1.3952858470191178	57.154201141907976
8	3.0	wm	279	diff_vonmises	0.06257106140769744	3.585057738314967	1.2317195480288425	102.15506804800589	1.2119861972021373	102.54471581000584	0.2225243482898307	-0.1639632864824918	0.3864876347723225	80.54771510423112
9	4.0	ltm	279	diff_vonmises	-0.5118746389983875	-29.328256454390218	0.572723838138049	48.688132960475805	0.5376368499894786	50.14943035961566	-0.049134074255274385	-0.31402962945443136	0.264895555199157	105.95651382264907
10	4.0	perception	279	diff_vonmises	-0.029372587401641715	-1.6829252914932034	3.2958913270575354	2.0289502046242958	0.11264782570890156	2.8227263220173398	0.9001994377831973	-0.4142297391053625	1.3144291768885599	73.08122490000792
11	4.0	wm	279	diff_vonmises	-0.05897394328188294	-3.3789580512957875	0.6749886211813575	188.20610783569563	0.6624107669836198	189.8463787809557	-0.0045576381401915	-0.3660744428989915	0.3615168047588	98.26419266527122
12	5.0	ltm	279	diff_vonmises	0.019547825989606634	1.1200079278606019	0.9782371627910215	74.60124573638561	0.9477246919572324	75.57119050387382	0.11004751417226188	-0.2551145703044586	0.3651620844767205	85.50530150753144
13	5.0	perception	279	diff_vonmises	-0.07896583703669136	-4.5244091879202575	1.0347180012249868	250.35948800306576	1.0152857897164265	251.12473678275478	0.6544604987587377	-0.40712982606065395	1.0615903248193916	89.40483330077245
14	5.0	wm	279	diff_vonmises	0.18349406074595176	10.513435246460187	0.36444841495351427	73.90487102703432	0.3392138116395746	74.79701322600371	0.1445790734561676	-0.3358348849201276	0.4804139583762952	137.74116292914334
15	6.0	ltm	279	diff_vonmises	-0.5321013209625194	-30.48715996448836	0.6391831401671269	145.17843309830093	0.6266136998149924	145.82601661687931	0.17112903505169896	-0.23235668917826224	0.4034857242299612	109.75337129540596
16	6.0	perception	279	diff_vonmises	0.06212350460147207	3.5594146222258987	0.4364617163871374	161.366866878937	0.41940937206509005	161.92870274892414	0.3775209063153824	-0.3862037976251962	0.7637247039405786	132.26047868952244
17	6.0	wm	279	diff_vonmises	0.08365486865765971	4.793070909805132	0.45842048289633164	4.094160088320142	1.1153276554468948e-17	4.86588564951719	0.2040443442076072	-0.3832530721037844	0.5872974163113915	154.22288616511582
18	7.0	ltm	279	diff_vonmises	-0.11363614153236153	-6.510871309955602	0.9007747050297898	68.25841813479862	0.8767102694651195	69.39795544204954	-0.04970902485210971	-0.23884204514166285	0.18913302028955314	81.76180622399946
19	7.0	perception	279	diff_vonmises	-0.02753807278734729	-1.5778153466390625	1.7770277188769217	1.5138778272934736	4.384842958041082e-14	2.7192308337850846	0.29411160683222237	-0.41198185529273895	0.7060934621249613	102.5203093361996
20	7.0	wm	279	diff_vonmises	0.17038087875014843	9.762105262113717	0.5084349156726258	139.23411151626928	0.4973623725671719	140.39574930392004	0.0022227459475843148	-0.27922053832312344	0.28144328427070775	114.94616648494812
0	1.0	ltm	280	diff_vonmises	-0.2933364483323379	-16.8069404668003	0.00045765691575686614	1798.307554018581	9.44406798915118e-31	1801.327345921041	-0.34961479426283404	-0.6115848499168806	0.2619700556540465	177.52754437368884
1	1.0	perception	280	diff_vonmises	-0.15691245832891237	-8.990421615269081	12.205676937803382	0.6938835113502059	0.13019215961853992	3.606200287591529	0.3058301865807802	-0.6107253577985471	0.9165555443793273	37.890104912316104
2	1.0	wm	280	diff_vonmises	-0.07827753255620468	-4.484972246168426	1.4409926631541865	2.96791713781323	0.48892217354431927	5.350623653458564	-0.054437891884956624	-0.5074442101455815	0.4530063182606249	82.22582578743658
3	2.0	ltm	280	diff_vonmises	-0.10991751784081728	-6.297809866832759	0.6116739189995686	1.5268890268988538	2.0255143694691368e-32	3.406560587711964	-0.13332417337988028	-0.42186848587178066	0.2885443124919004	146.3042535846297
4	2.0	perception	280	diff_vonmises	0.02987548245239699	1.7117390554394978	5.269018258002159	1.5468150796532447	0.45332948524797595	3.2410377031377107	0.6076014135430995	-0.529963106757154	1.1375645203002533	54.2357972721108
5	2.0	wm	280	diff_vonmises	0.5918405390944865	33.90996503486148	4.564902141170794	0.5611192406907989	3.7230415929519163e-16	1.667149605293838	0.19808400920635488	-0.2652848714774071	0.463368880683762	63.966131919231145
6	3.0	ltm	280	diff_vonmises	-0.24691042755860299	-14.146925416878602	2.994805521046834	0.5064118801721721	5.0665695961845766e-12	1.8707673593503948	0.033605659225183604	-0.2969119506312069	0.3305176098563905	79.39121311922611
7	3.0	perception	280	diff_vonmises	-0.1277143815379032	-7.317495045245374	4.037585438940623	1.6066211452626262	0.1025741377540895	3.1036556137387215	0.6956226543004577	-0.4731962787751393	1.168818933075597	65.93089808732637
8	3.0	wm	280	diff_vonmises	0.4234213156608093	24.260254343240963	0.6181399539334561	37.55832161493463	0.5699643786835744	37.68566387362969	0.3091468527204295	-0.19793301875692837	0.5070798714773579	118.10884684856012
9	4.0	ltm	280	diff_vonmises	-0.441799542491427	-25.313249175569446	1.1201630729287066	103.0408681501644	1.082225743803356	105.38619716979866	-0.10601818365582716	-0.5170860741738039	0.41106789051797676	73.18131791746377
10	4.0	perception	280	diff_vonmises	-0.05732582639234924	-3.2845279093812776	0.9165843542098744	251.53479981399386	0.8969715769353362	253.48270426348952	0.3117368328108796	-0.5458422680949724	0.857579100905852	89.38410767427288
11	4.0	wm	280	diff_vonmises	-0.7042595448557907	-40.351099602041096	1.1553842979800042	193.655149696562	1.1385370208770371	195.77193399915015	-0.171231485924892	-0.4569376874381881	0.28570620151329607	69.00300341744718
12	5.0	ltm	280	diff_vonmises	-0.5025533980219445	-28.794188686615637	2.688217442842	1.1287335947439974	0.1294058914926559	2.459367963791809	0.2503943941855353	-0.3541132745244621	0.6045076687099974	78.39285281221721
13	5.0	perception	280	diff_vonmises	-0.1292911616327396	-7.407837889899737	2.091430292499371	3.161142434353362	0.44129846536179856	4.654225080930498	0.5777188520598482	-0.5101233822501502	1.0878422343099983	80.35485109380937
14	5.0	wm	280	diff_vonmises	-0.25010769911363373	-14.330115582939094	0.39731636026773043	156.12029705665293	0.38519965992912475	156.56501440320878	0.24607869421733142	-0.28005238870842675	0.5261310829257582	135.28462128089188
15	6.0	ltm	280	diff_vonmises	-0.3856068419358127	-22.09364459429031	0.7675219486055366	154.3223536870526	0.7515047390531099	155.78494404756665	0.04138248150587032	-0.34105607509462743	0.38243855660049775	93.59052694349359
16	6.0	perception	280	diff_vonmises	0.25530193863054945	14.627723585038435	0.15506697444679815	143.54251212200003	0.14091470772531725	145.23810264618203	0.03615587400058118	-0.5310113750855052	0.5671672490860864	160.57719050613173
17	6.0	wm	280	diff_vonmises	-0.34551041621482553	-19.796288626917946	0.9391589651867526	96.87010895960988	0.9183568441494502	98.3838504281672	-0.11061466014321653	-0.3079939769840703	0.19737931684085375	77.27111067239153
18	7.0	ltm	280	diff_vonmises	-0.49901440113954926	-28.59141910154443	1.2814015489751864	1.2436617050173364	3.860767476207339e-20	3.366742563981087	-0.04574867801150656	-0.49805141140655207	0.4523027333950455	116.4776482773306
19	7.0	perception	280	diff_vonmises	-0.3767394540501253	-21.58558069313499	0.6775989655169308	42.55607800986471	0.5668135936353342	44.96122633558091	0.270239023747358	-0.6800125866240117	0.9502516103713696	107.5712654468802
20	7.0	wm	280	diff_vonmises	0.4825530021541	27.648250414797253	1.4752939707304011	99.87423496471924	1.4325256721986017	101.07415457781161	0.24878517591117344	-0.3790841426510596	0.627869318562233	70.38283187546548
0	1.0	ltm	281	diff_vonmises	1.5688779210103474	89.89008344515184	712.145995248538	1140.2990704135377	0.3085522368431545	2.282488826514116	inf	-0.47907311744244047	inf	0.0
1	1.0	perception	281	diff_vonmises	-0.09291026656154708	-5.323366147412107	15.258391207055341	0.6998317911176961	0.16176390690391784	3.129698672381206	0.49935593188882343	-0.5445822739924732	1.0439382058812967	34.010003346209004
2	1.0	wm	281	diff_vonmises	0.021177321058014772	1.2133711180177698	5.109539494473498	0.28697952826453776	0.044425214151771454	2.037170349812384	-0.08705663575537204	-0.3229909987485156	0.23593436299314358	58.27833964010921
3	2.0	ltm	281	diff_vonmises	-0.15853475200506031	-9.083372196043122	131.18315739708268	0.47720613644715937	2.3629955094638715e-46	1.2502540113599154	1.9791238189718279	-0.19898410602840122	2.178107925000229	11.790686988382987
4	2.0	perception	281	diff_vonmises	-0.0250388872888955	-1.4346225653574762	9.596377025808764	1.375469244658983	0.5450070774351736	2.7206774553895903	0.9818698501948315	-0.5224516957060105	1.5043215459008419	41.49596713163314
5	2.0	wm	281	diff_vonmises	0.06562385959831758	3.7599701903426754	5.8375532783681905	0.2914038925879455	0.009608164151107296	1.4828719512903248	0.03600094789145247	-0.2353320960964811	0.27133304398793356	56.05069772559153
6	3.0	ltm	281	diff_vonmises	1.3857013622092293	79.39483972011783	2.1698692862648175	1.9409381161544086	2.274981792221438	2.32032402756421	4.680827253122563e-05	-0.2415957825952877	0.24164259086781892	136.06281144367094
7	3.0	perception	281	diff_vonmises	-0.041993833725006334	-2.4060694380170036	3.2863066566749946	5.4405069810097375	1.7860227762824414	5.685211232435285	1.0134065110080308	-0.415784928003093	1.4291914390111238	57.84356034278895
8	3.0	wm	281	diff_vonmises	0.12382086843358829	7.094413176889249	1.929323662273513	138.5376626573758	1.9108003137018066	138.9148053510621	0.21861260507898805	-0.17911848262765062	0.3977310877066387	63.29881070082544
9	4.0	ltm	281	diff_vonmises	-0.4886092569884987	-27.995248256464002	36.652622432273276	0.1787777581318568	0.2374683153633388	1.528222476015775	0.12618850243550855	-0.2916960985651195	0.4178846010006281	21.955599292519906
10	4.0	perception	281	diff_vonmises	-0.10637295277151948	-6.094721248152499	3.235141114050774	2.0776869834347784	0.4470276661249371	3.1580275160508986	0.6721471643067596	-0.42354205344581963	1.0956892177525792	67.9598334301233
11	4.0	wm	281	diff_vonmises	0.10809445554501873	6.193356091494072	0.8325420333549655	92.11271502866991	0.8179257784320427	93.43215061276696	-0.14811538058084395	-0.24974210873678615	0.1016267281559422	76.1482705835551
12	5.0	ltm	281	diff_vonmises	0.018624907647560918	1.0671286020261712	1.4179006454553935	120.47048114498136	1.3885605055279144	121.83697287779002	0.06550811049407912	-0.36435233979439374	0.42986045028847286	68.44079604543197
13	5.0	perception	281	diff_vonmises	-0.0897943607299134	-5.144837893899296	1.07294255828785	88.35450117295538	1.0154003904528979	89.79676989760642	0.4607009579433452	-0.48341724306323997	0.9441182010065852	85.41437888635295
14	5.0	wm	281	diff_vonmises	0.02842848482824237	1.628832198609981	3.801915880826611	0.5433051487883515	2.2856251359999263e-33	1.6001623749006095	0.1515578333119761	-0.25447119772463206	0.40602903103660815	70.27342433369654
15	6.0	ltm	281	diff_vonmises	-0.3601606901964146	-20.63568749477332	0.8812627836872237	110.88221850425259	0.8590269911912983	112.08857395004536	0.09025671665653334	-0.3006594320313365	0.39091614868786984	88.98491982907798
16	6.0	perception	281	diff_vonmises	0.3932314237305993	22.530500951683866	0.19153623685701657	10.28209965055765	3.634984727781161e-12	11.605896789851668	0.11671377288365092	-0.5082376604741652	0.6249514333578161	165.1721970369672
17	6.0	wm	281	diff_vonmises	0.1676976287597724	9.608366362286652	0.6450078703223363	1.7229717730066412	5.4918936219109496e-18	3.0975664116731125	-0.02074769215270389	-0.36299579735316295	0.34224810520045906	144.36035680013788
18	7.0	ltm	281	diff_vonmises	-0.07601837670107996	-4.3555321504075115	1.319793379430912	163.68205055973337	1.3054231504268123	164.86217017363444	-0.04361477998632779	-0.2810107402273374	0.23739596024100962	67.46008099692529
19	7.0	perception	281	diff_vonmises	-0.321426297059392	-18.416370246021426	0.5082452693671482	98.9993750073628	0.48926734566841185	100.23225889108109	0.04934380995712573	-0.32553320927445384	0.37487701923157957	117.59782675635091
20	7.0	wm	281	diff_vonmises	0.729432345866232	41.79339485846203	8.855049399669065	0.2376185677906838	6.253423313240088e-19	1.1671464151779443	0.09210785257304369	-0.18575711563186498	0.2778649682049087	45.645772780976756
0	1.0	ltm	282	diff_vonmises	0.00031920352122972084	0.01828901457217758	7.903633508185881	0.17691604595666424	0.0032293620150885788	3.3777505478524	-0.3442425222159908	-0.5376094862882891	0.1933669640722983	48.09460950167164
1	1.0	perception	282	diff_vonmises	-0.0926635522038108	-5.309230455968537	12.013754118779982	0.7311856365890274	0.13822025838363758	3.9659217392468364	0.27863683811903717	-0.6743314930307815	0.9529683311498187	38.10112540039307
2	1.0	wm	282	diff_vonmises	-0.09998608617530778	-5.728780747876484	3.3986328746648784	0.5527590082921261	0.08109729841502443	3.3363518356235184	-0.18648419278721023	-0.5171474196783639	0.3306632268911536	68.61888079194088
3	2.0	ltm	282	diff_vonmises	-0.07985457222565313	-4.575329963352529	9.116294338788341	0.30993860294085335	8.721545849617167e-51	2.118316237665126	0.03069939193274801	-0.33714049581438316	0.36783988774713117	44.98358481395189
4	2.0	perception	282	diff_vonmises	-0.015515420375032212	-0.8889681048606307	8.070336797723272	1.3305453790519293	0.3552659099226596	3.2702083630487366	0.7634935174707802	-0.5762577382751507	1.3397512557459308	45.40537414933789
5	2.0	wm	282	diff_vonmises	0.1958178234814495	11.219534838924805	3.9262734817864082	0.5072283967155706	0.049185698492497404	2.1662780560015373	0.024093151642465782	-0.3378089392610927	0.36190209090355846	66.7205421220581
6	3.0	ltm	282	diff_vonmises	-0.2967637523282237	-17.003310520872876	3.7612878008725756	0.49221227528876293	0.11284555513740209	1.6494779614298227	0.07294031520548844	-0.25320622341794896	0.3261465386234374	66.56326110680592
7	3.0	perception	282	diff_vonmises	-0.06982313618390408	-4.000571015704889	3.6451886364281076	2.6839810215777162	0.6469597085208075	3.799075557721353	0.9182478459666363	-0.5153320459597774	1.4335798919264138	62.79628354398568
8	3.0	wm	282	diff_vonmises	0.07263843288762414	4.16187563490514	1.2655060507767317	178.86206723166538	1.2492282895674576	179.62478723096626	0.23693630704542556	-0.25597418721724097	0.49291049426266653	77.37453181876333
9	4.0	ltm	282	diff_vonmises	-0.23168225364236666	-13.274415321787055	0.8583669092285539	95.56592613504444	0.829996939815249	97.89596203337894	-0.20344104316295386	-0.4560630646100048	0.2526220214470509	79.30069973948488
10	4.0	perception	282	diff_vonmises	-0.11054707513214766	-6.3338808425876785	2.0171950857700494	3.775946252352159	0.5284150706910511	5.602637719896174	0.5457993405647283	-0.576917096808006	1.1227164373727343	78.9160640657332
11	4.0	wm	282	diff_vonmises	-0.21329404384877196	-12.220848507812951	0.6366147928566166	133.5498586164464	0.6231517934078409	135.74776892083486	-0.25210100128683166	-0.39661694520225055	0.1445159439154189	85.98892974468596
12	5.0	ltm	282	diff_vonmises	-0.11400160007805053	-6.531810542210572	1.78392192419481	1.632982052139233	0.32897666778975854	3.304948966826381	0.07440957812309168	-0.38714333593257355	0.46155291405566523	83.8890725563549
13	5.0	perception	282	diff_vonmises	-0.08831599451120352	-5.060133748992506	1.0361277999038447	157.28088305185062	0.9983963098101071	159.0786436377646	0.5071182885757395	-0.5795336728791636	1.086651961454903	86.13582389659297
14	5.0	wm	282	diff_vonmises	-0.14650318555478137	-8.394014217510941	0.8779539111184835	3.086150225075133	0.256515874305696	4.346750975342702	0.10341537445445759	-0.35676751717265204	0.4601828916271096	115.10900043461552
15	6.0	ltm	282	diff_vonmises	-0.35741607710368967	-20.478432748163833	0.8046340431826626	196.92525117990888	0.7906522020232549	198.59503579231466	0.021744464495782267	-0.37872068751395105	0.4004651520097333	90.4169476471281
16	6.0	perception	282	diff_vonmises	0.19669060233419175	11.269541383635206	0.6454295761116173	3.2933937781738476	2.4700417552725206e-17	5.062985557837108	0.09715046992344811	-0.557453429626316	0.6546038995497642	144.1876317801314
17	6.0	wm	282	diff_vonmises	0.2009356577247735	11.5127651413148	0.8669810845117807	1.273857938711224	5.758249564394596e-20	3.056194116083744	-0.083334742114817	-0.41522783350174164	0.33189309138692463	133.88909638780393
18	7.0	ltm	282	diff_vonmises	-0.39840854778559026	-22.8271283100505	0.95160322172645	161.49035609317355	0.935040709779074	163.1439933037819	-0.03653172015601314	-0.36068718584044035	0.3241554656844272	80.80424006638818
19	7.0	perception	282	diff_vonmises	-0.23316586858048355	-13.359420196163715	0.4386156140366592	216.6735082910562	0.4257842190102799	218.69151254627283	0.043352833166750315	-0.5327879413054255	0.5761407744721758	124.84461572791335
20	7.0	wm	282	diff_vonmises	0.5115590680535722	29.310175571115348	3.0542576426297083	0.6585104969248581	0.19341066399028786	2.334821751280476	-0.01100212535643147	-0.3477900122304062	0.3367878868739747	69.66348502261417
0	1.0	ltm	283	diff_vonmises	0.05241147223705748	3.002956157250481	5.654765892558851	0.4969106087967567	0.050638952912310485	3.869115794015898	-0.18740649093342865	-0.616699157761773	0.4292926668283443	55.22116171802358
1	1.0	perception	283	diff_vonmises	-0.08914692427730145	-5.107742517661709	14.158333258235379	0.6115574874961066	0.05522744336242662	3.876689662327107	0.2580925053984918	-0.6342132289230753	0.8923057343215671	35.60976637476773
2	1.0	wm	283	diff_vonmises	-0.17386073754189982	-9.961486484182567	3.4609861157918944	0.6888222391037141	0.09638273670172262	3.8262909574981347	-0.1800475696753836	-0.5922843886374022	0.4122368189620186	67.6878098550996
3	2.0	ltm	283	diff_vonmises	-0.012693642557732662	-0.7272921452057289	2.282306720663996	0.7001256273511324	1.9854441793509121e-22	2.6918737026552857	-0.03745788139060385	-0.4243533013314016	0.38689541994079774	91.01563527236277
4	2.0	perception	283	diff_vonmises	0.003734665041757666	0.21398054478776363	6.166018904880892	1.430524849311277	0.33205510713342895	3.312310883581246	0.6708574110336359	-0.5516343945513976	1.2224918055850336	51.49580848453658
5	2.0	wm	283	diff_vonmises	0.09943519731626169	5.697217141272365	3.1285855010138834	0.877662151522319	0.20328845371289636	2.6409312831626655	0.078889155363151	-0.3902652782983145	0.4691544336614655	69.71223171947145
6	3.0	ltm	283	diff_vonmises	-0.232762378165575	-13.336301898315472	1.8714631123378591	1.9155083728874698	0.41552935003428904	3.6985877385864647	0.09455683083625532	-0.4199349759332919	0.5144918067695472	79.97605597407603
7	3.0	perception	283	diff_vonmises	-0.059758637177329516	-3.423917699714556	3.2351504237759303	3.0362208915327282	0.45367708523290634	4.7603301677605385	0.9417834821111548	-0.6409144121440619	1.5826978942552166	67.66311630455542
8	3.0	wm	283	diff_vonmises	0.015274741823999821	0.8751782396671507	2.844822896462725	0.9901756460212939	1.9044763469105308e-17	2.347869772910773	0.2554183000771889	-0.3715482186080934	0.6269665186852823	81.50753126848045
9	4.0	ltm	283	diff_vonmises	-0.16484043163315257	-9.44466102569443	0.5812761147499587	175.52959949955547	0.5649640767129475	178.21491986678862	-0.15494414472154006	-0.5428801094699374	0.3879359647483973	101.41952332112707
10	4.0	perception	283	diff_vonmises	-0.09047814205412476	-5.184015677886474	0.9642216517730963	517.1910265945705	0.9503366963592578	519.5425732733727	0.5816349819897084	-0.7317856047195122	1.3134205867092206	88.4247407812172
11	4.0	wm	283	diff_vonmises	-0.199083345149558	-11.406635448415942	0.567890109810092	154.50364053323955	0.5521120950664687	157.07194484320837	-0.19942378269358585	-0.49681423796567614	0.2973904552720903	99.72619119588514
12	5.0	ltm	283	diff_vonmises	-0.1117729373737717	-6.404117575297182	1.2299620869808543	3.0043017165398487	0.3542416570159042	4.453970825167927	0.17635580904632875	-0.39408932488985726	0.570445133936186	97.74581272451292
13	5.0	perception	283	diff_vonmises	-0.05965317465138329	-3.4178751420810487	0.9437915883819032	471.7218727324579	0.931496401806023	473.37266213419576	0.5596236822376852	-0.5718591313841586	1.1314828136218438	90.54036940442509
14	5.0	wm	283	diff_vonmises	-0.12254941508289752	-7.0215642660469015	0.45106703150361493	137.4683719875065	0.4335236405296295	138.80984327184154	0.13185384961043667	-0.41785209654203825	0.5497059461524749	126.36441033539435
15	6.0	ltm	283	diff_vonmises	-0.4164257094151044	-23.85943563022671	0.7687931578900055	220.52083972053506	0.7557170427000676	222.20018830901043	0.054856344843102534	-0.3944105910624387	0.44926693590554123	93.62712556844552
16	6.0	perception	283	diff_vonmises	-0.03100474150885035	-1.776440833351201	0.5734238573231661	240.10362652903027	0.5589651135574284	241.7878904849715	0.22048415106655028	-0.5108791295575621	0.7313632806241124	113.53042109304918
17	6.0	wm	283	diff_vonmises	0.12589908351874946	7.2134861301894055	0.593695398445292	2.433761643838011	6.039992912669703e-17	4.104302114584311	-0.009825844282523977	-0.456972800795338	0.447146956512814	147.0878245368013
18	7.0	ltm	283	diff_vonmises	-0.3675219878841367	-21.05745878401921	1.0246055504439506	162.17066155171895	1.0039660272310884	164.15141066428407	-0.045947318527680636	-0.4379062022434397	0.39195888371575904	77.75965219500871
19	7.0	perception	283	diff_vonmises	-0.02380288129527922	-1.3638046384703895	0.3461316015954537	261.48776116310296	0.33355895050632217	263.905536743509	0.07205313579132167	-0.6907346303759851	0.7627877661673068	137.24138831095718
20	7.0	wm	283	diff_vonmises	0.29489763681425507	16.896389977838588	0.9411283480247852	172.75885827626126	0.9239817677150556	174.8266881445315	-0.11359952395587669	-0.43077642735341826	0.31717690339754157	78.82665488871265
0	1.0	ltm	284	diff_vonmises	-0.2922709588891249	-16.74589241858845	0.0009046028319832797	819.2711755016351	6.622208183286797e-27	821.4356461436095	-0.2265085762957142	-0.46241047959355797	0.23590190329784377	177.52086980307058
1	1.0	perception	284	diff_vonmises	-0.09740115799210217	-5.580675272634382	11.753844907102271	0.8161673573061841	0.14861915717436222	3.124685495459961	0.5297703082541957	-0.5312548744169574	1.0610251826711532	38.7042443925705
2	1.0	wm	284	diff_vonmises	-0.10166469969332072	-5.824958217892232	3.6295702675788	0.4740900122815024	0.024856752573130414	2.3445369192144	-0.036927780483381745	-0.36728217295998633	0.3303543924766046	70.18490945136944
3	2.0	ltm	284	diff_vonmises	-0.0722643056045409	-4.140439720583775	5.0088806292752315	0.3679038516634105	1.9175329254045747e-27	1.6365939362519522	0.05884795938775822	-0.2604577724693764	0.3193057318571346	61.004927384917266
4	2.0	perception	284	diff_vonmises	-0.014948793255201657	-0.8565027623366863	7.307219513168628	1.3157292603796733	0.33965236410668037	2.5720446282846505	0.8341775871042462	-0.4387188806590893	1.2728964677633354	48.01739329236628
5	2.0	wm	284	diff_vonmises	0.24904002512005888	14.268942369211377	3.6402242682985073	0.4737993228274911	0.003984544267843756	1.56559202470281	0.09572396942394196	-0.24794381563264475	0.3436677850565867	71.60727843441529
6	3.0	ltm	284	diff_vonmises	-0.22880406785648313	-13.109507423601384	2.3828756595894176	0.9254093019434065	0.511210105809101	1.7007652103488307	0.10697230244448502	-0.205286710520877	0.312259012965362	72.53501272026327
7	3.0	perception	284	diff_vonmises	-0.06918453810258164	-3.9639820408399604	3.764665105292239	2.3149847730622906	0.4920903355061222	2.990436255431219	0.9882756614544246	-0.41296855265016796	1.4012442141045924	64.22437859720608
8	3.0	wm	284	diff_vonmises	0.04479704984230148	2.566681890601065	1.1661033732405006	172.28883278249816	1.153191628236036	172.65524448036317	0.27752811688000634	-0.17796432192934653	0.45549243880935286	83.60683163680108
9	4.0	ltm	284	diff_vonmises	-0.3386483223522061	-19.403119609967227	13.865283237364853	0.24464277967932954	0.005490828433887486	1.780237952990362	0.07501466386515415	-0.28386988868107726	0.3588845525462314	36.336668697233705
10	4.0	perception	284	diff_vonmises	-0.1105044225951182	-6.331437032230364	2.2552836502156874	3.0078805619156714	0.3692327457042825	4.4135824812119155	0.6853771466738843	-0.5197353100626969	1.2051124567365812	80.01073983707897
11	4.0	wm	284	diff_vonmises	-0.3648128161337505	-20.90223467674601	0.840477006989491	175.8462305848984	0.8289965513485741	177.287886532186	-0.060373938393667004	-0.3003102673142699	0.2399363289206029	84.59755373850349
12	5.0	ltm	284	diff_vonmises	-0.12087885146781412	-6.925848021494505	0.9623436237558776	122.42990033549256	0.9429643540410038	123.39207959511727	0.13210623152610879	-0.26110837135628806	0.39321460288239685	86.5907343430664
13	5.0	perception	284	diff_vonmises	-0.07306110066835056	-4.186092714876925	1.6997418881263662	3.817035957080627	0.47105478310710247	4.852820993891992	0.6126966683391981	-0.4405149527377512	1.0532116210769493	87.39626029941681
14	5.0	wm	284	diff_vonmises	-0.1307937102225196	-7.493927582607464	0.9299981369583061	2.2602920708066514	0.19066870355428134	3.021967439023067	0.1655928283561171	-0.27831579362335257	0.4439086219794697	119.29831839552047
15	6.0	ltm	284	diff_vonmises	-0.3954828011331591	-22.659495374941667	0.6735023875745515	103.45854838941379	0.6531820728328571	104.6024193482949	0.08460817866086856	-0.2957314919490006	0.3803396706098692	102.62428911222018
16	6.0	perception	284	diff_vonmises	0.12754197841316023	7.307617073822733	0.9519404682174967	2.2759914860516615	8.38550176399039e-12	3.3250944540689398	0.2277819507952532	-0.4164191520946509	0.6442011028899042	130.44469535835083
17	6.0	wm	284	diff_vonmises	0.18008295981531505	10.317993559641556	0.051385839257590306	19.91447795514491	1.416517599613901e-08	21.035817194252395	-0.013546954406023382	-0.3392037564244208	0.3256568020183974	175.9999801268429
18	7.0	ltm	284	diff_vonmises	-0.20479598534196375	-11.733945621317595	0.9674847025398392	173.71858869597122	0.953470387630147	175.00029919579487	0.0353169552526893	-0.30007040026043796	0.33538735551312726	82.67674694186037
19	7.0	perception	284	diff_vonmises	-0.21170275189417492	-12.129674194841417	0.5789980495178717	239.34531685815742	0.5655298913546112	240.78697530814208	0.2348932679613327	-0.46114299769359945	0.6960362656549322	113.70451970617337
20	7.0	wm	284	diff_vonmises	0.383251144840237	21.958673092902597	0.9559629259972363	61.44741075958324	0.9196403881889024	62.48351512356902	0.0859390881858566	-0.26130965473069345	0.34724874291655006	85.81081490633949
0	1.0	ltm	285	diff_vonmises	-0.3144170023413882	-18.014767241316466	0.0003618669760998546	2786.0048104012967	4.310149638754198e-30	2787.4207070455554	-0.06487829459973682	-0.3857865735585051	0.3209082789587683	177.1710577491599
1	1.0	perception	285	diff_vonmises	-0.11354248163353456	-6.505504993043195	10.096450961136224	1.0092503936886439	0.2572119175107471	2.5372197658699767	0.7485554739265304	-0.4442678776629112	1.1928233515894417	41.43437759037167
2	1.0	wm	285	diff_vonmises	-0.10064782901842612	-5.766695819910152	3.5718990212642736	0.46262929370273614	0.007693385110577888	1.5686946377420712	0.08262381138742692	-0.2475907165852263	0.3302145279726532	72.0732180265278
3	2.0	ltm	285	diff_vonmises	-0.06562926366356606	-3.760279820473626	4.224241931171588	0.38721173625566185	5.185127115109674e-13	1.3212479247532574	0.09638362104218862	-0.21021743774078128	0.3066010587829699	66.57132585402994
4	2.0	perception	285	diff_vonmises	-0.021210090564068904	-1.2152486724113998	6.386226871197848	1.3199423101104577	0.29664957211587745	2.158326280795947	0.8502833674842665	-0.3526064305633824	1.202889798047649	51.683795128401016
5	2.0	wm	285	diff_vonmises	0.49870655614121395	28.573780882395607	3.2231981540038883	0.5080205368631092	2.382800888321415e-19	1.119655919194442	0.1683117428430526	-0.17764903131732787	0.34596077416038046	76.43690295160289
6	3.0	ltm	285	diff_vonmises	-0.1772447495614789	-10.155376090725989	2.594730638093639	0.6735043267171644	0.332285680080626	1.2241689713150767	0.14139602350313712	-0.15999966218009287	0.30139568568323	74.95567842525142
7	3.0	perception	285	diff_vonmises	-0.08855647001798997	-5.0739119806076385	3.2550500204627797	2.247310442710782	0.32800287242379217	2.705850821007476	0.9594230561136476	-0.36287253832726263	1.3222955944409103	70.67904187732475
8	3.0	wm	285	diff_vonmises	0.0900817635084747	5.1613048601311915	0.8885784771774498	103.95421255406757	0.8747000533996284	103.80425482977742	0.32267054361539493	-0.1034955483937745	0.42616609200916944	102.03392876096456
9	4.0	ltm	285	diff_vonmises	-0.23479227076324763	-13.452606177026961	6.148714109251695	0.5697097759410339	0.4680120688563108	1.6581804052366211	0.1517587987293797	-0.2905187535340171	0.4422775522633968	49.536706269322366
10	4.0	perception	285	diff_vonmises	-0.14093924456052795	-8.075223881080396	2.056016804454874	3.0478530861157687	0.33440885448759305	4.222021584431228	0.6856884586240297	-0.48189972057153907	1.167588179195569	84.31208491959993
11	4.0	wm	285	diff_vonmises	-0.5982523758680256	-34.27733622091205	1.2920148306609736	142.70965898321685	1.2744481832343388	143.6791572515437	0.07615753881775333	-0.2577358738527522	0.33389341267050554	72.62041512618458
12	5.0	ltm	285	diff_vonmises	-0.27759965310435253	-15.905288517175121	0.9845847350759679	123.44338468066599	0.9703846811926882	123.90652317055037	0.17655637748770658	-0.16668425951894505	0.34324063700665164	89.0261962565609
13	5.0	perception	285	diff_vonmises	-0.0945480280901447	-5.417202970849645	2.7884425208006447	1.7580409677635602	3.054707562830712e-15	2.1518253098555666	0.7615901182792599	-0.33829486961495486	1.0998849878942147	82.3413720269543
14	5.0	wm	285	diff_vonmises	-0.23279091081852293	-13.3379366989077	0.5195637273507661	92.92628873843698	0.503357926704543	93.12731675050061	0.23222001142736914	-0.186310322751293	0.41853033417866214	124.77595570749149
15	6.0	ltm	285	diff_vonmises	-0.34299785794747967	-19.652329642418326	1.1317265774464684	0.9945888307791069	3.036410254819688e-20	1.7332211070187145	0.08862266274138891	-0.23794726169746516	0.3265699244388541	122.5539551320062
16	6.0	perception	285	diff_vonmises	0.17415684481357271	9.978452181132557	0.2501404662486152	164.85717344098276	0.23898065129189802	165.40598096507574	0.21433190682954262	-0.32111793995384375	0.5354498467833864	151.0721965427286
17	6.0	wm	285	diff_vonmises	0.3064340973238723	17.557380475558997	0.00016040165848152493	4042.6936839525993	2.2393664420696138e-29	4043.336562037333	0.0008886156027756442	-0.20551478946310908	0.20640340506588473	177.01355839761234
18	7.0	ltm	285	diff_vonmises	-0.1700563237935744	-9.743509632881974	0.8482731828212027	109.5662810856632	0.8280252824381481	110.4703469766851	0.1440850610027411	-0.2553639203915452	0.3994489813942863	93.12281428601685
19	7.0	perception	285	diff_vonmises	-0.2806681593237263	-16.081100972954882	0.7765653754617138	254.56044636044732	0.7616791709790041	255.45851718743543	0.45748364932758534	-0.3960055975418193	0.8534892468694046	101.70024417660356
20	7.0	wm	285	diff_vonmises	0.3161917002818532	18.116449943215674	1.1660139982413633	51.8726108790504	1.1266449097731903	52.16250998309045	0.27413420908464303	-0.1601054202187715	0.43423962930341453	84.69198976323199
0	1.0	ltm	286	diff_vonmises	-0.3414547969754569	-19.563918761190067	0.5246553051057231	1.8296758180645039	8.024704115503536e-17	3.9994450150770646	-0.17664009708835415	-0.47548222246592065	0.2988421253775665	149.120246516252
1	1.0	perception	286	diff_vonmises	-0.09558305263120853	-5.476505508745067	9.785622874491478	0.8537193647867339	0.04939369117008215	3.1764455625370234	0.5199434381518163	-0.5123788439840747	1.032322282135891	42.95508691071109
2	1.0	wm	286	diff_vonmises	-0.1010350272797839	-5.788880646120756	3.316200988781847	0.6876728804601938	0.14270307207557695	2.6829910223397415	-0.013372008889390719	-0.4075752409863768	0.3942032320969861	68.65932248513926
3	2.0	ltm	286	diff_vonmises	0.0070660574748729775	0.40485527110708935	2.725586100695856	0.45237269906239586	6.277051561450794e-08	1.6752521701875425	0.013750085035551696	-0.26542131908764827	0.27917140412319996	83.29835767307887
4	2.0	perception	286	diff_vonmises	0.027236352287456207	1.5605280354027262	5.044999072975212	1.8010481569750703	0.5050204034633213	2.8514093091704535	0.8627777819917937	-0.45017151248111176	1.3129492944729053	55.84686517031864
5	2.0	wm	286	diff_vonmises	0.4060657745820988	23.26585508826492	3.235248996746198	0.5740979950270776	1.9654536383340117e-14	1.5601429336318442	0.14412131924364252	-0.2476967640575162	0.39181808330115875	76.30572169610406
6	3.0	ltm	286	diff_vonmises	-0.13972533787691835	-8.005672151386843	1.0761201823510782	123.47330885345454	1.0588123741044662	124.42373415632868	0.06628924644928702	-0.23874629329844232	0.30503553974772935	79.74863264452247
7	3.0	perception	286	diff_vonmises	-0.05592006975605291	-3.2039839870989906	4.055596970465152	1.9468698127682589	0.24080689930306293	2.756037443247815	0.9580757196612082	-0.4062211935300205	1.3642969131912288	64.55611269523865
8	3.0	wm	286	diff_vonmises	0.28645872329038546	16.412875849244987	0.610759205418924	118.99181429232996	0.5955410775079305	119.28006883272552	0.2665202803296083	-0.20907649367498493	0.4755967740045932	116.25287230133412
9	4.0	ltm	286	diff_vonmises	-0.36720346227451184	-21.039208610920873	4.486961426510765	0.55002064453122	0.1299912148708442	2.3360923424148603	0.02843394240567232	-0.3676467374151696	0.39608067982084194	60.43224778377021
10	4.0	perception	286	diff_vonmises	-0.04477345772012753	-2.5653301615707407	1.783113778679697	3.654628486202449	0.3705429905670585	5.009930689633018	0.6420995794309439	-0.5198362716078573	1.1619358510388011	87.88391148461417
11	4.0	wm	286	diff_vonmises	-0.44022988357449827	-25.223314344354353	0.9375727736032368	202.0241760257011	0.9228220122488877	203.880176709598	-0.040403433178113346	-0.4040395502293528	0.36363611705123944	81.4150558255698
12	5.0	ltm	286	diff_vonmises	-0.25670018600850736	-14.707837258510658	0.9072045633055088	165.5215792498822	0.8939862703658454	166.18485794460284	0.20338753782723984	-0.2231776772024432	0.42656521502968303	92.07469875452507
13	5.0	perception	286	diff_vonmises	-0.11387597655831326	-6.524612844722048	1.882451762968241	3.410365672619053	0.47120327364883796	3.9557662340918416	0.7410702153155112	-0.37208071631505735	1.1131509316305686	85.67528697349411
14	5.0	wm	286	diff_vonmises	-0.02744065888078108	-1.572233940926937	0.3898523635128757	116.52918880110849	0.37483661349704034	116.905674663663	0.23554620719965413	-0.25742316311024105	0.4929693703098952	136.90322597657334
15	6.0	ltm	286	diff_vonmises	-0.474236337659398	-27.171740639624527	0.6275918554223088	117.69981666126574	0.6153228076694401	118.2576446517356	0.12409968694418438	-0.1896012176134967	0.31370090455768107	110.13012454508652
16	6.0	perception	286	diff_vonmises	0.030471775539028655	1.745904132656321	0.3044466918702674	169.74037107044433	0.2925321552596952	170.30152025884783	0.24454316968083134	-0.33330748226221374	0.5778506519430451	145.56595232712462
17	6.0	wm	286	diff_vonmises	0.27950036333063355	16.01419119121838	0.0002505415854945705	4163.544036587463	2.4659099593868612e-33	4164.177543196004	0.0652057190288815	-0.26683633790617023	0.33204205693505173	177.47827835068267
18	7.0	ltm	286	diff_vonmises	-0.781021882102683	-44.7492575518479	0.00023077143021059946	4368.0834845237605	1.0651679634667156e-30	4369.344690761926	-0.040286710674763526	-0.36114919250871935	0.3208624818339558	163.3270774111574
19	7.0	perception	286	diff_vonmises	-0.16729811726207205	-9.585476039601472	0.7850570743838955	162.28463186205002	0.7581024971001601	163.6229604251227	0.4395904757043354	-0.48204031838713846	0.9216307940914739	99.96766497443711
20	7.0	wm	286	diff_vonmises	0.2357865630661136	13.509574929583524	0.9346085202056981	66.73281902835849	0.8986944230849675	67.80645298195371	0.10981101329787535	-0.2780365679106307	0.38784758120850604	87.44328368344267
0	1.0	ltm	287	diff_vonmises	-0.08056217333198669	-4.61587252032423	3.4220500307364534	0.4079705381479984	9.406371392833259e-22	2.4913444521624446	-0.10873923937528746	-0.396203053097713	0.2874638137224255	74.17346289388419
1	1.0	perception	287	diff_vonmises	-0.11104113947033756	-6.362188643973884	14.923118850965485	0.6602925206093949	0.08247476104147082	2.872232496564087	0.5129177277644197	-0.4769192181585415	0.9898369459229612	34.69548928437686
2	1.0	wm	287	diff_vonmises	-0.16239175630419278	-9.304362263947226	3.7700662546339547	0.5040530117873806	0.05380775153437674	2.322511348558741	-0.014637806428822564	-0.36149998474785705	0.3468621783190345	67.65497052573673
3	2.0	ltm	287	diff_vonmises	-0.05470295223787955	-3.13424829013622	4.158300910230677	0.4627178515235131	1.1342340111018514e-23	1.7368133187206551	0.08693720619327333	-0.2763336086769294	0.36327081487020274	67.11091108850317
4	2.0	perception	287	diff_vonmises	0.0004013593291162041	0.022996195626560672	6.346870690298301	1.3939886935166457	0.38711445635453556	2.6592800880987917	0.7704939349871546	-0.4457244540058513	1.2162183889930058	50.8891919974042
5	2.0	wm	287	diff_vonmises	0.20956643859559348	12.007272459115029	3.482802671777532	0.5332381726801457	0.061359980671880435	1.630414964417029	0.10421682712606617	-0.25042839033722336	0.35464521746328953	70.82954139000196
6	3.0	ltm	287	diff_vonmises	-0.21145145995697606	-12.115276227414256	1.5567880531282345	5.2712251774750145	1.0424612104016588	6.291780953283311	0.13488884113241628	-0.2858409170991696	0.42072975823158587	73.66012806383361
7	3.0	perception	287	diff_vonmises	-0.056981382466827435	-3.2647927261699596	3.6788326410117427	2.5267896227110453	0.4622646533175061	3.585376924610304	0.9959911661814885	-0.49934654685938973	1.4953377130408783	64.70415532524751
8	3.0	wm	287	diff_vonmises	0.0795393218230352	4.557267445792722	1.7237164839988988	1.6838475870512846	0.42140516732401245	2.292330866143911	0.2614951939262664	-0.22395045008364964	0.4854456440099161	87.41201783816354
9	4.0	ltm	287	diff_vonmises	-0.3357611687623692	-19.23769789446353	8.581432541597005	0.3391933189838571	7.394825302989465e-38	2.0222775676504186	0.06840512377063451	-0.3218554574650804	0.3902605812357149	46.3784568472592
10	4.0	perception	287	diff_vonmises	-0.10645110184721426	-6.099198860362659	1.0396666532046572	199.82937675081695	1.0068287477157096	201.5668690115033	0.6427602643849042	-0.6146271187474674	1.2573873831323716	86.83812285237383
11	4.0	wm	287	diff_vonmises	-0.3466284775209818	-19.860348820997586	0.81161443075076	188.16557904751758	0.7998888028489329	189.7585966262298	-0.062347094684547244	-0.33208774294318033	0.2697406482586331	86.40126259489347
12	5.0	ltm	287	diff_vonmises	-0.10863867388015251	-6.224537505230874	1.0039115539340477	140.55146651333212	0.9852204619262694	141.39317860724915	0.2119252401170968	-0.262546762992093	0.4744720031091898	86.74553686995836
13	5.0	perception	287	diff_vonmises	-0.06390004043969835	-3.6612026279100007	0.9612930684639617	277.574703846345	0.9436769148276261	278.58064292818443	0.5954070894004388	-0.44447836872911495	1.0398854581295538	91.71175038795613
14	5.0	wm	287	diff_vonmises	-0.08732430897849296	-5.003314353364008	1.202803987359441	1.4123798914275263	0.0005967267426508375	2.1290328909044645	0.19716862287781817	-0.2902714685521019	0.48744009142992006	120.51277180383025
15	6.0	ltm	287	diff_vonmises	-0.4152154551873566	-23.790093170838897	0.7567515232471089	145.5907147113753	0.7411509815109397	146.68226071572192	0.114402387568596	-0.2896029822554045	0.4040053698240005	97.29845249306311
16	6.0	perception	287	diff_vonmises	-0.006469764694648147	-0.37069021144608466	0.6335290572776012	181.81357205491426	0.6176641626060079	182.88035389287387	0.26032333074457625	-0.37354652827014156	0.6338698590147178	110.13313713301868
17	6.0	wm	287	diff_vonmises	0.14597068888889633	8.36350440595094	0.03795155999339096	29.171135780870298	4.891051231555994e-08	30.216592864731002	0.011455544353137448	-0.3408923301039186	0.35234787445705607	177.09241907647817
18	7.0	ltm	287	diff_vonmises	-0.13624492350313488	-7.806259096812384	1.1612495937981921	192.6355720176962	1.1451221630986734	194.14866292090105	0.01943405278325372	-0.36150874035434555	0.38094279313759927	74.52789521793213
19	7.0	perception	287	diff_vonmises	-0.19367062728785983	-11.096509559245561	0.5696420716180287	217.75697616236533	0.5537386052370561	219.402805626218	0.2300687606955094	-0.5091879435718312	0.7392567042673406	114.2275465493663
20	7.0	wm	287	diff_vonmises	0.44833435513592407	25.687666360007853	1.1076302276455419	88.07645466650106	1.0798672055797944	89.27790330857606	0.029507208391770234	-0.2869008097482233	0.31640801813999353	77.11490111190477
0	1.0	ltm	288	diff_vonmises	-0.8596723159548363	-49.255595468449144	0.003659163763869634	149.4598950084127	8.473240387975252e-15	151.44568481526647	-0.22892804841426084	-0.40300923598381644	0.1740811875695556	159.85359390817968
1	1.0	perception	288	diff_vonmises	-0.0944722010149955	-5.412858399470774	14.412574499860456	0.6702748991298176	6.022829105374473e-20	2.9629630973052286	0.5341179877168325	-0.4715702231346947	1.0056882108515273	35.69822851613412
2	1.0	wm	288	diff_vonmises	-0.1182157727943429	-6.773264852993306	5.130909188080427	0.3895562519690342	0.1139704635839063	2.301442990159221	-0.06670787337398837	-0.3684226123205201	0.3017147389465317	56.44344014806606
3	2.0	ltm	288	diff_vonmises	-0.15449336492402913	-8.85181777292134	5.834976660882972	0.33194760522374506	4.911190523930744e-18	1.3422474421856072	0.09875355309074538	-0.21362264533159694	0.3123761984223423	56.42583697305588
4	2.0	perception	288	diff_vonmises	0.014659630536861127	0.8399349589832438	6.743676406915661	1.6714160596093242	0.5395576499206316	2.759530730523616	0.9955694802243249	-0.47967783097744704	1.4752473112017719	48.9365435363886
5	2.0	wm	288	diff_vonmises	0.049073550468216126	2.811707327551029	2.9549174357019905	0.6154686986908122	0.14743232126922964	1.84060700872395	0.061991408733347575	-0.2716498208033553	0.3336412295367029	73.20958678527961
6	3.0	ltm	288	diff_vonmises	-0.15746582279330223	-9.022127063611137	1.5872299194467836	145.812139858378	1.5689050520855627	146.66312855852206	0.08091457821186054	-0.25080961108627164	0.3317241892981322	65.4592434928442
7	3.0	perception	288	diff_vonmises	-0.012614333551350358	-0.7227480738626468	3.8104454282418603	3.289278471195396	0.9901600086653287	3.9351760805859723	1.1251773874570223	-0.49773140936729243	1.6229087968243148	59.64765549687169
8	3.0	wm	288	diff_vonmises	0.11634431559061517	6.666038253680353	1.268741245809188	136.55993513512402	1.2483960169568016	137.34484762654301	0.20395031733718838	-0.2507170720625105	0.45466738939969886	76.74420382262235
9	4.0	ltm	288	diff_vonmises	-0.5284505408613324	-30.27798567276	6.9005472363445985	0.3501843516253951	0.07686796264350047	2.166081018523148	-0.011938171727973068	-0.34956607367306275	0.3376279019450897	50.041124833391095
10	4.0	perception	288	diff_vonmises	-0.055344754075263965	-3.1710208267020885	2.2642328064774637	3.240274010737487	0.4114185754871456	4.566167352906932	0.7492995881038493	-0.5229187565892014	1.2722183446930506	79.29350667111538
11	4.0	wm	288	diff_vonmises	-0.11854107292806762	-6.791903177730775	0.6658314217997704	166.81538599298946	0.6527866477093006	168.8272942393097	-0.1405763998181513	-0.3940030956605405	0.2534266958423892	92.5278675490927
12	5.0	ltm	288	diff_vonmises	0.0075678063889249685	0.4336033662575407	1.2309719573282425	100.31107276727242	1.20283855956899	101.0404007305975	0.2430355545292997	-0.24904926008678174	0.49208481461608145	78.96596227440011
13	5.0	perception	288	diff_vonmises	-0.10673403707755154	-6.115409854936546	1.0592085477907565	243.2569740005043	1.0396203701718594	243.9243575243477	0.6641269548240984	-0.38729933359474344	1.051426288418842	88.72383731146263
14	5.0	wm	288	diff_vonmises	0.17467612770589536	10.008204899235992	1.0431918631714412	1.5190528335687163	2.1010664607313804e-15	2.2466916643172423	0.1738915572551385	-0.29159872012164717	0.46549027737678567	126.54361698590584
15	6.0	ltm	288	diff_vonmises	-0.46327840081299315	-26.543897106154635	0.7984666956557563	125.14536508263166	0.7869074814620636	125.60646241279017	0.13738425196687842	-0.15853258235564027	0.2959168343225187	98.22649929751292
16	6.0	perception	288	diff_vonmises	-0.05136485630681292	-2.9429894816763094	0.48215373559224345	123.54976807069876	0.4647937342473118	124.09595901247022	0.2679585178248054	-0.29929601596021804	0.5672545337850234	127.11250134454983
17	6.0	wm	288	diff_vonmises	0.1166595136244558	6.684097770730243	0.12250237719858743	10.545842506329777	1.00903512126894e-13	11.164996825334558	0.1130925152928699	-0.297609806731709	0.4107023220245789	172.5425453264979
18	7.0	ltm	288	diff_vonmises	0.001560160049472188	0.08939058619967809	1.3889540112623386	137.00227030974617	1.370639162482325	138.16332179899928	-0.026727585357875228	-0.2866975859759151	0.2599700006180399	66.44594996503699
19	7.0	perception	288	diff_vonmises	-0.10919134885265085	-6.256203448597537	1.8746305286464593	1.3239371815562428	0.012708351778690369	2.6196428464608448	0.23447021967186438	-0.39619114206952966	0.6306613617413941	99.19693509723896
20	7.0	wm	288	diff_vonmises	0.36576646900157445	20.95687496119287	0.8121320193744165	85.77575128042649	0.7936595070462467	86.99118533001686	-0.06500485771490006	-0.24765206818625174	0.18264721047135168	85.26258974563515
0	1.0	ltm	289	diff_vonmises	-0.763092287548773	-43.721967455528116	0.0002556025033435539	1965.2740570623523	2.5572045152081486e-29	1966.8121423544208	-0.1648415719262175	-0.32473596534225635	0.15989439341603884	164.04987830890602
1	1.0	perception	289	diff_vonmises	-0.09482318618281405	-5.432968368258468	15.519983048617645	0.7343945123131734	0.13521824832852908	2.5458235404990037	0.6823951698379389	-0.43552917161136273	1.1179243414493016	33.94060426720492
2	1.0	wm	289	diff_vonmises	-0.08562642170714177	-4.906032578626601	4.504882795652336	0.29282528774776734	1.3172003126937103e-24	1.567759481421419	-0.009393362087244422	-0.24948732510220717	0.24009396301496275	64.40926535797024
3	2.0	ltm	289	diff_vonmises	-0.13985832857533348	-8.013291957120527	37.8567494293233	0.22920877444229082	5.045123421483258e-21	1.014838572078175	0.3992201911332435	-0.16151657518656226	0.5607367663198057	21.962643877620337
4	2.0	perception	289	diff_vonmises	-0.022967312010629688	-1.315930044969206	8.837118652522399	1.3140877921618648	0.4723591893794054	2.2249032236715633	0.997439180341123	-0.40639763141247937	1.4038368117536024	43.638879076941265
5	2.0	wm	289	diff_vonmises	0.05616376261993346	3.217946559696802	4.840214805395015	0.32179397118916164	1.0741043807130602e-11	1.216313019716316	0.08065090041665751	-0.1935650901291155	0.274215990545773	62.084134625206985
6	3.0	ltm	289	diff_vonmises	-0.18957364530606774	-10.86176978294773	1.9966759076601506	56.53181675398677	1.9625890679674125	56.89605179246993	0.11615076516165246	-0.14604864873976453	0.262199413901417	60.684163789566526
7	3.0	perception	289	diff_vonmises	-0.042448466891442556	-2.4321179996804676	3.599657313522578	3.4966989882569584	1.296375446344616	3.641827688442166	1.0917225304506024	-0.3791043237671198	1.470826854217722	59.73732781679195
8	3.0	wm	289	diff_vonmises	0.06965147422279891	3.9907355098306234	1.78904506744978	137.954527587372	1.7712602139304632	138.2541775669151	0.2595562094463446	-0.16495899688774784	0.42451520633409245	66.97933173348261
9	4.0	ltm	289	diff_vonmises	-0.42898660548858564	-24.579121962139634	24.291873369621694	0.19149418227247847	0.15819921363779613	1.2663727574653425	0.13968391325646784	-0.2248397867817174	0.36452370003818524	27.0457753040171
10	4.0	perception	289	diff_vonmises	-0.1142892833757035	-6.5482935810024925	3.0623887910522667	2.259738516438307	0.34315072157359433	3.2634054121503158	0.7864043916164781	-0.43594369598744664	1.2223480876039248	71.4409609013185
11	4.0	wm	289	diff_vonmises	-0.2253807482589522	-12.913365658738439	0.8717727129774977	110.2153116238711	0.8584647839397528	111.26698810365454	-0.0513229864270528	-0.21788481635918266	0.16656182993212987	82.45771377383596
12	5.0	ltm	289	diff_vonmises	0.047363002728228513	2.7137001613940974	1.4460142343761169	116.49037311810136	1.4223164345643844	117.28160658161087	0.15752558100242453	-0.24682680169434335	0.4043523826967679	70.77802746547462
13	5.0	perception	289	diff_vonmises	-0.07214317589653733	-4.133499499541518	1.5580561921805882	4.3129154201532724	0.5697368063521626	5.151639004505444	0.5730952351300376	-0.38714562087907883	0.9602408560091165	88.10281471601951
14	5.0	wm	289	diff_vonmises	0.008558002195432455	0.4903374068619724	2.255344962839969	0.7021794957889209	4.6016844534189944e-20	1.4257110818020982	0.1624158326495164	-0.22262923915668387	0.3850450718062003	91.55211678332446
15	6.0	ltm	289	diff_vonmises	-0.39064980797407034	-22.382585264510283	0.7718343420461686	55.31898838979881	0.7370437653918681	56.155148442511646	0.12356751575905633	-0.23693083530616477	0.3604983510652211	98.1074434645803
16	6.0	perception	289	diff_vonmises	0.15955676589325582	9.141929278440479	1.0672655149953512	1.9390524483099765	3.7347766956696223e-16	2.718560656163982	0.2545161128303319	-0.3513773981626731	0.605893510993005	125.61819921422075
17	6.0	wm	289	diff_vonmises	0.09760754481111815	5.592500366311128	0.03774409322908781	28.650811795468325	1.328600096015901e-16	29.516253931592246	0.035969338170150245	-0.30820106160904803	0.3441703997791983	177.47470868836768
18	7.0	ltm	289	diff_vonmises	-0.01645220317461692	-0.942641805597284	1.3633907456127523	166.1945198511175	1.3488895851406935	167.1895135712726	0.029428437888796566	-0.2566615584916505	0.2860899963804471	69.09268691085819
19	7.0	perception	289	diff_vonmises	-0.2544021431439381	-14.576169101230686	0.6359573409352254	100.51698189670881	0.612358274650101	101.54521979631899	0.17446794026135137	-0.3205573628176914	0.4950253030790428	108.8418537494181
20	7.0	wm	289	diff_vonmises	0.6826076816034804	39.11053921908931	8.314645803544412	0.24150361200850537	1.3270718932812653e-27	0.9823938388489231	0.1170262261895581	-0.15635281911865115	0.2733790453082092	47.12658406228613
0	1.0	ltm	290	diff_vonmises	-0.07811124172905716	-4.475444483601135	2.7607498745033845	0.493645193414922	1.4747352127662058e-31	2.874040352041834	-0.1491931136911938	-0.45618464370157635	0.30699153001038254	82.75951696902291
1	1.0	perception	290	diff_vonmises	-0.09252641846994765	-5.301373271789308	11.427319360177254	0.8720639990273763	0.12129118997111646	3.2893173028845166	0.5736178145326242	-0.5508358724570991	1.1244536869897233	39.37992209152324
2	1.0	wm	290	diff_vonmises	-0.1843693650872799	-10.563586491007769	5.500529160557257	0.40732965093840146	0.04888458266211537	2.6099556642103514	-0.06443133446489963	-0.41474014724202657	0.35030881277712694	56.3061382647214
3	2.0	ltm	290	diff_vonmises	-0.08674798259303988	-4.970293283855517	3.1019216469823414	0.6173774271302822	3.7618443022880883e-16	2.32116783972854	0.04268348543272349	-0.36859219663311255	0.41127568206583603	77.99029337132936
4	2.0	perception	290	diff_vonmises	-0.026779462925056414	-1.534350203232795	6.020581799651201	1.4333983935057915	0.23822275864543918	3.1065296008873684	0.752462919655054	-0.5033255367116569	1.255788456366711	53.03755797082886
5	2.0	wm	290	diff_vonmises	0.10945552170238879	6.271339437949465	2.8594017312898297	0.6182407582906528	0.014009141778052823	2.250871281568601	0.03066276629381992	-0.3520098044053176	0.3826725706991375	80.12164154587762
6	3.0	ltm	290	diff_vonmises	-0.1462658401068546	-8.380415325058094	1.89499682832122	1.5584262601709118	0.2774562375912264	2.9979121511600235	0.1603437237886356	-0.36453985341113737	0.524883577199773	85.17096995015405
7	3.0	perception	290	diff_vonmises	-0.07469536355619125	-4.279729080965058	2.1405759450555104	5.46374195008701	0.7079001262613513	6.8211644433300975	0.9850607853378992	-0.6177150735337948	1.602775858871694	76.14826878615611
8	3.0	wm	290	diff_vonmises	-0.097688806882795	-5.597156340052702	0.916286425792977	175.06840021938555	0.8981633321002128	176.1079635647252	0.26890646291167286	-0.3301032332567999	0.5990096961684728	91.0993356809314
9	4.0	ltm	290	diff_vonmises	-0.17841176860945215	-10.222241356786233	4.548681796617035	0.5698360510293868	0.1384256535390291	2.826694189896117	-0.04450239021321983	-0.44807035515206645	0.4035679649388466	59.35182158850094
10	4.0	perception	290	diff_vonmises	-0.1695290870137102	-9.713301190591688	0.9360236114514234	336.74436649382653	0.9153702485186673	338.78373244141244	0.6586489838403935	-0.6955529017781359	1.3542018856185294	90.9644194806906
11	4.0	wm	290	diff_vonmises	-0.48455402568268113	-27.762900617691326	0.8451622391060425	220.27273114947215	0.8317534190840887	222.41730482552998	-0.10044189482167099	-0.4436562397599424	0.3432143449382714	83.97728913561537
12	5.0	ltm	290	diff_vonmises	-0.15592494979003202	-8.933841543758106	0.7729854502789765	92.37360287342538	0.7478348438894151	93.1602295917685	0.21256422509445727	-0.2644792858475906	0.4770435109420479	99.97063027712646
13	5.0	perception	290	diff_vonmises	-0.08257203829757173	-4.73102930024346	2.1073238585258216	2.814413693460566	0.24551469127388717	3.6664205653561397	0.7635739456000403	-0.44508456807566515	1.2086585136757055	86.36747113149218
14	5.0	wm	290	diff_vonmises	-0.2127586656614729	-12.190173597237349	0.5173634034059935	99.00839592925037	0.4969133573986928	99.91145549597029	0.15653849373430262	-0.3092109358198858	0.4657494295541884	120.65019608283639
15	6.0	ltm	290	diff_vonmises	-0.34569701313090156	-19.80697984267926	0.6038467250788471	112.37736107744927	0.5899961069524788	113.34324872546922	0.03983851734282595	-0.24102679420455608	0.28086531154738203	107.05900772157533
16	6.0	perception	290	diff_vonmises	-0.0006349218332697687	-0.036378341367066684	0.18966258881209577	144.59993545613136	0.1767871213874499	145.41742899466132	0.16666798810890882	-0.37514404854730543	0.5418120366562142	158.40862858532188
17	6.0	wm	290	diff_vonmises	0.09195615795694417	5.268699751171244	0.00030928479136545526	2667.0617888413435	1.9025740189562875e-31	2667.9831906855916	-0.015352960329835241	-0.27791805466443975	0.2625650943346045	179.6404231790787
18	7.0	ltm	290	diff_vonmises	-0.35448175472531346	-20.310308460152086	0.8922051466215385	116.22513426895863	0.8708921080402596	117.32258508260152	0.12407213699589903	-0.28887978349669474	0.41295192049259377	89.55648633778289
19	7.0	perception	290	diff_vonmises	-0.14712411634459852	-8.429590931137188	0.6079170812521483	300.9386160530133	0.5957915595868457	302.450909524061	0.2903543747030142	-0.4968039344573789	0.7871583091603931	111.40888383063889
20	7.0	wm	290	diff_vonmises	0.2186186022870617	12.525923234097721	1.0943978698768289	119.09721619284383	1.0734065543844327	120.28428839638238	0.04685204045968305	-0.28809591958527925	0.3349479600449623	78.07327664054637
0	1.0	ltm	291	diff_vonmises	-0.10916205607181888	-6.254525095885664	0.002242114342313717	401.2659504005682	7.416909664429881e-21	403.0085151323888	-0.13406982666440115	-0.42044523798710287	0.2863754113227017	179.5318220265881
1	1.0	perception	291	diff_vonmises	-0.05292001608872002	-3.0320935736480714	11.254829597656183	0.7830153659428805	2.895023064335039e-16	2.822463655672617	0.5866200215401671	-0.4492090423239504	1.0358290638641177	40.43008154339773
2	1.0	wm	291	diff_vonmises	-0.008742351803518513	-0.5008998613601943	3.4646373838983955	0.5047234872184203	0.0005877863263023586	2.1435309608776576	0.017107004979430462	-0.34060213792705757	0.35770914290648803	73.65878237890132
3	2.0	ltm	291	diff_vonmises	0.06535778233069521	3.7447250858835406	3.206682898985102	0.3116373856259306	7.2818568115704e-33	0.9863870403992216	0.05497082720920171	-0.15664084468932843	0.21161167189853014	76.6809036212544
4	2.0	perception	291	diff_vonmises	0.01664057603130166	0.9534347752601424	6.4775826890326655	1.5843636751756294	0.5893852281024606	1.9814423796011364	1.0528612846323533	-0.33436209328735655	1.3872233779197098	50.262787501160375
5	2.0	wm	291	diff_vonmises	0.07305755953658383	4.185889822971991	2.3016009047972643	1.2559313371556067	0.6331469130362934	1.883140664392014	0.19296481098842677	-0.20139512506365725	0.394359936052084	73.23179370259211
6	3.0	ltm	291	diff_vonmises	-0.2224970055546739	-12.748139372581647	1.7271040024548272	86.7386527508308	1.710638926132455	87.10271417512676	0.06723169502254933	-0.12139675094351432	0.18862844596606365	64.02777994536214
7	3.0	perception	291	diff_vonmises	-0.02438105907774505	-1.3969317852139147	5.482849127242493	1.717617064108408	0.5293134105042838	1.6961977718147925	1.1361071965513068	-0.26213825600416957	1.3982454525554764	55.10599005777874
8	3.0	wm	291	diff_vonmises	0.09442088986616957	5.409918487201081	1.406123704603539	4.952518642340893	1.05473030091522	5.164747250951184	0.24487248352175595	-0.13117246510181113	0.3760449486235671	82.20918011886968
9	4.0	ltm	291	diff_vonmises	-0.5555085533224079	-31.828295588792017	1.232566116909743	0.872761481545388	3.4086208197351877e-18	1.8117014418259498	0.04779046585204566	-0.2597705346452993	0.30756100049734497	117.7840736624903
10	4.0	perception	291	diff_vonmises	-0.019103757358574544	-1.094564669488311	3.191261347641598	2.162605481934125	0.1342049883265125	2.7284076265783606	0.9725561448946707	-0.3928713151555247	1.3654274600501954	74.0369119879397
11	4.0	wm	291	diff_vonmises	-0.09523397863579074	-5.456505042069859	0.7549838947683559	178.03651189869765	0.7426648883486553	179.10394724833253	0.10622419893952895	-0.2808106292494621	0.38703482818899104	97.14423054166059
12	5.0	ltm	291	diff_vonmises	0.04151990796411348	2.3789154921153166	1.1395397966767	93.14624964274824	1.116700606177398	93.83157368508459	0.14766403316821908	-0.20576727318119126	0.35343130634941033	80.6708356583863
13	5.0	perception	291	diff_vonmises	-0.052140219608377406	-2.987414526445283	0.9725046521777418	258.3244063981021	0.9562884150712609	258.7963873180407	0.6373457374095182	-0.3458498841978397	0.9831956216073579	93.27915794323619
14	5.0	wm	291	diff_vonmises	0.25439930469793304	14.57600647025422	0.3611562211050905	108.25939143190068	0.3444550387903021	108.82703567974018	0.20426559915530618	-0.29228194959326714	0.4965475487485733	138.5986273842613
15	6.0	ltm	291	diff_vonmises	-0.5571482576510179	-31.922243726470704	0.6698812419785323	137.25540212885562	0.6556209236420298	137.67713182156862	0.2558818239661491	-0.2210462523655874	0.4769280763317365	110.06471774739637
16	6.0	perception	291	diff_vonmises	-0.034074333457044054	-1.9523154968100402	0.7868184571643493	194.2328384410113	0.7703633138617125	194.53455130995255	0.5204495046083082	-0.2965976823304821	0.8170471869387903	104.16594002744168
17	6.0	wm	291	diff_vonmises	0.0659790064306044	3.7803186049401507	0.3462754625266162	5.936566976467079	3.3890054012627705e-11	6.3452285903950525	0.28675978998941676	-0.36116737237362406	0.6479271623630408	160.31548181475128
18	7.0	ltm	291	diff_vonmises	0.12123776088491116	6.946412016321666	1.2000743187729117	122.3696139603155	1.181928305366061	123.56721576576616	-0.03933007271653821	-0.27504326051478856	0.23571318779825035	71.08008878038305
19	7.0	perception	291	diff_vonmises	-0.0377625417871049	-2.16363426808752	1.7464520430820254	1.6656216196901517	4.848054969810651e-21	2.6778582549515155	0.3651846921059735	-0.4021262798921675	0.767310971998141	103.32842097302928
20	7.0	wm	291	diff_vonmises	0.06354786034168901	3.6410241946655617	0.33581468025392675	83.69316762643827	0.3208524258896875	84.66612608543805	0.01774913433009573	-0.271875649762217	0.28962478409231274	138.35034713449974
0	1.0	ltm	292	diff_vonmises	-0.22892192350748214	-13.116260054995394	0.00022052286154825327	4686.974955953845	2.150057938425977e-31	4689.110794608558	-0.17542036749068757	-0.5044200537220149	0.32899968623132736	178.4929807443125
1	1.0	perception	292	diff_vonmises	-0.12288509544130695	-7.0407973338492	8.903677047896243	1.043652342537515	0.28447539823550105	3.207766774036372	0.5589339504487177	-0.5631453018279164	1.122079252276634	43.49084287964615
2	1.0	wm	292	diff_vonmises	-0.04171079788504808	-2.389852678936455	1.7338208382043088	1.5361629540005737	0.34766595696971225	3.1983073612856745	0.027267994457192746	-0.3700946752308654	0.39736266968805817	83.20870168168253
3	2.0	ltm	292	diff_vonmises	-0.08146200081043305	-4.667428837129106	2.2589750810660085	0.5009583096138899	2.3499082353264895e-43	1.954479171391145	-0.03302879603864628	-0.3080310350182917	0.27500223897964543	91.47109262074233
4	2.0	perception	292	diff_vonmises	-0.009027040359336541	-0.5172113140842419	6.001168566557253	1.33890806129254	0.3199684196085211	2.6366104183674888	0.7151450345527829	-0.4317361859193858	1.1468812204721686	52.62621503708405
5	2.0	wm	292	diff_vonmises	0.6052032800361542	34.67559369354571	4.494087086348589	0.5566867402497331	9.078544226817081e-17	1.400293555447811	0.23301245897349165	-0.22280670408112202	0.4558191630546137	64.48391356015523
6	3.0	ltm	292	diff_vonmises	-0.2222386704764701	-12.73333786290039	2.476504610089038	0.517825656712439	1.7295192274398583e-17	1.3414156076237211	0.08999576619244293	-0.21134953451636063	0.30134530070880355	87.37641741092018
7	3.0	perception	292	diff_vonmises	-0.1273484815629916	-7.296530520958997	3.114802312169293	2.0135289781742864	0.20469503681283438	2.860376949962927	0.7943213616919319	-0.40059529062335214	1.194916652315284	73.30089023579166
8	3.0	wm	292	diff_vonmises	0.23604389396804865	13.524318904202698	0.6532479186255247	98.50319210061888	0.638536588703624	98.32446493795086	0.32408843138413346	-0.12915528345209282	0.4532437148362263	117.34563038493616
9	4.0	ltm	292	diff_vonmises	-0.23720357896139807	-13.590763959886276	5.863113974877607	0.6100852501712994	0.4063123185863555	2.133434231920087	0.0861609851812482	-0.36885390439611637	0.4550148895773646	50.40113367457968
10	4.0	perception	292	diff_vonmises	-0.13103580775834536	-7.507798749640798	1.52160127194985	4.664672395631157	0.534105366625672	6.128820585387209	0.4866379265140337	-0.49310142181977507	0.9797393483338088	87.69095034282125
11	4.0	wm	292	diff_vonmises	-0.683905013376531	-39.18487085431334	1.3401025545744802	135.96256299849173	1.31867076640163	137.26951904630477	0.003040266437004391	-0.3252353186772723	0.3282755851142767	68.81340588302
12	5.0	ltm	292	diff_vonmises	-0.5056623504571331	-28.972318539858865	0.9002387183136655	162.14025134136946	0.8856888359224862	162.9983166078011	0.17488397839056802	-0.25501327736434476	0.4298972557549128	90.96809795992053
13	5.0	perception	292	diff_vonmises	-0.11466247690656224	-6.569675995262283	3.141396856178849	1.711300029092658	0.044730741439176054	2.641361393810919	0.7110307113387411	-0.40171416862646314	1.1127448799652042	76.1265439612913
14	5.0	wm	292	diff_vonmises	-0.35004560120923295	-20.056135586408555	0.4217664885601254	134.2897301255987	0.4093566839242913	134.57056419641177	0.2421745600956413	-0.23032112124363557	0.4724956813392769	132.95807291921744
15	6.0	ltm	292	diff_vonmises	-0.35152526648200305	-20.140914161630356	1.6187607192836104	0.8021052001632956	4.847262097075951e-20	1.980558281713378	0.04867161628932648	-0.3009288919813879	0.34960050827071437	106.54610217313372
16	6.0	perception	292	diff_vonmises	0.3015345131464148	17.276654980821604	0.11056152291894719	195.80803952604205	0.10093671805765782	196.88359915566275	0.12603306952574655	-0.437650874846927	0.5636839443726736	165.2807306576371
17	6.0	wm	292	diff_vonmises	-0.6286471481280353	-36.018828390671914	1.0642735259873632	92.57959206515189	1.0460908724603788	93.67890852140019	-0.06845335638482197	-0.2346440382000985	0.16619068181527652	73.47831812044694
18	7.0	ltm	292	diff_vonmises	-0.32487666956385997	-18.614062028275423	0.5680910629446757	16.121483726715454	0.4323051742289633	17.41998065767359	0.10491025010689992	-0.37492396983313325	0.47983421994003317	119.1682021148561
19	7.0	perception	292	diff_vonmises	-0.342495350424549	-19.623538082180826	0.6875826404656263	226.46545047545567	0.6685921858150639	227.8988739988775	0.41948070934786585	-0.5187445851956269	0.9382252945434928	106.35439041365214
20	7.0	wm	292	diff_vonmises	0.32842354978372956	18.817283295312386	1.2887839258894775	69.52012147910627	1.2475615210023028	69.83897735724118	0.40003727691727775	-0.2078785673279384	0.6079158442452162	81.04458718467629
0	1.0	ltm	293	diff_vonmises	-0.3264168943119668	-18.702310405843544	0.0010839638258812758	895.6616929577796	9.40145096955514e-19	897.2603334347796	-0.09987382017581581	-0.40890550671170445	0.30903168653588864	176.91609029546154
1	1.0	perception	293	diff_vonmises	-0.10214655884477211	-5.852566713590152	10.091079761092303	0.9633068116735248	0.15588585835176447	2.7026086902354822	0.7052430125792271	-0.45444932027804136	1.1596923328572684	41.820984495126396
2	1.0	wm	293	diff_vonmises	-0.09183890960991946	-5.261981915731843	3.7492662827992285	0.4844812813539844	0.0434490810475805	1.8367354813643588	0.054332514741182	-0.2857171439310552	0.3400496586722372	68.6403398197443
3	2.0	ltm	293	diff_vonmises	-0.05399415561333633	-3.0936372350167747	3.6558138684223063	0.38830931538198626	1.7207873177142548e-17	1.360424934116732	0.06764097844884606	-0.21632860961184466	0.2839695880606907	71.69609758753904
4	2.0	perception	293	diff_vonmises	-0.004522110133393415	-0.2590978251367844	5.956250825849108	1.4827112372613003	0.37825765758764096	2.298016878169576	0.8951508686704357	-0.3738586812134148	1.2690095498838505	52.91521429328503
5	2.0	wm	293	diff_vonmises	0.4321458835252655	24.760135259949767	3.0626279096540547	0.5328495548629426	1.6518344614718778e-22	1.2590274366522818	0.15273146984688063	-0.1996081669904548	0.35233963683733543	78.45796630135189
6	3.0	ltm	293	diff_vonmises	-0.15603725198959542	-8.940275985823126	1.3239722100987548	5.281711523712737	1.0026999463096242	5.89080759967935	0.10630372365705298	-0.17501575013350934	0.2813194737905623	78.8064668063241
7	3.0	perception	293	diff_vonmises	-0.0697768145019897	-3.997916978831247	3.6431974119795276	2.084918887483581	0.3141271762443972	2.5301452542774516	0.9848604703901236	-0.35359296523266376	1.3384534356227873	67.37757679228474
8	3.0	wm	293	diff_vonmises	0.13879182025945372	7.9521855318050125	0.8462833131435964	109.45394802097232	0.832032696202829	109.4580195230055	0.29645168586952053	-0.12741886124433144	0.42387054711385197	102.30733485325905
9	4.0	ltm	293	diff_vonmises	-0.27503101750568826	-15.758116538264598	6.825925670696799	0.46223657953890285	0.26726411811539263	1.6978855072331822	0.12545215010275274	-0.2883517589848515	0.4138039090876042	48.72276855716393
10	4.0	perception	293	diff_vonmises	-0.1024128947690365	-5.867826637983217	2.3197382510277844	2.5114595117496297	0.2094025418069209	3.619074006892253	0.7136797054762231	-0.4695396706252598	1.1832193761014829	83.25522428551761
11	4.0	wm	293	diff_vonmises	-0.5266798961415968	-30.17653520330203	1.1361713552024724	166.9442408179136	1.120595769710776	168.13906599616504	0.04973490292994143	-0.2934705769782724	0.3432054799082138	76.51502725835259
12	5.0	ltm	293	diff_vonmises	-0.23578970818358305	-13.509755131540597	0.9750577008499066	135.73926808428183	0.9616194026119178	136.23879289974948	0.17886648814450012	-0.17573328469358884	0.35459977283808897	89.24134143790893
13	5.0	perception	293	diff_vonmises	-0.10292296946467638	-5.8970517652798025	2.617976558284235	1.9267274420111502	0.08346434246287063	2.281603518271183	0.7725497832461399	-0.32860783544311084	1.1011576186892507	82.64401817988897
14	5.0	wm	293	diff_vonmises	-0.11982673569765044	-6.865566228304971	0.46848706766517506	97.64425927161136	0.45260984689172074	97.90034039862451	0.22692696970757353	-0.20553040496741382	0.43245737467498735	129.3848585922394
15	6.0	ltm	293	diff_vonmises	-0.393142096331083	-22.525382868696703	0.5034049789742833	90.44625852646132	0.48858068785209086	91.03417886400696	0.10662133909371363	-0.20587411093356778	0.3124954500272814	121.60192053950466
16	6.0	perception	293	diff_vonmises	0.1281904774101492	7.344773329368668	0.23402487401291536	186.75582134996327	0.22408191081488538	187.20895387508799	0.23593069379306542	-0.31529871004690335	0.5512294038399688	153.24144966298627
17	6.0	wm	293	diff_vonmises	0.26044325364741616	14.92229923665213	0.00020387437742377747	4075.070975745615	4.480357759776435e-31	4075.635989375875	0.04230823900968517	-0.22214418461896912	0.2644524236286543	177.79046846201686
18	7.0	ltm	293	diff_vonmises	-0.19505552684036498	-11.175858458653662	0.8073417443556686	54.88858456602899	0.7711816059136543	55.8296125388661	0.09846919388683162	-0.2474014980928505	0.3458706919796821	94.65685334527859
19	7.0	perception	293	diff_vonmises	-0.2218779782563975	-12.712671720987025	0.7929269918852189	208.1861665564876	0.774425008595131	209.1274508571746	0.4543552103550965	-0.40069233985516917	0.8550475502102657	100.5588514860158
20	7.0	wm	293	diff_vonmises	0.26198804313936225	15.0108091547768	0.9795717412254293	43.832558783998664	0.9337435795098848	44.37698956275294	0.2020938097065077	-0.194568947443035	0.3966627571495427	89.92923453602603
0	1.0	ltm	294	diff_vonmises	0.03380633660644274	1.9369604083477872	2.8326409436912368	0.7131504480341425	4.835716883779039e-14	3.195736847775671	-0.056642831761391454	-0.5070515938156459	0.45040876205425445	81.68396963182161
1	1.0	perception	294	diff_vonmises	-0.05017907430898907	-2.8750491777784113	14.984650487995367	0.6651573773931163	1.0468719471418142e-15	3.2772573735604085	0.49673978084520454	-0.5215917107864024	1.0183314916316069	34.99648637678692
2	1.0	wm	294	diff_vonmises	-0.11243756463643775	-6.44219791239728	3.6174822097451913	0.5567443983874858	2.1265070635663775e-14	2.968377280359534	-0.06742372503814159	-0.472139870458471	0.4047161454203294	72.09153958297887
3	2.0	ltm	294	diff_vonmises	0.099318230059951	5.6905154111445375	2.8692963514517102	0.5419103158527498	5.280806699073676e-19	1.8525334174193457	0.05114188460160951	-0.2937259399013382	0.34486782450294773	81.15206243829002
4	2.0	perception	294	diff_vonmises	-0.0003407116694671379	-0.019521340691323316	5.890839451249759	1.4393140028042823	0.33226711989511537	2.5286812102249194	0.8154070121032213	-0.41068966486156244	1.2260966769647839	53.22414119953072
5	2.0	wm	294	diff_vonmises	-0.023254384273737924	-1.332378074060577	2.575499436140024	1.5503707612035262	0.5910408689565931	2.7053081726326638	0.2159440163702695	-0.3279369020827603	0.5438809184530298	69.66681743502244
6	3.0	ltm	294	diff_vonmises	-0.23897771879969196	-13.692414684886538	1.1776846730148738	107.15791967287531	1.1522092453188693	108.16238535526061	0.13486778279721534	-0.2767516309429663	0.41161941374018163	77.82078000261423
7	3.0	perception	294	diff_vonmises	-0.036957009493325324	-2.117480667392458	3.7715444038393806	2.450832373742775	0.34748216909354573	3.2115853622854473	1.1224036003025148	-0.45422472832607486	1.5766283286285896	65.69824825621205
8	3.0	wm	294	diff_vonmises	-0.07196361931880167	-4.123211665453452	3.172683967631888	0.926407969145043	2.0051966026811388e-15	1.7863251472746662	0.34202774917158707	-0.2832033410811	0.6252310902526871	77.09982595883554
9	4.0	ltm	294	diff_vonmises	-0.35676755341753746	-20.441275078033048	0.7048258770031968	2.0713492355216703	9.270472304521506e-34	3.642847006844949	0.011535312266311881	-0.4353558313720964	0.44689114363840826	140.35017455534728
10	4.0	perception	294	diff_vonmises	-0.06757731833468937	-3.8718951313897376	1.9091943643857703	4.50260328352549	0.3950078333816466	5.913253881947939	0.9143109661824615	-0.6172310073161399	1.5315419734986015	85.59765024685058
11	4.0	wm	294	diff_vonmises	-0.176158862055815	-10.09315931962546	0.6512726177232901	222.82961366467148	0.6395996690095705	224.38122898965335	0.07051531279714851	-0.3827520113808518	0.4532673241780003	102.89373892424045
12	5.0	ltm	294	diff_vonmises	0.03197767805347965	1.8321859910925014	0.7425629186698632	156.90699951521654	0.7278264182809652	157.88837790079836	0.15679519520006124	-0.2850282705264213	0.44182346572648257	99.71802911482854
13	5.0	perception	294	diff_vonmises	-0.01123002554567224	-0.6434330675911186	0.8747595041774553	332.6895948957983	0.8599416096387719	333.70106022765367	0.6214401420488969	-0.469414190382448	1.0908543324313449	96.29759358175656
14	5.0	wm	294	diff_vonmises	0.0017442084675373172	0.09993578378086933	0.3559535042351689	99.23644343833979	0.3348371816859461	100.38037144770325	0.13203803675830628	-0.3949050489912995	0.5269430857496058	138.28503580145104
15	6.0	ltm	294	diff_vonmises	-0.48675221353485687	-27.888847504197923	0.6390507636595066	174.77868814547867	0.6239364320159662	176.0582753363238	0.15577777654667102	-0.3658194925452136	0.5215972690918846	106.94263235401041
16	6.0	perception	294	diff_vonmises	-0.027564788940423628	-1.5793460694551622	0.7409329666821938	340.29651371994277	0.729377644619643	341.2971130759261	0.46004338110881804	-0.42738879016751596	0.887432171276334	103.69995384883337
17	6.0	wm	294	diff_vonmises	0.015983775671674392	0.9158028866708252	0.3330510591646367	6.033072343151534	2.518487436594043e-11	7.174441791837937	0.16143866813037056	-0.47233990856741126	0.6337785766977818	161.1544297247013
18	7.0	ltm	294	diff_vonmises	-0.1597824111925422	-9.154857801756554	1.0283160220691994	153.20197493754122	1.0106425827081056	154.75936208710004	-0.024001949512033605	-0.348112799125996	0.3241108496139624	78.01374644735108
19	7.0	perception	294	diff_vonmises	0.08035755493070751	4.604148749520219	0.3706457319233514	222.22432184668162	0.35546668386711744	223.85884909321334	0.2538504069770653	-0.6026369223887151	0.8564873293657804	136.62542954525827
20	7.0	wm	294	diff_vonmises	0.2456726702498727	14.076007147026885	0.7409509733208863	129.87215998749656	0.7246818608767129	131.27824839367455	-0.0035374115373372206	-0.3114392994145856	0.30790188787724837	93.61064136119532
0	1.0	ltm	295	diff_vonmises	0.08302199844201795	4.756810117469325	3.9712142063307345	0.42944136367970215	1.76134158380174e-15	4.038937050544029	-0.31394929161617774	-0.6426999274651068	0.3287506358489291	68.71589419170047
1	1.0	perception	295	diff_vonmises	-0.03918919171827098	-2.245375287985966	9.404166258806656	1.0149297459774953	0.12468902389763188	4.556463628303423	0.4058864118965958	-0.7577681130343796	1.1636545249309753	43.05931238508995
2	1.0	wm	295	diff_vonmises	-0.13681668322919116	-7.839018516010965	6.022409457149583	0.38072263538361956	0.017209398778056405	3.9280093962255185	-0.2716785773733893	-0.6245893069487206	0.3529107295753313	54.52388923806336
3	2.0	ltm	295	diff_vonmises	-0.07002544616237902	-4.012162523624885	2.340558642355213	0.6558837221343583	2.0567042790486587e-18	2.8539662302150157	-0.08242346151890872	-0.45077675346507773	0.368353291946169	89.88523545750823
4	2.0	perception	295	diff_vonmises	-0.037209112264131365	-2.1319250921631983	7.191420756721427	1.3862317310851804	0.18134569082372778	3.506019170320148	0.7918800941481279	-0.5761857056239469	1.3680657997720749	49.05948063963149
5	2.0	wm	295	diff_vonmises	-0.043433790194349585	-2.4885728663929307	2.6780068969166573	1.089395148387751	0.1860136847562283	3.3524994427941452	0.031189211380949544	-0.4841114508359625	0.5153006622169121	74.52295449959794
6	3.0	ltm	295	diff_vonmises	-0.1555409876674169	-8.911842134639375	2.080839080759725	0.9577520891926433	0.015053067883503536	2.50702075110783	0.10101009466179445	-0.38513632229018074	0.4861464169519752	94.00151949720696
7	3.0	perception	295	diff_vonmises	-0.07316044781159264	-4.191784886891378	2.034517264058878	6.898755205541095	0.8706317826056822	8.107183254058874	1.0249150512042497	-0.6064591666376415	1.6313742178418913	75.30947309809471
8	3.0	wm	295	diff_vonmises	-0.14699600720022024	-8.42225081784728	1.4946574650046343	4.823039147878225	0.721892914024984	6.191555759925318	0.2968483201637928	-0.4056924087451928	0.7025407289089856	82.26046812088907
9	4.0	ltm	295	diff_vonmises	0.01644077002650776	0.9419867344640813	2.584115825952249	0.7691858455694205	0.11814439721758571	3.552383965761529	-0.17186305573477767	-0.5299014055533867	0.35803834981860905	75.92601228522793
10	4.0	perception	295	diff_vonmises	-0.14486538913589092	-8.300175395006878	2.0744770616216686	3.69573725043871	0.29652237546600635	5.660235778184441	0.7634577561974261	-0.6761442602639236	1.4396020164613497	84.14297684133103
11	4.0	wm	295	diff_vonmises	-0.265885149214645	-15.234096885205295	0.5613164346321948	215.9432477161275	0.5489939638016075	218.66895572908416	-0.1964245154774602	-0.5344809532636461	0.3380564377861859	101.1118523550605
12	5.0	ltm	295	diff_vonmises	-0.0847221354873837	-4.854220794762624	1.2143752148231903	1.7124059731728323	0.11607918719897596	3.0907513442021997	0.10317798073460172	-0.37889715291503545	0.48207513364963717	111.13867631582461
13	5.0	perception	295	diff_vonmises	-0.06686624890633082	-3.8311538542040124	2.076979022492388	3.227019291490656	0.29003650796040964	4.656867832000497	0.7330918183864904	-0.5533724778853105	1.286464296271801	84.82755802100536
14	5.0	wm	295	diff_vonmises	-0.235179115211025	-13.474770731212674	0.589361681277106	10.174353058050027	0.37062320804280025	11.826455460297554	0.045963860113604316	-0.43083412429600765	0.47679798440961196	119.8315817236452
15	6.0	ltm	295	diff_vonmises	-0.3586807242084873	-20.550891689842178	0.5505610895136078	144.35194545740964	0.5373816919520784	145.8221518644953	-0.015263108831348404	-0.3353932435094098	0.3201301346780614	109.21686879233222
16	6.0	perception	295	diff_vonmises	0.06580006107614744	3.770065791366294	0.10944764697084665	44.52484141487683	0.05854934939534708	45.73806495535601	0.1705819562387223	-0.5268658500255174	0.6974478062642397	170.0380954325031
17	6.0	wm	295	diff_vonmises	0.05001729364426689	2.8657798284830096	0.3633311923189455	3.41965216436934	5.199268882202699e-12	4.908112507604511	-0.023658181451832405	-0.4148869362374378	0.39122875478560537	159.4306492079761
18	7.0	ltm	295	diff_vonmises	-0.5677194556111007	-32.52792875398075	2.643405430940792	0.6447529173101544	5.1279645518606213e-17	1.803723579928908	0.10548695630498883	-0.2850856596795221	0.39057261598451093	84.43137987750302
19	7.0	perception	295	diff_vonmises	-0.01646849061950346	-0.9435750074483348	0.5140720375912734	284.8981675423255	0.5025757907361484	286.6391361989064	0.18253488878585244	-0.5242209204198574	0.7067558092057098	119.05215000027005
20	7.0	wm	295	diff_vonmises	0.16073493055124155	9.209433140914536	0.86090973640008	161.38064227243058	0.8456386267393496	162.89961818604004	-0.004250926392529664	-0.3365662299048857	0.33231530351235605	86.37416283547557
0	1.0	ltm	296	diff_vonmises	-0.6506189078503128	-37.27771749123395	1.0399438621142802	0.7845445260730954	1.7460370254986532e-16	2.0984143074982193	-0.059971747985539225	-0.29973729393516746	0.23976554594962823	123.72072597324953
1	1.0	perception	296	diff_vonmises	-0.08151147048821848	-4.670263240880083	12.255183124018354	0.8432108112652268	9.14571723874099e-16	2.4031885013052725	0.7824238412022544	-0.3824793291379287	1.164903170340183	38.73306636315101
2	1.0	wm	296	diff_vonmises	-0.09636341966956687	-5.521217246514124	5.816610008005583	0.30171791897232075	0.01680981762373994	1.5095344092900163	0.039102860022621505	-0.23940241321922495	0.2785052732418465	55.94831304246043
3	2.0	ltm	296	diff_vonmises	-0.16195633846913518	-9.279414659673701	5.394228673061211	0.3254336173262457	0.11657202724343652	0.9391694131868957	0.12640484280810885	-0.14860963134339114	0.2750144741515	56.66866567661282
4	2.0	perception	296	diff_vonmises	0.0026061722122148515	0.14932266844418413	6.848181216231186	1.5905474576664442	0.533370144461124	1.9920622911170767	1.1238586852084662	-0.3392741762937147	1.463132861502181	49.292761627613146
5	2.0	wm	296	diff_vonmises	0.09508317791500738	5.447864797221442	2.4265334855832847	0.6187619403919007	0.15457043328070386	1.3372333691457654	0.11137398859407185	-0.18690354353720798	0.29827753213127983	81.06504911129804
6	3.0	ltm	296	diff_vonmises	-0.14673492237742652	-8.407291759406279	1.7752398854513844	117.48997270573804	1.7607933362296095	117.87627487191894	0.09521272973163519	-0.13768725279284055	0.23289998252447575	63.819538081291824
7	3.0	perception	296	diff_vonmises	-0.023520361230372277	-1.3476174311234597	4.275459444094679	2.4000129519281916	0.8488586241682808	2.385571390851724	1.1665485508013742	-0.3175383957775182	1.4840869465788924	59.32985505963248
8	3.0	wm	296	diff_vonmises	0.0782993459277191	4.486222060293154	1.33013302991289	121.79866446049905	1.3146781696839962	122.03687578354742	0.24547356793194552	-0.137030716182732	0.3825042841146775	78.87217005759629
9	4.0	ltm	296	diff_vonmises	-0.4149220689191512	-23.773283375903635	13.38769689596194	0.24986028326372028	0.04627062131138999	1.2859288460138747	0.14691651819612433	-0.2089641381447715	0.35588065634089583	36.724300186835876
10	4.0	perception	296	diff_vonmises	-0.06649102750273929	-3.809655251395243	3.2026352341463142	2.026389068933674	0.08466249214297421	2.7041296207428833	0.9097197834093668	-0.40051658139305163	1.3102363648024185	74.7094110216457
11	4.0	wm	296	diff_vonmises	-0.2763765214444297	-15.835208235272713	0.8850178323128993	162.69657153510803	0.8717637260778223	163.85889411339798	0.04223495225880214	-0.27363475767187495	0.3158697099306771	87.0462398874307
12	5.0	ltm	296	diff_vonmises	0.02492283863765759	1.4279734674233582	1.3811883766863071	87.12413458208927	1.3579225489598317	87.49828060740211	0.2112160056621022	-0.15807268582904577	0.36928869149114796	75.8225437988942
13	5.0	perception	296	diff_vonmises	-0.10139852842941768	-5.809707727842925	1.8145213127606319	3.1886857240563877	0.48131533878600163	3.25097421153588	0.759881969190243	-0.28219604798679415	1.0420780171770372	88.26258189693229
14	5.0	wm	296	diff_vonmises	0.19994728178082696	11.456135371154405	0.46800106854362084	48.069107595920386	0.43611982392448573	48.417208952311015	0.20233072664135676	-0.2142684976891207	0.41659922433047747	129.3438196954756
15	6.0	ltm	296	diff_vonmises	-0.47371772594933137	-27.142026377431648	0.6193119296125812	89.64738711635127	0.6070016626271793	89.83192891942511	0.15988153167085883	-0.12684032352765406	0.2867218551985129	115.00892545980274
16	6.0	perception	296	diff_vonmises	0.041029214278036207	2.3508008148693715	0.34288210411184156	125.5415851212054	0.3284037959938169	125.62533812056354	0.3103433168824594	-0.24372403512676932	0.5540673520092287	142.8844781889876
17	6.0	wm	296	diff_vonmises	0.10702736587060929	6.1322163567884225	0.0003765707190968341	3233.6572097632265	1.0500480869197357e-30	3233.891438537746	0.15654213237485237	-0.23106297704123335	0.3876051094160857	179.53538630624382
18	7.0	ltm	296	diff_vonmises	0.03271711005919564	1.8745523242569213	1.3149942650318873	90.75723600636962	1.2939777884078851	91.4956223510446	0.05376834439459799	-0.19620441647465192	0.2499727608692499	71.8363647536664
19	7.0	perception	296	diff_vonmises	-0.13181347406736454	-7.552355747017113	2.3419352514762313	1.2534204200285757	5.971472548655863e-20	1.9428740314752444	0.40150285162596	-0.30264775385200643	0.7041506054779665	89.8568274847002
20	7.0	wm	296	diff_vonmises	0.2375372671080703	13.609882882364138	0.6762710693476028	65.78017812414294	0.6579350718871801	66.45537875430556	0.04276404322256866	-0.17096480064825403	0.2137288438708227	101.89558212454995
0	1.0	ltm	297	diff_vonmises	-0.28329375956972697	-16.23153678573923	0.00040145116256671464	2700.379492729279	1.5004586398683525e-27	2701.913558903962	-0.07160313365511684	-0.41667066471495673	0.3450675310598399	177.69435477181997
1	1.0	perception	297	diff_vonmises	-0.14081051164345537	-8.067848028247731	11.122252847240299	0.8375408674413397	0.17064353855100053	2.4930474247884753	0.6340450130819031	-0.42532009825046196	1.059365111332365	39.80188395808378
2	1.0	wm	297	diff_vonmises	-0.05247202042646265	-3.006425312960556	1.7717353600850418	1.5686387774911914	0.4373760025535105	2.727750145712155	0.1105740929061021	-0.28982142983006387	0.40039552273616597	82.12310543614967
3	2.0	ltm	297	diff_vonmises	0.011774389031065766	0.6746227978251992	3.1992039764928917	0.39640536153397177	4.8627818648057834e-20	1.3440732870996077	0.05533786409806468	-0.21346776790504027	0.2688056320031049	76.7742437019424
4	2.0	perception	297	diff_vonmises	0.028492993422710642	1.6325282688153337	4.737301681012875	1.6552742599824775	0.5614599614237177	2.4119008074528896	0.7714781316901878	-0.36988202191595376	1.1413601536061415	57.190123577498895
5	2.0	wm	297	diff_vonmises	0.6262666134594127	35.88243380117527	4.208424608328856	0.5513128271049337	1.6273735075477106e-14	0.9772259549969565	0.28022706600995984	-0.15543398912903145	0.4356610551389913	66.68477380031325
6	3.0	ltm	297	diff_vonmises	-0.17146376538217856	-9.82415009582018	2.167255916857027	0.9137002006982269	0.5572831213216003	1.5482974840536872	0.09604384475103173	-0.1717527915850439	0.26779663633607564	74.4878244816637
7	3.0	perception	297	diff_vonmises	-0.09576293345605096	-5.48681192082387	4.356741129524459	1.4905265206587777	1.1968134376636824e-14	2.1672105061544116	0.8553135837457979	-0.3447249380441056	1.2000385217899034	65.53122526164216
8	3.0	wm	297	diff_vonmises	0.42725415002123057	24.479859575665824	0.5037338265081605	54.4466429385398	0.47861551716947887	54.07793422869166	0.3447377312133124	-0.12106539645861325	0.46580312767192567	129.64084870928014
9	4.0	ltm	297	diff_vonmises	-0.30315286833823946	-17.369379903066243	6.719204029215893	0.5392024266706952	0.34056616708560417	1.6704297506436274	0.18320852076446487	-0.287625637826924	0.4708341585913889	48.77117491616815
10	4.0	perception	297	diff_vonmises	-0.07074011700291387	-4.053110146528599	1.5108223322366803	4.559833032851306	0.5165659170631096	5.79849784166766	0.5350390596745098	-0.46363800014829815	0.998677059822808	89.16987808752131
11	4.0	wm	297	diff_vonmises	-0.6301190115213515	-36.10315995112874	1.3837279900378532	165.83190597796755	1.3670760637369712	166.8693102530819	0.07026263524664955	-0.2797869119946128	0.35004954724126236	69.72300846047636
12	5.0	ltm	297	diff_vonmises	-0.43189224974236606	-24.745603114647693	1.1018302076366957	149.43941725801997	1.0873222495119501	149.92695770691893	0.23154874270661452	-0.18965638549277664	0.42120512819939115	84.69039433368182
13	5.0	perception	297	diff_vonmises	-0.11926065814763893	-6.833132373812205	2.6547070330998226	1.8255469455670321	0.11809014430796244	2.305163667625689	0.7029080952592361	-0.32468014337101	1.0275882386302462	81.10064457056095
14	5.0	wm	297	diff_vonmises	-0.179384031196191	-10.277947899584841	0.41863849487720867	108.60188577918287	0.40463803280367994	108.51334598044714	0.29991320087697915	-0.17571569868252368	0.4756288995595028	135.93266039602148
15	6.0	ltm	297	diff_vonmises	-0.42411955922906514	-24.300260752774175	0.6012276812664229	64.55895902922894	0.5756367330227409	65.23947006129964	0.1347458236575001	-0.2281254175560612	0.3628712412135613	112.76267754712738
16	6.0	perception	297	diff_vonmises	0.12486413432104157	7.154187909150293	0.40513022221928313	155.76484016586593	0.39196042124516856	156.43810692597555	0.22356653139424765	-0.32160182800853754	0.5451683594027852	134.00387426524134
17	6.0	wm	297	diff_vonmises	-0.25129647446544234	-14.398227393386906	0.8535759454451456	14.917575516841767	0.77597361676585	15.534527362595197	0.0365097915419188	-0.15057496056372188	0.18708475210564068	91.5509319550613
18	7.0	ltm	297	diff_vonmises	-0.13819055927118362	-7.917735814791271	1.7544895694344524	1.2142379911377574	0.18637971661752273	2.556828573498904	0.0924596736031581	-0.32598824358326994	0.41844791718642804	90.80372557910653
19	7.0	perception	297	diff_vonmises	-0.32342810818966494	-18.531065575168377	1.1976502434538534	6.6364621320611485	0.5248188893428072	7.762372793571569	0.5618310188872864	-0.4728106083411616	1.034641627228448	96.81986492656671
20	7.0	wm	297	diff_vonmises	0.38128727747496666	21.84615178134913	1.4928390924960995	67.77693448864984	1.457537413947385	67.8265875686419	0.39956338370123845	-0.14411721425800916	0.5436805979592476	77.06459401092016
0	1.0	ltm	298	diff_vonmises	-0.5964766966823547	-34.175597297803876	0.10322635988741748	13.53945145139459	0.05249496663371269	16.54062634610341	-0.3896538729715089	-0.5578127070595096	0.1681588340880007	161.18449365829542
1	1.0	perception	298	diff_vonmises	-0.057716374528292286	-3.3069046692675155	8.640420420624705	0.8617513169286768	0.04686891396614681	4.104575056387158	0.3107239078852331	-0.6600825334454344	0.9708064413306675	45.570876555951
2	1.0	wm	298	diff_vonmises	-0.05294342321599101	-3.033434703251225	3.7863872075739016	0.609966344816767	0.12538580618792675	3.467183385264143	-0.16799768877465765	-0.541884106701148	0.3738864179264903	63.90502530107315
3	2.0	ltm	298	diff_vonmises	-0.0663195936104154	-3.7998328128995835	2.6583751426091506	0.3668416586084199	5.394957291596992e-27	1.7499688120859869	-0.054412547066448935	-0.2774160980339174	0.2230035509674685	84.35016061302682
4	2.0	perception	298	diff_vonmises	0.019255040872578597	1.1032325763506516	6.470434374473124	1.7376452746568358	0.48663238752469623	3.2282131852913327	0.9379695850885755	-0.5543181222438051	1.4922877073323806	49.8334292709807
5	2.0	wm	298	diff_vonmises	0.29564254604538076	16.939070132902426	3.1480822108074653	0.5844593409264527	0.06632242136232118	1.95060270380112	0.062040264023756786	-0.29743100467983463	0.3594712687035914	73.83006249702228
6	3.0	ltm	298	diff_vonmises	-0.1648235628353802	-9.443694514776613	1.0859316579205727	90.7200063473035	1.0672303546897794	91.59907313520124	0.006957390333660385	-0.20491863331573512	0.2118760236493955	77.02722660559627
7	3.0	perception	298	diff_vonmises	-0.045345557203555736	-2.5981090474327915	4.7554560262077885	1.8851371225410885	0.48749893948184264	2.615736282331837	0.9519809938088263	-0.3985619944637797	1.3505429882726059	57.91707817659423
8	3.0	wm	298	diff_vonmises	0.19619330040343327	11.241048081859038	1.0378310979299479	132.61291606281856	1.0231794117797022	133.0962301822758	0.19925833078173127	-0.17823244557204454	0.3774907763537758	86.89618575467478
9	4.0	ltm	298	diff_vonmises	-0.6537059845521153	-37.454593957280395	0.9584178073074732	216.87853803674665	0.9432933933376905	219.22753238628482	-0.15456431460479791	-0.48494128588484386	0.33037697128004595	77.08574270377095
10	4.0	perception	298	diff_vonmises	-0.015402042680343703	-0.8824720414640562	2.667229280911633	2.14008444305082	0.2441653157852613	3.452142893716689	0.6188883368422654	-0.46256923059994115	1.0814575674422064	77.01021410498535
11	4.0	wm	298	diff_vonmises	-0.1769448955553997	-10.138195721707561	0.6257700448351575	142.2147184752818	0.6094097824334864	144.8025986423791	-0.2507538254709871	-0.4805891439329102	0.22983531846192307	91.13234448767557
12	5.0	ltm	298	diff_vonmises	-0.1720999961571469	-9.860603434022204	0.9096421861251406	121.24450635993531	0.8877992603023267	122.41560472914405	0.12920500424903736	-0.30681325301998363	0.436018257269021	88.57701949777741
13	5.0	perception	298	diff_vonmises	-0.13066705763381606	-7.486670923810345	1.2977235161006215	16.551636092658455	0.9668676953482682	17.6100660666883	0.6647288736709909	-0.4665979243765368	1.1313267980475277	84.19691531717035
14	5.0	wm	298	diff_vonmises	0.060438457779189485	3.4628685510271757	0.9231102541171036	1.7483399572429559	6.558196855484266e-09	2.5546183968916694	0.16532269113599063	-0.31630981132976654	0.4816325024657572	131.81052468871687
15	6.0	ltm	298	diff_vonmises	-0.4832997926411444	-27.691038357885418	0.7032680680330151	117.50559958759847	0.6901328564106939	118.21879501164071	0.09253274488594343	-0.20043839739243552	0.29297114227837895	101.79536968253004
16	6.0	perception	298	diff_vonmises	0.18943986969388316	10.854105004967776	0.007181612825754957	271.6570026494565	3.423139093877098e-20	272.5255420587919	0.17282379653958913	-0.44817355088017763	0.6209973474197668	178.3754792582593
17	6.0	wm	298	diff_vonmises	0.24267328896623552	13.904155258323943	0.3437971730868437	3.6318894071927414	2.5039248007425085e-26	4.62352120415484	0.05577386006869833	-0.33783680507550196	0.3936106651442003	159.27115222709267
18	7.0	ltm	298	diff_vonmises	-1.0301222279911966	-59.02165604650872	0.00016433198633058454	4786.244758965444	7.383116163909178e-31	4787.566634201762	-0.0851972123481346	-0.335558458085643	0.2503612457375084	151.90907920459003
19	7.0	perception	298	diff_vonmises	-0.11975566707473587	-6.861494296156159	1.8217435619552993	1.6767741136083623	0.07421190638082387	3.3017287579614742	0.2522160111863969	-0.4658457059559301	0.718061717142327	96.53851715569199
20	7.0	wm	298	diff_vonmises	0.22543704399181516	12.916591166636081	0.6971311316152988	97.0449806031108	0.67420689013812	98.67644654465727	-0.03249287961327241	-0.35137854403040514	0.31888566441713273	95.71751817206771
0	1.0	ltm	299	diff_vonmises	-0.19156676548526155	-10.975967157277895	0.3718990373688043	2.05493117520279	1.0970609225217224e-24	5.241672699494169	-0.3758406104677944	-0.616359368418537	0.24051875795074262	158.36072735932868
1	1.0	perception	299	diff_vonmises	-0.08818406433104187	-5.052574706478842	8.952116695638859	0.7976765683468866	0.08555080831688465	4.023020469106163	0.2418974734829742	-0.6573909549093182	0.8992884283922924	44.33540684944657
2	1.0	wm	299	diff_vonmises	-0.06036302161483382	-3.458546377186941	2.227414224276344	1.2454739495648441	0.23278143478579447	4.0943445073104145	-0.12595155255162216	-0.569343781658614	0.44339222910699183	76.67912628515805
3	2.0	ltm	299	diff_vonmises	0.03577035445941152	2.0494903422112434	1.6655355409533863	0.5724653029978833	7.088088783470534e-22	2.198871646510668	-0.08571062557991377	-0.34051305341299	0.2548024278330762	105.54826006217081
4	2.0	perception	299	diff_vonmises	0.02651151545154935	1.5189979438696466	5.719112835916582	1.6347042761088746	0.46421261229392025	3.1700755245063976	0.7608558114577055	-0.5268327938440641	1.2876886053017698	52.58755226300863
5	2.0	wm	299	diff_vonmises	0.42136500196412796	24.142436247066176	3.6446594066381097	0.569615959438895	0.021458675337815435	1.792602574847356	0.124674566681435	-0.2804692694476429	0.4051438361290779	70.73259534447135
6	3.0	ltm	299	diff_vonmises	-0.2076774841562113	-11.89904334204593	1.4265146927930712	1.875528068117898	0.567014467256364	2.980430234024559	0.015201511842290794	-0.25013292915335417	0.26533444099564496	82.1446414829022
7	3.0	perception	299	diff_vonmises	-0.07357796309408764	-4.215706750460554	4.648775840558573	1.6585489625645582	0.21730204380976637	2.714585293253019	0.8525730396642544	-0.41529613922747205	1.2678691788917265	60.55012576987235
8	3.0	wm	299	diff_vonmises	0.27681292754844916	15.860212463186775	0.7739119583007554	110.29107506361777	0.7569392469464105	110.67139863926427	0.2450810108815915	-0.1911584676617064	0.4362394785432979	102.70828728082952
9	4.0	ltm	299	diff_vonmises	-0.48355378169995716	-27.705590858997887	0.8642630986783508	179.20463554141236	0.8468892628732505	181.49405971793905	-0.12166864020031909	-0.47058644767223967	0.3489178074719206	82.54373582483602
10	4.0	perception	299	diff_vonmises	-0.017340703014185232	-0.993549096502599	1.8448883524488484	3.4404803164313105	0.4312988520122009	5.042197321171515	0.5103841854328326	-0.5198876945702685	1.030271880003101	84.11332781266191
11	4.0	wm	299	diff_vonmises	-0.36816495400536753	-21.094298029135633	0.7676235386084685	185.3621567077294	0.7537924804815831	187.66384595114457	-0.18907655883083407	-0.4459773961202238	0.2569008372893897	84.27311032406253
12	5.0	ltm	299	diff_vonmises	-0.32549718216115076	-18.649614781234888	0.853932764582081	147.05035217398265	0.8342139375144013	148.37112211066807	0.14369479487424996	-0.3466463216542266	0.49034111652847656	91.4999797669931
13	5.0	perception	299	diff_vonmises	-0.11198713827187316	-6.416390382726307	1.0897914727995686	127.51929629609418	1.0454701707064737	128.8472071145402	0.5968446044114302	-0.5056385051489496	1.1024831095603798	85.61349694328885
14	5.0	wm	299	diff_vonmises	-0.08425694583034662	-4.827567390741261	0.3875941196127086	156.9617465153327	0.3749319485958548	157.6858622162291	0.20115925481935903	-0.32392465866199416	0.5250839134813532	135.65949532875118
15	6.0	ltm	299	diff_vonmises	-0.4630817481104957	-26.532629736271687	0.7076049038196194	183.86278161702126	0.6957096616327199	185.03843132414534	0.08329407660183108	-0.29844367557482343	0.3817377521766545	99.5088142110899
16	6.0	perception	299	diff_vonmises	0.13332378127583136	7.638889975830447	0.27586001427691675	174.53137119476352	0.2616468669471384	175.87072118633054	0.16752071312719607	-0.49717228712445305	0.6646930002516491	147.41191062928803
17	6.0	wm	299	diff_vonmises	0.4072063601836661	23.33120582940812	0.00023647294617733515	4855.399540321654	2.0920964622322746e-29	4856.736434665218	-0.030028562846723617	-0.3954965187547259	0.3654679559080023	174.89772458864553
18	7.0	ltm	299	diff_vonmises	-0.8116462588548891	-46.503905089967866	0.0008665550604874841	1138.4323175811599	1.6312139558963352e-21	1140.2588904737981	-0.13367136592455608	-0.44767682553560917	0.3140054596110531	162.03377542847295
19	7.0	perception	299	diff_vonmises	-0.18805383555512578	-10.774691098555929	0.8192252070137388	9.604694496682098	0.4199952450024146	11.684511296974302	0.24217379949250084	-0.5975047784610136	0.8396785779535144	108.86207962042874
20	7.0	wm	299	diff_vonmises	0.3247927746056895	18.60925520124983	0.9184228571563657	85.38817790030308	0.8815181930799597	87.1074786310011	0.051337589967332065	-0.4013869278100426	0.45272451777737466	85.66196552085512
0	1.0	ltm	300	diff_vonmises	0.0002477195864117341	0.01419328680411866	2.18957785685158	0.5736118029309705	1.3368097665365316e-29	4.105346769282405	-0.3408952023331701	-0.6494688627213971	0.30857366038822703	92.88096907603062
1	1.0	perception	300	diff_vonmises	-0.017732852913840236	-1.0160176306893096	7.250851192526314	1.0176584642945672	0.07816378073847786	4.597717013727687	0.28298083681541353	-0.7413955390830628	1.0243763758984763	49.2309278987523
2	1.0	wm	300	diff_vonmises	-0.06369648803177798	-3.6495399340264383	3.533329002015076	0.6718056696289505	0.07240988879346652	4.179293657121851	-0.23177350137826042	-0.6502019068619348	0.4184284054836744	67.83746808618608
3	2.0	ltm	300	diff_vonmises	0.07399129791056443	4.239389090970488	2.0040536638770656	0.5401694230521908	1.197844363610901e-16	2.254532707018572	-0.0798181478123608	-0.3537510114749753	0.2739328636626145	96.91667303257555
4	2.0	perception	300	diff_vonmises	0.007764695413246142	0.44488427638359257	6.04496561959027	1.6307326624081215	0.35100797775913795	3.2141185803343704	0.8583985177523783	-0.5303027673634816	1.38870128511586	52.20402527894532
5	2.0	wm	300	diff_vonmises	0.1470916420801725	8.427730292842785	2.4067506474003646	1.1302140032770522	0.2584560353718045	2.741056420692882	0.09571152867192778	-0.3719916975168097	0.4677032261887375	76.7452075471783
6	3.0	ltm	300	diff_vonmises	-0.1685453038212098	-9.656934565705509	0.8930905091334577	17.69187217379634	0.7835669723721713	18.815979866758504	0.031954104353365764	-0.26119921630652243	0.2931533206598882	88.88587196361486
7	3.0	perception	300	diff_vonmises	-0.0517788709656641	-2.9667107742850303	3.7023340566329983	2.2828131935282627	0.3736043246781785	3.138906119786685	0.9810629463425957	-0.44174947205783643	1.422812418400432	65.73093375690598
8	3.0	wm	300	diff_vonmises	0.03987027941400361	2.284398738429736	0.9034918897659487	105.55836266224415	0.879419314358659	106.30871911908284	0.24492747523035518	-0.2588074898053012	0.5037349650356564	92.79157911049529
9	4.0	ltm	300	diff_vonmises	-0.3320671060294615	-19.026043690611356	0.5091851720172453	110.58491134129032	0.48801432205463097	113.01393682332122	-0.15642141131828424	-0.4920018299387312	0.33558041862044696	108.48095884306365
10	4.0	perception	300	diff_vonmises	-0.039686657494789626	-2.2738779774326825	2.3870100233485183	2.689594778627777	0.1945335570948883	4.153039850731463	0.7470866538198984	-0.5514635281653936	1.2985501819852918	82.25640136115831
11	4.0	wm	300	diff_vonmises	-0.13825072879469483	-7.921183274543776	0.5791086530204674	208.25107415656393	0.5656844106671545	210.81444237051545	-0.13650189226613207	-0.5236317791599809	0.38712988689384886	102.0432099506136
12	5.0	ltm	300	diff_vonmises	-0.1610559844451327	-9.227828174030739	0.6563577807524449	154.5817694730949	0.6409246929903416	155.86810137229836	0.10180214947803279	-0.33770372786902314	0.43950587734705593	104.04252491740515
13	5.0	perception	300	diff_vonmises	-0.0868414398018186	-4.97564798748361	1.0451263771324486	160.82439522017265	1.008987379524468	162.02397056630062	0.6848098271478236	-0.5118885503451001	1.1966983774929236	88.12701649225303
14	5.0	wm	300	diff_vonmises	-0.030851691151165966	-1.7676716938029182	0.3297150003152759	189.97927498657228	0.31870700256853507	191.1723046203984	0.12203558460534936	-0.4066076163795529	0.5286432009849023	140.66632486697875
15	6.0	ltm	300	diff_vonmises	-0.49552838678806926	-28.39168519188259	0.5956932867887278	215.33753087046077	0.5865276057805245	216.46730571169257	0.07608383170927624	-0.298156941861059	0.37424077357033525	108.81340384156987
16	6.0	perception	300	diff_vonmises	0.07307413613316471	4.186839591994768	0.24046988481051332	244.56910204679372	0.22956813577519353	245.6109543285618	0.26175423108956153	-0.4995805713470247	0.7613348024365862	152.27021354028392
17	6.0	wm	300	diff_vonmises	0.11111152113743436	6.366221216453625	0.5984004334659895	2.7480008332836108	4.5056682564579133e-13	4.029696606776027	0.08756120396211586	-0.42109460750244315	0.508655811464559	146.90845851324025
18	7.0	ltm	300	diff_vonmises	-0.6035235066053583	-34.57934976542289	1.111282715055329	0.9414129546468629	8.188686873974036e-33	2.362851511451073	-0.03466960779426953	-0.3390742300467629	0.3044046222524934	121.62581514705182
19	7.0	perception	300	diff_vonmises	-0.012786842859839727	-0.732632129165808	0.619281122229823	327.30487107814463	0.6071791306940502	329.09132336364434	0.27379370650302803	-0.5455331439042155	0.8193268504072435	109.45521487906507
20	7.0	wm	300	diff_vonmises	0.15410172875610456	8.829378673394585	0.6978111236191227	157.4411536936293	0.6815480414397307	159.1888503564099	-0.0033811334846305385	-0.38933930769372793	0.3859581742090974	96.71451017731161
0	1.0	ltm	301	diff_vonmises	-0.4527786383239804	-25.942305029644427	0.0003305234353904046	2295.9897480931745	2.6896552362912986e-33	2297.983229516118	-0.19648325306883407	-0.43804163163207477	0.2415583785632407	174.2070044366098
1	1.0	perception	301	diff_vonmises	-0.12807083336193686	-7.337918230362242	11.823971053908323	0.8074782843360695	0.19141334352187586	2.9084810828516914	0.539836242456787	-0.504928208677549	1.044764451134336	38.429490078276814
2	1.0	wm	301	diff_vonmises	-0.11842475944335466	-6.785238905956263	3.0178056449531794	0.6022700500049905	0.11899781298029927	2.1962986776160323	0.0034519327118827103	-0.32990268357653124	0.33335461628841395	72.66363311299315
3	2.0	ltm	301	diff_vonmises	-0.09607608989394763	-5.5047544630427	4.255747903810761	0.41259092805095354	4.7544815625850417e-26	1.7306857858537104	0.05259837015800822	-0.27538119279331186	0.3279795629513201	66.32489018236421
4	2.0	perception	301	diff_vonmises	-0.009123698301689602	-0.5227494062374911	6.779770508524986	1.3217031130364614	0.36081032763300797	2.655925903118035	0.7582357016784318	-0.4498900932467585	1.2081257949251902	49.48784914853948
5	2.0	wm	301	diff_vonmises	0.4811474500516068	27.567718211438653	3.7996813123733655	0.47156375762401187	8.907793281462715e-15	1.462408325139728	0.11971681717096469	-0.232572970840156	0.35228978801112065	70.28094274796078
6	3.0	ltm	301	diff_vonmises	-0.2260806588879275	-12.953467583815069	3.253973298387478	0.6062645931351535	0.2369637086992335	1.489278027547896	0.1195429590603907	-0.21770637734373888	0.3372493364041296	68.86730170139853
7	3.0	perception	301	diff_vonmises	-0.09339273500160102	-5.351009552775458	3.6330208960083885	2.1727033699353204	0.3713857020255934	3.1249774769524716	0.8875682035414916	-0.43941430741926446	1.326982510960756	66.09995794112558
8	3.0	wm	301	diff_vonmises	0.17688020033150118	10.134488958423523	0.9701983660020704	129.12491010078588	0.9564333264118309	129.28374050795858	0.2842595058360189	-0.14354069357321997	0.42780019940923886	93.8535297916365
9	4.0	ltm	301	diff_vonmises	-0.29972363665647417	-17.172899400728543	5.5270760270168395	0.5651048670811634	0.35949982366081246	2.1817997379607417	0.03501477107709999	-0.37063857190456523	0.4056533429816652	51.757309356594675
10	4.0	perception	301	diff_vonmises	-0.13370809389966995	-7.660909467189997	1.2382760811049391	13.777488297571479	0.841857359565187	15.395596878112285	0.5228177860772139	-0.5433732100470419	1.0661909961242557	85.84453648853784
11	4.0	wm	301	diff_vonmises	-0.6001663266094238	-34.3869975205901	1.1365608630054924	164.7287523842869	1.1214772745406025	166.18618172531376	-0.06780489723245609	-0.32360097575829627	0.2557960785258402	72.1772001096676
12	5.0	ltm	301	diff_vonmises	-0.2687388711611777	-15.397603108645473	1.0192132182574407	119.37209538824594	0.9984078998244839	120.21446344819493	0.1818441150438943	-0.2518608760608103	0.4337049911047046	85.55772541832783
13	5.0	perception	301	diff_vonmises	-0.10158081860933453	-5.8201521857988405	2.2012439054158577	2.499007162696496	0.29956803679236027	3.4872214015918233	0.6333897138816993	-0.4188862878390997	1.052276001720799	82.93107906050236
14	5.0	wm	301	diff_vonmises	-0.20363758464371318	-11.667574150322828	0.5348401853976615	128.66578805254858	0.5212375839828385	129.12975763686666	0.21213347403932659	-0.23356217172731775	0.44569564576664433	121.44555824357842
15	6.0	ltm	301	diff_vonmises	-0.3706645458585125	-21.237514092826125	1.6277964929164332	1.0447876443442103	0.17588042780560786	2.114179756731254	0.07748671470169394	-0.2654076913941455	0.34289440609583943	94.37079485176676
16	6.0	perception	301	diff_vonmises	0.1710727069802727	9.801744099847843	0.6670241366617535	2.633262920775893	2.471947535170203e-17	3.703654783790067	0.14332112682268916	-0.3964337905766869	0.5397549173993761	143.27028405703766
17	6.0	wm	301	diff_vonmises	0.42471784779744476	24.334540162673253	0.00018243231704496982	3533.6758721360566	7.47818108003688e-34	3534.715504924566	-0.06285947065975961	-0.26805656575709236	0.20519709509733275	174.47879006039784
18	7.0	ltm	301	diff_vonmises	-0.2212317436490726	-12.675645205412014	0.9258918718046223	162.83240579950257	0.9095715803134462	164.1769355585791	0.0692979351685068	-0.3242238772605255	0.3935218124290323	85.68461486471011
19	7.0	perception	301	diff_vonmises	-0.3448259917117245	-19.75707399149492	0.6998935603869253	293.13851936372345	0.6868783663334826	294.65359885830134	0.2996276875021522	-0.4746252317413031	0.7742529192434553	103.620541149124
20	7.0	wm	301	diff_vonmises	0.4743556853020389	27.178578755842686	1.358466463250073	60.826683784771596	1.3125873415974447	61.62836883292081	0.18361439212607422	-0.251764182547479	0.43537857467355323	73.95856872429087
0	1.0	ltm	302	diff_vonmises	-0.4536178280037649	-25.99038705650701	0.00023457222279935666	2346.196015101125	1.7011208913686778e-29	2348.5938064597317	-0.29402390504628784	-0.46920651616130726	0.17518261111501943	174.19086828100706
1	1.0	perception	302	diff_vonmises	-0.08853778596342694	-5.072841463136985	11.435262396868765	0.8544989895195892	0.16875434123788066	3.4097472371253845	0.5017408725219727	-0.5849083761611029	1.0866492486830757	39.07040147925619
2	1.0	wm	302	diff_vonmises	-0.08027279423954671	-4.599292319648093	4.048806075580858	0.4029850073094956	0.022375268487793448	2.483652740361025	-0.09231547491868325	-0.39106318014361396	0.2987477052249307	66.41534087561845
3	2.0	ltm	302	diff_vonmises	-0.0968433251397743	-5.548713804522251	10.80344937004869	0.2759451974948887	4.142800775111201e-39	1.6614035499748558	0.0929218408481739	-0.26442058730114004	0.35734242814931394	41.28400411845652
4	2.0	perception	302	diff_vonmises	-0.02515022454925661	-1.441001720478717	8.43162601515786	1.2866098686415939	0.3262662772108908	2.7620938429135853	0.8733522224056619	-0.4824413956574878	1.3557936180631498	44.90282361870402
5	2.0	wm	302	diff_vonmises	0.19691242382282204	11.28225081873903	3.868715073961103	0.43542594561238246	3.6411210240279625e-15	1.7507310613296967	0.05007076147855394	-0.2784941093599985	0.32856487083855246	69.64355579691096
6	3.0	ltm	302	diff_vonmises	-0.24461088464756414	-14.01517131326685	2.829884502821427	0.6126957834972443	0.35333515670292726	1.3629863830243714	0.08865038382374857	-0.18767442080097005	0.27632480462471865	70.44473717507265
7	3.0	perception	302	diff_vonmises	-0.06982410640829946	-4.000626605467924	3.613437572690984	2.5967503979445694	0.6860656998337742	3.214065392049835	0.9820061822031229	-0.41864273464708646	1.4006489168502094	63.509178726695694
8	3.0	wm	302	diff_vonmises	0.032153892812261324	1.8422823530586074	1.3518479632645133	187.056659015161	1.3387705455672294	187.5031881036192	0.2604771496818188	-0.19093406418680559	0.4514112138686244	76.6353898975486
9	4.0	ltm	302	diff_vonmises	-0.2447362881573047	-14.02235640511111	4.1954884139357915	0.493815584801539	0.28865820254754804	2.1847316893240145	-0.06488568737065548	-0.3512991882882517	0.2864135009175962	57.991606808213646
10	4.0	perception	302	diff_vonmises	-0.12059470597835072	-6.9095676841805735	2.6109245749389762	2.5042217449120945	0.3337600059453316	3.891330134777859	0.6727638533580781	-0.49785971229362896	1.170623565651707	75.93383623916384
11	4.0	wm	302	diff_vonmises	-0.338013278854531	-19.366734297743218	0.7904147829512336	150.68831379848126	0.7781287633442974	152.29128114726737	-0.12648858278338082	-0.31337594471631647	0.18688736193293565	83.41487933425002
12	5.0	ltm	302	diff_vonmises	-0.07488735915869937	-4.290729618673845	0.9834794124906507	54.24123743079458	0.9373189800851797	55.40849390095315	0.09012641000451893	-0.2924364747081736	0.3825628847126925	84.56455781050815
13	5.0	perception	302	diff_vonmises	-0.08413142120045702	-4.820375359223646	1.9701331818824088	3.1100329050740347	0.3956039617558249	4.340434902122481	0.602835793705423	-0.4675081778403349	1.0703439715457579	83.908931095735
14	5.0	wm	302	diff_vonmises	-0.1386435400532428	-7.943689701803798	1.470920697986929	1.0431890480462878	3.593564981930007e-16	1.9974503183903647	0.12863326650207374	-0.2943409643807632	0.4229742308828369	111.30713276662854
15	6.0	ltm	302	diff_vonmises	-0.36632616036591525	-20.988942914199516	0.6977612699597433	89.91615971942747	0.6746010843963375	91.14538425288355	0.05282405289216641	-0.29806053321392945	0.35088458610609585	99.49235511501546
16	6.0	perception	302	diff_vonmises	0.22694652899087278	13.003078286320392	0.46771616905315155	4.28700984497302	1.5814025818413035e-17	5.453386653398812	0.16403598610054437	-0.46297194874927083	0.6270079348498152	152.91020220688893
17	6.0	wm	302	diff_vonmises	0.16904237849632103	9.685414846692218	0.28980540618802664	3.3201126056633554	1.867590327843039e-12	4.597360862711803	-0.04024304267667611	-0.34439708554646625	0.30415404286979014	162.84563847163312
18	7.0	ltm	302	diff_vonmises	-0.2840885538521517	-16.277075143703296	0.928780599959927	151.98679453881758	0.9144599497270756	153.1746654326737	0.027440349108509565	-0.2751438450732131	0.30258419418172267	84.28484519052309
19	7.0	perception	302	diff_vonmises	-0.22861739061456776	-13.09881160550849	0.5511908952011227	198.7477106110177	0.5370567366066289	200.1793437011524	0.16515624251081107	-0.4286650616348311	0.5938213041456422	115.39194283089272
20	7.0	wm	302	diff_vonmises	0.39938223512417487	22.882916485116727	1.5870326183754506	1.4110533056624794	0.4068705568451078	2.505652161321374	0.05750836551408067	-0.25878102724777485	0.3162893927618555	85.29919118316468
0	1.0	ltm	303	diff_vonmises	-0.520693648512019	-29.833548479007028	0.00029969804113806603	1767.0968114753969	3.3014186611857353e-32	1770.2435556132818	-0.4165261912260121	-0.585100946932414	0.1685747557064019	172.38636421006515
1	1.0	perception	303	diff_vonmises	-0.06926003413464851	-3.9683076448473766	9.086626363989797	0.9477556906495943	0.1289192499940876	4.191161240226882	0.36751688064621924	-0.6967177195384568	1.064234600184676	43.73843410314541
2	1.0	wm	303	diff_vonmises	-0.0844006015484417	-4.83579825709103	4.411044023855201	0.4818911138822872	0.0792344315465602	3.383264470097332	-0.19125179872436882	-0.5348688060577779	0.34361700733340905	60.91841359413735
3	2.0	ltm	303	diff_vonmises	-0.13319227733674385	-7.6313553551313875	2.7525830366021995	0.4730077837955937	8.764028020196213e-21	2.2742299381674456	-0.06711025670870269	-0.36075604584150467	0.293645789132802	82.8772379655278
4	2.0	perception	303	diff_vonmises	-0.012891570618229504	-0.738632587719408	7.447181221841514	1.461932993983439	0.31307282570617184	3.3614084001546054	0.8488512050095574	-0.5750971009277513	1.4239483059373086	47.484264057450446
5	2.0	wm	303	diff_vonmises	0.2222693039798187	12.735093033353964	3.351889157941691	0.5465563666186095	0.008121735131928435	2.308835378845105	0.010649405673440082	-0.3641635230418888	0.3748129287153289	74.28663838006221
6	3.0	ltm	303	diff_vonmises	-0.1903830599859803	-10.908145827982652	1.8935787019836428	0.982217277325444	0.29142766679067067	2.1494415460575826	0.041933694062586346	-0.2654949056755838	0.30742859973817016	82.9536352964379
7	3.0	perception	303	diff_vonmises	-0.0700687769233495	-4.014645193351583	3.1633725679931084	2.994983771251181	0.6392448017473682	3.994575264087187	0.9310105702224554	-0.4963919135832574	1.4274024838057127	66.82517111229654
8	3.0	wm	303	diff_vonmises	0.04237152683513114	2.4277096591783245	1.0968898805717089	218.8002792986517	1.0847380441843493	219.54128552528894	0.2332663253938705	-0.24694094783051312	0.4802072732243836	83.43573634169405
9	4.0	ltm	303	diff_vonmises	-0.33592248147287795	-19.246940431957498	2.6850631350544663	0.772120936333935	0.28087464077034435	3.3110351416101826	-0.20986083808159878	-0.4912431396475813	0.28138230156598254	67.38539597386107
10	4.0	perception	303	diff_vonmises	-0.10118439431846499	-5.7974387470355495	2.319838411160901	2.680789260387857	0.29962762348699457	4.35739492171081	0.5965058277873518	-0.5460812752528157	1.1425871030401675	80.01283042164027
11	4.0	wm	303	diff_vonmises	-0.3898840565571617	-22.338710940165253	0.7078201579361142	184.8807713062113	0.6946632773297016	187.45063077448614	-0.26501197172736823	-0.4776548580585427	0.21264288633117445	84.19852532949157
12	5.0	ltm	303	diff_vonmises	-0.17079693203275687	-9.785943359259745	0.7987709380410577	50.617546465115616	0.7479753346964679	51.91668084125617	0.1093908097194447	-0.33168843738543785	0.44107924710488255	95.0161885454983
13	5.0	perception	303	diff_vonmises	-0.11183745979038519	-6.40781443745312	2.0536782444344883	3.426516581480867	0.43656873846319666	4.732464611702431	0.6842284495251887	-0.5063834505020873	1.190611900027276	81.75632421233294
14	5.0	wm	303	diff_vonmises	-0.12690169550165292	-7.2709315652990165	0.4668220270757551	137.7755301561959	0.4523927904814267	138.84982723867628	0.11350245310641327	-0.33554310997069337	0.44904556307710664	124.54237699850182
15	6.0	ltm	303	diff_vonmises	-0.37642327311013873	-21.56746485971128	0.6709290490352533	152.80566130849851	0.6596840097490159	153.89853744362293	0.024303671487167833	-0.2562376280840013	0.28054129957116913	100.0722457512061
16	6.0	perception	303	diff_vonmises	0.18433639181662687	10.561697261762605	0.00028497310149982753	6614.204311971637	2.6713450379987285e-32	6615.318012802951	0.12274802551496578	-0.47720727134492336	0.5999552968598891	178.82307622967338
17	6.0	wm	303	diff_vonmises	0.2085717189579655	11.950279222080164	0.4481064701061679	2.1417134739403814	6.993841584677828e-18	3.4014078461266846	-0.03359175139965931	-0.3341280685076563	0.300536317107997	154.07262440616446
18	7.0	ltm	303	diff_vonmises	-0.5694867987070888	-32.629190054332454	1.873236454819563	0.6559575138120447	1.0571254169527328e-13	1.8732946321697561	0.027077854769624987	-0.290467986503223	0.31754584127284796	99.42660885115139
19	7.0	perception	303	diff_vonmises	-0.15849356292034147	-9.081012235326725	0.6046593837263106	287.67727366059563	0.5932602156781176	289.35207125247416	0.17799242916623825	-0.47438493244491653	0.6523773616111548	109.47795721426014
20	7.0	wm	303	diff_vonmises	0.26496764560011654	15.181527800404815	0.8408811141699425	107.20869841786393	0.8182572427383544	108.71251016485384	0.0011613931751739415	-0.33457026938761203	0.33573166256278597	87.87608198323568
0	1.0	ltm	304	diff_vonmises	-0.44724931540599266	-25.62549816287877	0.0006420711600019916	1009.6874256328647	1.8765515083253303e-25	1011.932882342161	-0.2541824364484455	-0.46053551190215103	0.20635307545370551	174.32986596017668
1	1.0	perception	304	diff_vonmises	-0.12199368751173359	-6.989723421660152	13.71175981626528	0.6512208267393976	0.07181079946132288	3.0658389069215093	0.4293507485585214	-0.5050536756689489	0.9344044242274703	36.17996832535377
2	1.0	wm	304	diff_vonmises	-0.10320767460415955	-5.913364168177872	3.031421714746045	0.6570891412243124	0.1303374572858409	2.5832741498984153	-0.033468361081888	-0.38879542257287447	0.3553270614909865	71.67061694799764
3	2.0	ltm	304	diff_vonmises	-0.0725564674569942	-4.157179361664073	4.158760325887395	0.3728880333944879	5.102727258272038e-25	1.5957825166970347	0.03885840036924276	-0.2539051629006081	0.29276356326985087	67.10717154612152
4	2.0	perception	304	diff_vonmises	0.013764616821736098	0.7886544505002554	6.478333403252545	1.4840025347184604	0.4915140246592064	2.714423395795466	0.8098740164140771	-0.4661361226386063	1.2760101390526835	49.819755286606465
5	2.0	wm	304	diff_vonmises	0.3519428550247204	20.164840222701077	3.6852832215504936	0.4697808102136435	0.011694969370483317	1.474800905802859	0.10782825087885012	-0.2321484433049375	0.3399766941837876	70.77456351801646
6	3.0	ltm	304	diff_vonmises	-0.195449345408984	-11.198422600529417	1.3737311194198236	59.17035276120831	1.333875316795988	60.04471735161468	0.07167362031227498	-0.23777203085243404	0.309445651164709	70.68363977156181
7	3.0	perception	304	diff_vonmises	-0.056546576619492674	-3.239880186210068	4.6212291836296675	1.9419654770171204	0.43664727128856645	2.813152903257745	0.9534086695114967	-0.42627989929647375	1.3796885688079705	58.91942330010568
8	3.0	wm	304	diff_vonmises	0.22287545435239614	12.769822891452932	1.0658771528439057	116.43470611157134	1.0485841921886192	116.79236205961055	0.253301884691048	-0.1697089599555408	0.4230108446465888	87.47789526178616
9	4.0	ltm	304	diff_vonmises	-0.4101185325184013	-23.498061013403206	9.162986785583193	0.3159682990626505	0.050829005352128996	2.008832370028568	0.03978021435629908	-0.3245531110106163	0.3643333253669154	44.081002434934646
10	4.0	perception	304	diff_vonmises	-0.060007936093313764	-3.43820147543764	1.8440683711930113	4.073783827151126	0.5422100377774812	5.578085818170838	0.5801278127275624	-0.5222236018723453	1.1023514145999078	82.0218100586477
11	4.0	wm	304	diff_vonmises	-0.33986421173347814	-19.47278493986889	0.8283001029798932	173.20482089475786	0.8162950110936587	174.86750521720487	-0.11305390287935779	-0.3325367106499151	0.2194828077705573	82.73039682062678
12	5.0	ltm	304	diff_vonmises	-0.1718210174772145	-9.844619133087948	1.0845577147223224	133.26952346670808	1.0633650008574298	134.2682714514593	0.17715795266429524	-0.2859720577898095	0.46313001045410473	82.12368421541643
13	5.0	perception	304	diff_vonmises	-0.09310572098642922	-5.33456486104501	1.0307848984770163	225.16291927096026	1.0086870846540776	226.26295885119544	0.5618399548465192	-0.4457245765926423	1.0075645314391615	88.09429967737654
14	5.0	wm	304	diff_vonmises	-0.023780604926462907	-1.362528296554338	1.1511885291741186	1.4583854995512835	5.146847356361712e-20	2.064081870851042	0.2112107282407812	-0.2745231593845072	0.4857338876252884	122.53869165419569
15	6.0	ltm	304	diff_vonmises	-0.43413787362363365	-24.87426788541811	0.7924851021461166	156.96065397118198	0.7782260831066017	157.9638182198648	0.12698020165010604	-0.27297856551008515	0.3999587671601912	95.52547035362973
16	6.0	perception	304	diff_vonmises	0.02075818412592116	1.1893563407707444	0.5950926386406085	152.57307853660296	0.5766770650311935	153.7072626739118	0.2348440643776044	-0.3866309110844046	0.621474975462009	113.27153524171726
17	6.0	wm	304	diff_vonmises	0.2858676928041654	16.37901229682101	0.0004199571657094717	2615.650611645242	9.66366189738435e-29	2616.7229386288554	0.0041739180879858395	-0.3454694917896859	0.34964340987767173	177.36243580877436
18	7.0	ltm	304	diff_vonmises	-0.10174766169110898	-5.829711590225473	1.1004665289440902	164.5033079169156	1.0831081077509577	166.12933141200492	-0.04595242856258608	-0.36443762322035056	0.3184851946577645	74.57152083999418
19	7.0	perception	304	diff_vonmises	-0.24931101158511915	-14.2844687499645	0.6449384311825219	91.80674757460709	0.6061919675660283	93.51682074677085	0.2186664673411265	-0.49588918756285505	0.7145556549039815	107.65870057165537
20	7.0	wm	304	diff_vonmises	0.6877043834374196	39.40255872361062	13.69326162834002	0.3398788023721343	0.1193834289244304	1.62879004691065	0.20578090107022945	-0.27543906250044586	0.4812199635706753	35.976544981473666
0	1.0	ltm	305	diff_vonmises	-0.4830629092261021	-27.677465937966847	0.21769735630528972	3.9217610081386414	1.0937621845160061e-12	5.178399401125074	-0.05731129023665971	-0.32800115611774633	0.2706898658810866	162.36600117533388
1	1.0	perception	305	diff_vonmises	-0.13474856540641217	-7.720524093229944	14.126335292415094	0.7078874448925411	0.07557268394679974	2.165771031805544	0.6803182763397202	-0.35698721285777	1.0373054891974902	35.76752991675491
2	1.0	wm	305	diff_vonmises	-0.11820546647047826	-6.772674344133568	3.3388621640187823	0.5285350993261888	0.11452455023647862	1.5082116485478136	0.09945217791781658	-0.22727422154472934	0.3267263994625459	70.68120721381274
3	2.0	ltm	305	diff_vonmises	-0.0788276270270968	-4.516490337684027	4.769994604540691	0.3514314368636623	7.797500062456213e-14	1.0510545040325334	0.12983715505826993	-0.16725914451894094	0.29709629957721084	62.55679054989474
4	2.0	perception	305	diff_vonmises	0.01919717909745802	1.0999173408411074	5.693034219676104	1.5595194081254349	0.5917589128638214	2.162800605731096	0.8776948929565637	-0.35317530962141996	1.2308702025779836	52.863767608054815
5	2.0	wm	305	diff_vonmises	0.49825768973133944	28.548062731544608	3.2888060793697615	0.4693113640915991	1.0670500224474061e-18	0.9401420903070415	0.1741237875543978	-0.14917777547575975	0.32330156303015756	75.65841481361011
6	3.0	ltm	305	diff_vonmises	-0.16323852066674877	-9.352878288163769	1.710370519887438	94.44075854407477	1.6871004585213292	94.9632770275142	0.12489179355112157	-0.18142482280551242	0.306316616356634	65.12312402012861
7	3.0	perception	305	diff_vonmises	-0.056445080341056754	-3.234064877819405	4.76647417181349	1.7524025482593475	0.30687815182835915	2.2757442596846964	1.0002779902191423	-0.3447926622035693	1.3450706524227116	59.5467753936378
8	3.0	wm	305	diff_vonmises	0.3407666919949319	19.524493249944054	0.8802327093412358	79.49491965403622	0.8631671903022011	79.3894303114557	0.29196802218364937	-0.10047832178440697	0.39244634396805633	102.0711839065873
9	4.0	ltm	305	diff_vonmises	-0.36895364742283865	-21.139486833286476	8.07531632446975	0.4299939571875098	0.2633714931205698	1.4595210748472693	0.1823340587101242	-0.2519911854252093	0.4343252441353335	45.43499549154777
10	4.0	perception	305	diff_vonmises	-0.07414151418141231	-4.2479958493042655	1.8231287614016793	3.8412397894305674	0.4925139135808163	5.007218498400847	0.644930870450932	-0.4724686401329571	1.1173995105838892	84.448323768823
11	4.0	wm	305	diff_vonmises	-0.5123788243822028	-29.357144148975024	1.2042276543431487	172.29334608912322	1.1908460506088154	173.3069732714506	0.043436662207327004	-0.25347254404848485	0.29690920625581185	74.21034096567635
12	5.0	ltm	305	diff_vonmises	-0.18872223353658227	-10.812987481928449	1.3082245758819724	132.59300711215877	1.292122128083064	132.96082450345747	0.24241385158711637	-0.16595166128846017	0.40836551287557654	78.38626388172958
13	5.0	perception	305	diff_vonmises	-0.09919397082831678	-5.683395881606359	1.6500979456850497	3.676091193819585	0.5406396192371054	4.032124475235581	0.6616645480163867	-0.3140991903873738	0.9757637384037605	88.88892643124512
14	5.0	wm	305	diff_vonmises	-0.004975262236191202	-0.285061528104576	1.1295625163467928	1.3799673555192467	1.1849957935379218e-10	1.4210907955210708	0.2789706310493061	-0.17341396004697135	0.45238459109627743	123.3735523239003
15	6.0	ltm	305	diff_vonmises	-0.4433277937052947	-25.40081152015981	0.7239741264529783	92.2656607195685	0.7068730650311863	92.72965148659897	0.16827103612485672	-0.17945555348351672	0.34772658960837344	104.28087451358923
16	6.0	perception	305	diff_vonmises	-0.008338985856891253	-0.47778869501915305	0.6404378486434719	150.24424021457108	0.6258969795721112	150.72955628470677	0.28341852083548247	-0.2554403566007224	0.5388588774362049	112.62450932632095
17	6.0	wm	305	diff_vonmises	0.30315041899177714	17.369239565851387	0.0001623827521035954	5456.129411373106	5.273365601232435e-31	5456.570004653784	0.07088850185891715	-0.21112225117803973	0.2820107530369569	177.07250002294526
18	7.0	ltm	305	diff_vonmises	0.037487450951582596	2.1478727242293645	1.2945117168425981	161.06515662349906	1.2756927290038689	162.27353955468635	0.07743029504752741	-0.31646649307231556	0.39389678811984297	72.16118525075427
19	7.0	perception	305	diff_vonmises	-0.3058357375914236	-17.52309698825911	0.8949775161590053	113.30995852896713	0.8592380437419569	114.32279285490804	0.4529849774585628	-0.39962544271442013	0.8526104201729829	94.70684400061991
20	7.0	wm	305	diff_vonmises	0.6763788366136282	38.753652689929574	19.01830885440542	0.3298836690769028	0.2324166833295477	0.8184711399079713	0.4078136438955181	-0.1493321975169706	0.5571458414124887	30.64027427296523
0	1.0	ltm	306	diff_vonmises	-0.1490985692640728	-8.542718750270348	2.9116343075406648	0.428490684054235	1.3669857727598007e-29	2.6336571704890823	-0.14329616977852194	-0.41834342363231164	0.2750472538537897	80.5513227959274
1	1.0	perception	306	diff_vonmises	-0.10160068458073197	-5.821290422115842	13.67771299366451	0.6690734535457642	0.02300360178890885	3.039242613793958	0.48286532406356975	-0.4882199267445827	0.9710852508081524	36.49177153809757
2	1.0	wm	306	diff_vonmises	-0.14227258598464032	-8.151618717331997	3.8886458985623626	0.5323659759598688	0.08125843402893368	2.5607215877462015	-0.0382859040439002	-0.3986302273368903	0.3603443232929901	65.50596214007086
3	2.0	ltm	306	diff_vonmises	-0.03701372229580663	-2.1207300716189956	3.3870598592413925	0.45902157028899643	1.8351999289687925e-21	1.692682062743023	0.05255093541926542	-0.2690307310444588	0.3215816664637242	74.56146563022799
4	2.0	perception	306	diff_vonmises	0.01382667621140581	0.7922101916074877	6.018250623321372	1.5508497112583208	0.44545341937595034	2.733220986047457	0.8366933038101629	-0.45505543706216656	1.2917487408723294	51.87511395347218
5	2.0	wm	306	diff_vonmises	0.19140623612769472	10.96676950260137	2.9975719175344695	0.6571409054295216	0.13507649213332532	1.7840161867460538	0.10667913224884396	-0.2633347105461041	0.37001384279494803	73.6387933433524
6	3.0	ltm	306	diff_vonmises	-0.19279257814422102	-11.046201049109982	1.28904684872869	153.55685873042546	1.2711474727790206	154.5815831797615	0.09940868470823006	-0.2776140729449921	0.37702275765322213	73.18777573338801
7	3.0	perception	306	diff_vonmises	-0.04181090527732632	-2.3955884100120586	3.987876794286352	2.3786346291372387	0.4642852942393691	3.3190163939731083	1.0287997935759319	-0.47543985064643296	1.504239644222365	62.62462136183581
8	3.0	wm	306	diff_vonmises	0.12668811700356924	7.258694418764079	0.9314670117960445	74.30825854176088	0.8995283012234749	74.95637710875836	0.24253736872699605	-0.23433584735780943	0.4768732160848055	92.02149033499376
9	4.0	ltm	306	diff_vonmises	-0.36607573162595247	-20.97459440433087	5.0553010796574	0.41590534627071396	9.37792590372513e-24	2.2039181715080223	0.012001971525637367	-0.35074972602857213	0.3627516975542095	60.71630532940381
10	4.0	perception	306	diff_vonmises	-0.0664384456900074	-3.8066425354465583	1.5688287632888065	6.0928262922929	0.5966288063411374	7.663642121351118	0.6817017130024055	-0.5819578122126445	1.26365952521505	85.98618409558657
11	4.0	wm	306	diff_vonmises	-0.26724882996858823	-15.312230037009458	0.7447487636880811	228.62979687777323	0.7343042993818215	230.44347920676432	-0.07221995557395644	-0.37595360267008715	0.3037336470961307	90.31804626294019
12	5.0	ltm	306	diff_vonmises	-0.10029822767649522	-5.746665138505402	0.9922259069069164	143.30478596869509	0.9741604637880666	144.12673699085045	0.21357368091649676	-0.258968114879357	0.47254179579585376	87.38150589019878
13	5.0	perception	306	diff_vonmises	-0.07974315591399836	-4.568946278925797	0.9949750794175073	277.15701586607327	0.9773143970230037	278.0223893722469	0.6349859433082372	-0.425475305498189	1.0604612488064262	90.7478245659801
14	5.0	wm	306	diff_vonmises	0.010082326774817895	0.5776747718688126	0.9985547844263666	1.6966634372713985	7.751705395393804e-16	2.3943456159444496	0.19821614499792378	-0.3024426252771911	0.5006587702751149	128.64308936862165
15	6.0	ltm	306	diff_vonmises	-0.4555951113481903	-26.1036770470441	0.7385340025610562	159.31849227500192	0.7261245388600094	160.15759044157826	0.1343140983812603	-0.24406977456646928	0.37838387294772957	99.92763795631274
16	6.0	perception	306	diff_vonmises	-0.04126372877865139	-2.36423750598924	0.5868927396800154	208.19701902144232	0.5738826209823267	209.05292016948178	0.2885582461697922	-0.3548605739373478	0.64341882010714	115.61176958918286
17	6.0	wm	306	diff_vonmises	0.1448979564651269	8.302041365522113	0.13923939376940064	9.194630779061768	1.1447766595285503e-13	10.075450451018554	0.07031350037154227	-0.3365422423029969	0.40685574267453917	171.39121808713108
18	7.0	ltm	306	diff_vonmises	-0.12153702554221588	-6.963558618142655	1.1225006898211332	151.94684906605255	1.104311837938919	153.4087012154386	-0.011635666569851821	-0.3374034981099605	0.3257678315401087	74.92703458541556
19	7.0	perception	306	diff_vonmises	-0.13085250470077647	-7.497296258070257	0.6057117516074858	171.7687625324236	0.5848803973271909	173.34963287250247	0.2615959745648908	-0.4991508312566122	0.760746805821503	111.4687844207808
20	7.0	wm	306	diff_vonmises	0.3751268896014636	21.493187556033835	0.9564182321722967	107.36973860887944	0.9352606742393499	108.70009344819336	-0.006764782342280284	-0.2971437515067006	0.2903789691644203	81.71966599766034
0	1.0	ltm	307	diff_vonmises	-0.5951533364593976	-34.09977434225294	0.0002949931596377466	1691.6104902448933	1.2825112400000113e-31	1693.8318254020344	-0.2741102655116947	-0.4329509613575624	0.15884069584586769	170.12232182152516
1	1.0	perception	307	diff_vonmises	-0.07550807983129763	-4.326294293470247	13.21884971109142	0.7472989517115562	0.055343319521860626	3.231701664106902	0.5298874292309061	-0.5270954685959461	1.0569828978268523	36.95399204600466
2	1.0	wm	307	diff_vonmises	-0.07395236591804304	-4.237158452110978	4.875641414800976	0.35078508531375474	0.032070935383263756	2.410189103239319	-0.0958883813007082	-0.3812163695338468	0.2853279882331386	60.13363317024255
3	2.0	ltm	307	diff_vonmises	-0.12245284949159983	-7.016031465219359	10.427674243692344	0.25720134955001966	5.954114713382597e-40	1.3691119766148476	0.10928266393809974	-0.21790093843786748	0.3271836023759672	42.01706168189776
4	2.0	perception	307	diff_vonmises	-0.008752380645383976	-0.5014744716724895	7.869250141893299	1.4550901479016514	0.43196054817164	2.6452218993930345	0.9811693595394232	-0.467895872187686	1.449065231727109	46.068411598682644
5	2.0	wm	307	diff_vonmises	0.050302846384837584	2.8821407953461042	3.432984252220595	0.5596931352385496	0.12290360787213406	1.8017644832699098	0.07248236349488263	-0.2731896598925541	0.34567202338743674	69.13831047729508
6	3.0	ltm	307	diff_vonmises	-0.19063720803318568	-10.922707438459012	1.464273561671491	83.00725067946347	1.4406194405200918	83.65468337403325	0.07316877657265763	-0.1867955385246045	0.25996431509726214	68.7957586650013
7	3.0	perception	307	diff_vonmises	-0.03646579602151293	-2.0893362086176395	3.908289558190722	2.806708672859617	0.9208187087297341	3.2111795867800854	1.081710444704516	-0.41280660381741136	1.4945170485219275	60.02684230705481
8	3.0	wm	307	diff_vonmises	0.05279981356013672	3.025206476073448	1.4229523837004312	164.33393738314385	1.4069828242548597	164.88943136298462	0.23554925318299524	-0.2110231999419092	0.44657245312490446	73.64385127853947
9	4.0	ltm	307	diff_vonmises	-0.44965705864009486	-25.763451688344006	22.36981407842222	0.17903880887960852	1.1878567519949237e-16	1.7843911300959883	0.05183718387518327	-0.2839946687641098	0.33583185263929305	28.609078483834423
10	4.0	perception	307	diff_vonmises	-0.08051596693205644	-4.613225088621733	2.9525226587611293	2.292849220471061	0.26429706109884277	3.4502438632920396	0.7850985228170991	-0.4689225463721943	1.2540210691892935	73.71390558636176
11	4.0	wm	307	diff_vonmises	-0.11654590575026323	-6.677588519019555	0.7035639035438689	160.291053723596	0.6914123524303337	161.97178696701147	-0.10431143243793883	-0.3343647144825006	0.23005328204456177	90.80478337055409
12	5.0	ltm	307	diff_vonmises	0.03053547733769812	1.7495539768674735	1.129889130076345	68.38953753220066	1.0905385655989228	69.39465952229388	0.14260834659324928	-0.2771115193705258	0.4197198659637751	79.99196383411777
13	5.0	perception	307	diff_vonmises	-0.08558565144084655	-4.90369661443826	1.0439614893733735	156.16145787840048	1.011925899792645	157.1261648770223	0.612130312886741	-0.43415741286904463	1.0462877257557857	88.41681139225744
14	5.0	wm	307	diff_vonmises	0.06435294801123614	3.687152320268636	1.3008844017356327	1.1703363585403832	2.044637750739235e-15	2.1160442727937947	0.12856810198356572	-0.3022756613664274	0.43084376334999314	117.0186384588476
15	6.0	ltm	307	diff_vonmises	-0.432113992026296	-24.75830801165647	0.7225462643576728	142.0097777141939	0.7095552525415723	142.84814166469494	0.11176236446831211	-0.23523823672939592	0.34700060119770804	100.4411909127496
16	6.0	perception	307	diff_vonmises	0.10972663885650376	6.286873306633851	0.7618616926697542	2.7923006358998954	2.885151563643585e-12	3.6146153641506147	0.2522383792197871	-0.39496413755552584	0.6472025167753129	138.98043058985712
17	6.0	wm	307	diff_vonmises	0.10628382268896763	6.089614470594626	0.3187867762359533	4.219199270050493	1.5502884554593976e-18	5.182660822392689	0.0757557789391039	-0.3488115035553381	0.424567282494442	161.65507235177188
18	7.0	ltm	307	diff_vonmises	-0.1363632335122188	-7.813037761007046	1.131947234623475	135.46415431418748	1.1164633480275743	136.58072663553588	-0.014473480187696453	-0.25697715912625796	0.2425036789385615	74.30093439645287
19	7.0	perception	307	diff_vonmises	-0.12096772382612626	-6.930940032541166	1.0063157963074563	3.0420827015578165	0.24988339833575152	4.3129736172137	0.17545045521598712	-0.3870035309448415	0.5624539861608286	111.41537644293174
20	7.0	wm	307	diff_vonmises	0.35398545796081937	20.281872750160577	0.7239289646240991	86.63462743571122	0.7058185121494597	87.72080253652634	-0.011058469066089316	-0.23759935882730332	0.226540889761214	94.33175133365941
0	1.0	ltm	308	diff_vonmises	0.03951596399556551	2.264097960336821	2.8916501800174994	0.6544932947016022	2.67432660918869e-28	4.3509615150909235	-0.27274684801007315	-0.6911847974764775	0.4184379494664044	80.83524111078478
1	1.0	perception	308	diff_vonmises	0.02754862849297111	1.57842014402109	6.323720934233176	0.8601292416974654	0.008348444792016711	4.616619278000998	0.10333523745082962	-0.7333422943311665	0.8366775317819961	53.87320220567324
2	1.0	wm	308	diff_vonmises	0.003827989243567284	0.2193276276778819	2.0469391290532406	1.5006244115340779	0.18594449522622072	5.2218425938288435	-0.20726202609108146	-0.7267294151080459	0.5194673890169644	80.70776364325843
3	2.0	ltm	308	diff_vonmises	0.31163106662678347	17.855144882874853	1.2834185686355997	0.6850458677527559	1.4851208198449729e-16	2.130620839531027	-0.06888580786212806	-0.3183522521924973	0.24946644433036924	117.13511494425344
4	2.0	perception	308	diff_vonmises	0.04047562657540038	2.3190825759179954	5.256426331758494	1.7644964981419966	0.4982161300853624	2.9783321102244655	0.8373143105894302	-0.47930134907614147	1.3166156596655716	54.70051060451274
5	2.0	wm	308	diff_vonmises	0.1672380743500036	9.582035834150274	2.162571961749549	1.5907781299522028	0.5068059169392845	2.7911267748543387	0.16793031460625574	-0.31807301344043837	0.4860033280466941	75.40374713396562
6	3.0	ltm	308	diff_vonmises	-0.23196711494121655	-13.290736671957768	1.0224925820109745	93.51571659621358	1.0027229765105345	94.48744243339935	0.016788922864044764	-0.2262119968362324	0.24300091970027715	79.96408520279466
7	3.0	perception	308	diff_vonmises	-0.03617710678061996	-2.0727955335236365	5.339249339505228	1.5754771681003579	0.14400267305726036	2.335144152488689	0.987669641011935	-0.36361071597615263	1.3512803569880876	57.563323938557915
8	3.0	wm	308	diff_vonmises	0.1667828297900753	9.555952242220092	1.3847871148843562	1.6067336562751444	0.22558507790354004	2.1871732215466757	0.23248142165212105	-0.2328608491055128	0.46534227075763385	102.31528007400635
9	4.0	ltm	308	diff_vonmises	-0.38421683077729407	-22.014002821431102	0.3370781224363185	177.9730378389545	0.3244154191995439	180.11294398245957	-0.05231707728044199	-0.5315414209163443	0.4792243436359023	135.1312863774528
10	4.0	perception	308	diff_vonmises	0.04475777620637978	2.5644316770166182	1.8474701892904681	4.433581704662479	0.4855163305879547	5.707185833914853	0.7869792236651796	-0.5435036413105528	1.3304828649757323	84.45370473578163
11	4.0	wm	308	diff_vonmises	-0.030248514192317864	-1.7331121997613856	0.5899371242737961	50.1666769087911	0.5306466903405994	52.50239202882707	-0.029222323318592203	-0.5265735874876221	0.49735126416902986	107.33953623826314
12	5.0	ltm	308	diff_vonmises	-0.1494463466185284	-8.56264492489088	0.6865574990382837	155.73786679710352	0.6700352322567451	157.14504796788538	0.0975047011858905	-0.3588263903071791	0.4563310914930696	101.24247346463257
13	5.0	perception	308	diff_vonmises	-0.06688003905212798	-3.8319439713570604	0.9819231231614473	390.8929187029253	0.9679913763285481	392.1757998410919	0.6017160417645186	-0.5040430313348097	1.1057590730993283	89.86301262396549
14	5.0	wm	308	diff_vonmises	0.09626142746175946	5.515373523463538	0.2605514956755261	169.91212585645744	0.24711089917606058	171.02652952008347	0.17931391483772785	-0.44886753255675416	0.628181447394482	149.59058842865113
15	6.0	ltm	308	diff_vonmises	-0.599840245953067	-34.368314475199995	0.6813208611135266	223.95589679782893	0.6692863026835724	225.1101682505914	0.1913552888272676	-0.34723805196134805	0.5385933407886156	104.37573819521376
16	6.0	perception	308	diff_vonmises	-0.0630201921469767	-3.610791034125259	0.6847165665769225	301.8882191535186	0.6708415531264141	303.0733859502756	0.4667986848271113	-0.48799105888209127	0.9547897437092026	107.49998180441924
17	6.0	wm	308	diff_vonmises	0.08301634335602051	4.756486104908888	0.8209305847461242	3.075199028504751	1.0018452722893965e-11	4.3728964727704795	0.25008305112254037	-0.5127915677067088	0.7628746188292491	136.31487217182428
18	7.0	ltm	308	diff_vonmises	-0.9281861560085519	-53.18114934176142	0.00019000385194875487	3673.737821536289	2.135824737402071e-31	3675.7553811539483	-0.210005841095267	-0.4321927772358549	0.22218693614058793	156.87681448763283
19	7.0	perception	308	diff_vonmises	0.0518441482773348	2.9704508887417216	0.5848375492257931	180.79894657408093	0.5601503507670057	182.9119134779386	0.2971442935487829	-0.6493894320287659	0.9465337255775488	113.14223540133122
20	7.0	wm	308	diff_vonmises	0.042223470377387766	2.419226649019972	0.47419308001439425	57.71345762102143	0.4331961981294065	59.864619189253304	-0.06532396691264175	-0.48961332879190156	0.4242893618792598	118.6989877585377
0	1.0	ltm	309	diff_vonmises	-0.34862477864045455	-19.974728449780617	0.7166063065771093	1.4291589175371446	5.568675334840897e-17	2.7987049093786616	-0.03422379474208137	-0.3473385677773949	0.31311477303531354	139.87298522440454
1	1.0	perception	309	diff_vonmises	-0.10791264143537332	-6.182938910355461	13.099684908800734	0.8225632805190407	0.11845785233419459	2.3222748940557416	0.7612567077403443	-0.3898801800933744	1.1511368878337187	36.99512277687222
2	1.0	wm	309	diff_vonmises	-0.18974607430256002	-10.871649236712415	5.370229264810552	0.3599737912370979	3.667251746865454e-15	1.5235389509862116	0.08174197569713834	-0.2424717351475703	0.3242137108447086	58.869761924466275
3	2.0	ltm	309	diff_vonmises	-0.07127777239808256	-4.0839155315042035	4.1558670368846204	0.49330799494742733	2.9889556012227916e-17	1.433313678788153	0.15914176095222865	-0.22802383802445558	0.38716559897668423	67.13080955131448
4	2.0	perception	309	diff_vonmises	-0.01886802247534496	-1.0810580555952465	5.670070060361324	1.4326987260380748	0.3147172177091221	2.3301319302907606	0.8323590652959871	-0.3727752032453675	1.2051342685413546	54.46097994439643
5	2.0	wm	309	diff_vonmises	0.22961381959802718	13.155902780845226	2.528555720360586	0.5373162392727527	8.291203510894645e-19	1.3456813705300452	0.10461682457110291	-0.2121430598179501	0.316759884389053	86.46736095582554
6	3.0	ltm	309	diff_vonmises	-0.15780911400149747	-9.041796200984672	1.2589238553414734	134.76856833609222	1.238808706974497	135.5385866552083	0.19954058059679625	-0.24543208219745338	0.44497266279424963	77.04792239856783
7	3.0	perception	309	diff_vonmises	-0.06044355447819187	-3.4631605703694612	2.8598230516150096	3.1756727283552117	0.5000959788518072	3.950614047283001	1.0487272859714911	-0.47613483095816705	1.5248621169296581	71.984070843164
8	3.0	wm	309	diff_vonmises	-0.019170385100274568	-1.0983821578862103	0.8710818520043817	133.68308720512164	0.855495692769654	134.02462951134524	0.29010228768792246	-0.19191178133751663	0.4820140690254391	97.46703388764297
9	4.0	ltm	309	diff_vonmises	-0.25900910906207897	-14.84012880470077	7.193488583199888	0.4674889699940385	0.1777658062195798	1.7571032070445447	0.15943812054472095	-0.29139503753140267	0.4508331580761236	48.48775549950881
10	4.0	perception	309	diff_vonmises	-0.15445292133102945	-8.849500525734113	0.9857827671857035	171.1517593976776	0.9476821249541116	172.6356836245075	0.744515419634979	-0.6023535104540425	1.3468689300890215	90.48368825094579
11	4.0	wm	309	diff_vonmises	-0.5050477412829083	-28.93710402812576	1.0798697840060418	178.92719132779865	1.0650679616048289	180.13031221043633	0.07155074376976245	-0.2986398052181869	0.37019054898794934	79.21623080047513
12	5.0	ltm	309	diff_vonmises	-0.12137477732659017	-6.9542624801537745	1.0361538972638118	124.62144583477551	1.0206166859973602	124.95966351374513	0.24845070941845648	-0.1646756221845571	0.4131263316030136	88.8299457114914
13	5.0	perception	309	diff_vonmises	-0.07594296566807354	-4.351211416487522	2.109204665887343	2.3606582155598868	0.15498000998959308	2.648766268961614	0.7681591302122339	-0.34197303277257496	1.1101321629848089	89.68027815739944
14	5.0	wm	309	diff_vonmises	-0.13694193782330297	-7.846195075618195	0.5538113086974217	40.954424942748545	0.5134184447959377	41.31263688458858	0.22140473494502722	-0.2130644462851552	0.4344691812301824	121.73583797220859
15	6.0	ltm	309	diff_vonmises	-0.363766614683495	-20.842291749125906	0.5709715315161218	55.684724068383545	0.5460241808472618	56.30848420133902	0.10245305968445884	-0.20211778907295486	0.3045708487574137	115.04296621517486
16	6.0	perception	309	diff_vonmises	-0.005916092148032977	-0.338967111292775	0.41524316647865506	165.25501862719628	0.4038020691390798	165.70840318994112	0.24377916882820472	-0.2764016944694383	0.520180863297643	133.842971729748
17	6.0	wm	309	diff_vonmises	0.0975420066318394	5.588745305241484	0.0002446906031479225	3354.7366215238862	2.0067498639482058e-26	3355.2728241472482	0.04531124741743042	-0.21597386116388861	0.26128510858131904	179.6091243636195
18	7.0	ltm	309	diff_vonmises	-0.12581680867347514	-7.208772128795095	1.130413199039647	163.60052718210525	1.114368434522328	164.53046374264093	0.15231449161069577	-0.2633507119076022	0.41566520351829794	79.97903365699617
19	7.0	perception	309	diff_vonmises	-0.22096324767613737	-12.660261519346566	0.7581845434868068	242.02685753862906	0.7427302539635358	242.994651837837	0.4307366209056198	-0.4031284720949593	0.8338650930005791	102.50741813110592
20	7.0	wm	309	diff_vonmises	0.3224254392887484	18.473616878896838	1.2013598149998106	90.40391663372223	1.1799758705716545	91.01115694553188	0.12958492725584847	-0.1831813790771939	0.31276630633304237	78.37407998630658
0	1.0	ltm	310	diff_vonmises	-0.49420614895161785	-28.315926544341416	0.0002894352957163989	1915.7809758222593	1.8939004784639551e-25	1918.0104124334937	-0.26657025205355467	-0.44306869128536164	0.17649843923180697	173.126244032932
1	1.0	perception	310	diff_vonmises	-0.10093460527234947	-5.7831268889245315	12.901329650226835	0.7563991924072614	0.14576622257953603	3.1605186378418284	0.4940145466760385	-0.5399236163728764	1.0339381630489148	36.96792374635402
2	1.0	wm	310	diff_vonmises	-0.09956451117576702	-5.704626279654568	3.7328131257039416	0.43541957999857933	0.035082074240650046	2.335855282780991	-0.06261272527615974	-0.3653996267474039	0.30278690147124415	68.54855593321176
3	2.0	ltm	310	diff_vonmises	-0.09228226495708391	-5.287384305948923	11.923994596285507	0.2743869525968073	1.4812884328203632e-33	1.5465363485702337	0.1276757082226146	-0.2461389045298094	0.373814612752424	39.271574089249356
4	2.0	perception	310	diff_vonmises	-0.016242371431365688	-0.9306193323011158	7.976850026054926	1.3095421565073762	0.3814771095029723	2.673236451383961	0.8499102903889904	-0.4699483379477915	1.319858628336782	45.82962388516117
5	2.0	wm	310	diff_vonmises	0.22174792012657413	12.70521993905678	3.988945304208441	0.4204870475266002	0.006087561018857085	1.5946292778093858	0.06744891340247999	-0.25234574592885267	0.31979465933133266	68.18970863293515
6	3.0	ltm	310	diff_vonmises	-0.22954204235713324	-13.15179024787691	2.6961698226975948	0.8320044268318793	0.587337506604915	1.5751275685499235	0.09795023999444952	-0.19991082206998015	0.29786106206442964	67.77211171474232
7	3.0	perception	310	diff_vonmises	-0.06335160631824319	-3.6297796674096547	3.9023002434132126	2.4333297302661223	0.6598718707802823	3.1019829357515882	0.9866263299713822	-0.42545278335347186	1.412079113324854	61.67967035352211
8	3.0	wm	310	diff_vonmises	0.07537525996970422	4.318684275965433	1.3595024254484116	179.18428724371032	1.3461763693102253	179.60508279439372	0.25918592089806225	-0.18453519041360877	0.443721111311671	76.57245178136316
9	4.0	ltm	310	diff_vonmises	-0.3903424995324951	-22.36497778779928	15.625137060162334	0.22532833412032288	0.07014109275993474	1.8217727058625506	0.04166617071104356	-0.3016140041642355	0.34328017487527906	33.769423528585975
10	4.0	perception	310	diff_vonmises	-0.1110263719787876	-6.361342529034076	2.3705269406343965	2.884351305897196	0.41704773041366355	4.3065711328647325	0.6510542131370305	-0.5088768142183189	1.1599310273553494	77.28113467049118
11	4.0	wm	310	diff_vonmises	-0.31887040359158375	-18.269928337430954	0.8060715993610889	137.8657539278524	0.7930683676763218	139.373964850736	-0.11361779927022297	-0.2972143248013026	0.18359652553107964	83.0522759464967
12	5.0	ltm	310	diff_vonmises	-0.07830015576098981	-4.486268460321675	1.063717527276022	118.05085292852648	1.04105055947966	119.15230866316281	0.11871515787026254	-0.28948658875291855	0.4082017466231811	81.4609413554677
13	5.0	perception	310	diff_vonmises	-0.08001029323324807	-4.584252119869244	1.4899211644659236	5.521466191337641	0.6253137300834507	6.731516903259409	0.561945943117284	-0.46394049137235993	1.025886434489644	87.03972408340903
14	5.0	wm	310	diff_vonmises	-0.09618456264546986	-5.510969493897095	1.4865706354837334	1.0646101338566285	4.416028067559541e-16	1.9170537136101145	0.15350103011024568	-0.28165163614012795	0.43515266625037363	110.85258030071164
15	6.0	ltm	310	diff_vonmises	-0.38364069162136666	-21.980992479384234	0.75333062834226	127.07223667875319	0.7355860862093093	128.27197542903687	0.08086354096708703	-0.29961616262021273	0.38047970358729977	96.31428742945774
16	6.0	perception	310	diff_vonmises	0.15976105866779697	9.153634392206705	0.9238067338324437	2.274926642427951	3.234137212643818e-11	3.4693357290884013	0.19231503114720316	-0.4348220034946264	0.6271370346418296	131.55894519234474
17	6.0	wm	310	diff_vonmises	0.18269664903507224	10.467746920892484	0.23872475461587017	4.1971189614884254	2.028651051843845e-11	5.431118251619666	-0.028249041884544135	-0.3456700665087715	0.3174210246242274	165.5373093970403
18	7.0	ltm	310	diff_vonmises	-0.19053842359520043	-10.917047507080886	1.064785125181398	175.61633426962186	1.0504724068802522	176.94392412025252	0.006561070806064606	-0.3070181075941072	0.3135791784001718	77.59586227262753
19	7.0	perception	310	diff_vonmises	-0.25043071349177	-14.348622943528344	0.5613076550194714	186.72036334848667	0.5457449161721459	188.2234642124271	0.16340196795214013	-0.44124400828698995	0.6046459762391301	114.19248709561319
20	7.0	wm	310	diff_vonmises	0.603299819531512	34.566533440159866	5.624369159582327	0.3888597509917373	0.0585841614901075	1.509490270500465	0.1043390395243442	-0.23918607264833636	0.34352511217268056	56.11153304901589
0	1.0	ltm	311	diff_vonmises	-0.06041935420128279	-3.461773996639523	0.00018451464075375029	4538.558378757059	1.4046994911095912e-32	4541.059148024092	-0.2647267734975003	-0.5312805126952753	0.26655373919777503	179.88676059578827
1	1.0	perception	311	diff_vonmises	-0.033788879725852525	-1.9359602027665037	8.118894157162076	1.4050870383334193	0.2596377634124875	4.005021633474099	0.7584302030140745	-0.6869319831725103	1.4453621861865846	45.647442318301756
2	1.0	wm	311	diff_vonmises	0.059616783056233656	3.4157900572692257	3.977842750526699	0.37604431025453433	1.9602975084325306e-16	2.7081342963865698	-0.14279444114416417	-0.4309118711418321	0.28811742999766793	68.66020738915859
3	2.0	ltm	311	diff_vonmises	-0.11012283195502998	-6.309573499051614	4.457670128812133	0.30270874375524864	2.5235725351145406e-21	1.7279612620821534	-0.02820513793393259	-0.2749804225218372	0.2467752845879046	64.7606695022271
4	2.0	perception	311	diff_vonmises	-0.05821554218582096	-3.3355048693133402	10.225150841881675	1.2114364049062922	0.10621063465102462	2.54960058688448	1.0753673393806082	-0.4190592777690692	1.4944266171496774	41.94661202292437
5	2.0	wm	311	diff_vonmises	0.015328411910698038	0.8782533091210597	2.745796944412029	0.6350587507855491	0.028820040043601353	2.0895705805528704	0.05309436864094175	-0.3221548782338183	0.37524924687476	80.81744692361517
6	3.0	ltm	311	diff_vonmises	-0.19419523242179124	-11.126567219330726	2.175646669401928	0.3491593061855828	1.7742390557109747e-15	0.7875934631994922	0.06413812093649118	-0.12290684810537944	0.18704496904187062	93.13194336626648
7	3.0	perception	311	diff_vonmises	-0.08056375821472866	-4.6159633274163685	2.5823053329650634	3.7320955802671802	0.9238354470451495	3.757191327116542	1.0120207882206265	-0.31877029285820385	1.3307910810788304	71.37155336864564
8	3.0	wm	311	diff_vonmises	-0.12956003364232402	-7.423243121278125	1.395262976422233	126.46467509763127	1.377205425476283	126.75826092873608	0.2878407133806036	-0.16422141073222996	0.45206212411283353	76.83563996513001
9	4.0	ltm	311	diff_vonmises	-0.02008811973440574	-1.150964479134909	3.7662267522094526	0.6546253973120671	0.46572037391279925	2.1075703827749623	-0.019585279808592537	-0.33236887593784453	0.312783596129252	58.47315035057383
10	4.0	perception	311	diff_vonmises	-0.1385434865564681	-7.9379570587130805	3.788493544692511	1.7911811822206785	9.783862108395606e-16	2.609456102215634	0.9214684952132072	-0.41462326881765293	1.33609176403086	70.3954605842373
11	4.0	wm	311	diff_vonmises	-0.3574465772625614	-20.480180278541663	0.7851871522532575	146.40000056057409	0.7711889575539659	147.8065279426915	-0.02801080586630178	-0.3020045551756816	0.2739937493093798	89.51612951990752
12	5.0	ltm	311	diff_vonmises	-0.009287580906779095	-0.5321391878447282	1.8440459791424018	0.5843900178448622	0.053020557184892535	1.6355704189347513	0.012691231817280046	-0.23951285339100448	0.2522040852082845	95.89495595869766
13	5.0	perception	311	diff_vonmises	-0.06907477196105373	-3.9576929041969757	3.2374833499190907	1.8270485748458523	2.07493674961478e-14	2.6715704644119125	0.8242168018502702	-0.42326761281717307	1.2474844146674433	76.30493457556307
14	5.0	wm	311	diff_vonmises	-0.3035470331594782	-17.39196388375575	1.4667801999790606	0.9008453939371207	1.5874255052404683e-16	2.0664289469328048	0.0560550956394249	-0.308399506493472	0.3644546021328969	111.17658742922391
15	6.0	ltm	311	diff_vonmises	-0.2617036628798547	-14.994515366130182	0.19083875243399667	42.65081970317849	0.1633172087023407	43.75862044317292	-0.004460642700033546	-0.3177259900292899	0.31326534732925637	156.8375925076135
16	6.0	perception	311	diff_vonmises	0.2802721334355476	16.058410360984322	0.00030298171193807806	7281.973664406176	9.514616032178426e-30	7282.661977353457	0.24162232680032503	-0.46066594766534763	0.7022882744656727	177.46247671479694
17	6.0	wm	311	diff_vonmises	0.034600147388296566	1.9824424158799911	0.17284383697450614	99.31573973818385	0.1607491084416248	100.43821382868884	-0.002781587133828367	-0.325182221727891	0.32240063459406265	159.3677187910887
18	7.0	ltm	311	diff_vonmises	-0.37568813709018345	-21.525344668399796	0.5041134422276455	58.89137988638668	0.48367263925018394	59.45618750868259	0.08712506468462955	-0.18880549583354256	0.2759305605181721	121.39981618983806
19	7.0	perception	311	diff_vonmises	-0.10892948722709563	-6.2411998826367885	0.6432136209086896	175.33378234503874	0.6287619939185387	176.18187795138448	0.2512466174389516	-0.3176534013031844	0.568900018742136	109.95675840769601
20	7.0	wm	311	diff_vonmises	0.21310214602958083	12.209853572675534	1.2012780239475582	1.2541504142655084	0.2112659783530185	1.9063020082264783	0.10516586353219992	-0.1998474710647709	0.30501333459697083	106.77025100718117
0	1.0	ltm	312	diff_vonmises	-0.06739064510176924	-3.861199542995352	1.6479694882545193	0.6598852667048276	4.991533637070809e-32	4.00912471783039	-0.33542919003620136	-0.6268640588511453	0.2914348688149439	106.04098618558066
1	1.0	perception	312	diff_vonmises	-0.048724399666326836	-2.7917024601891645	7.300609869608031	1.0069724187213858	0.1037629085687254	4.377613865973062	0.29466084875728993	-0.711334260864603	1.0059951096218929	48.78415955637442
2	1.0	wm	312	diff_vonmises	-0.08075670150600268	-4.627018163691733	3.041155762764875	0.8244624802108181	0.1286020062293363	4.019726916241016	-0.18039890258802838	-0.611138431097598	0.43073952850956965	70.42780604620788
3	2.0	ltm	312	diff_vonmises	0.029297470988909276	1.678621438071472	2.034755694795084	0.5559924508727344	1.2948282997534826e-20	2.3311193915231825	-0.08118979016009864	-0.3660570799716824	0.28486728981158377	96.22643425411266
4	2.0	perception	312	diff_vonmises	0.01370988800134691	0.7855187200742254	5.656014430848784	1.6647940147777958	0.37514276313458056	3.3034152822562013	0.8022433775392195	-0.5399650603674172	1.3422084379066366	53.52368563069112
5	2.0	wm	312	diff_vonmises	0.28958740459054483	16.592136083185622	2.912582275854733	0.7598718787747043	0.0889050789504824	2.286481974449762	0.09235396190810546	-0.34253353351732196	0.43488749542542743	75.86593606128457
6	3.0	ltm	312	diff_vonmises	-0.14664469733745916	-8.40212224540975	1.4864083198316596	1.4467135687714348	0.3497348149670413	2.6941168057234726	0.03306015931320749	-0.28431936774855326	0.31737952706176076	88.51115904959221
7	3.0	perception	312	diff_vonmises	-0.06651677094426674	-3.8111302419449076	3.5006369683628047	2.2768436060062025	0.32824021019035887	3.3324546759260363	0.9095606867642634	-0.46729131918667965	1.376852005950943	67.65183893040367
8	3.0	wm	312	diff_vonmises	0.12975904500706628	7.4346456325529955	0.7617426577082185	162.33214263196027	0.7476152220226883	162.974909276887	0.24906965831390693	-0.2503998800828988	0.49946953839680575	101.72047398270871
9	4.0	ltm	312	diff_vonmises	-0.38240776162318346	-21.910350794053265	0.7017964258225123	92.3639283027982	0.6710754099976669	94.8684656642567	-0.15840703415263846	-0.496953881800291	0.3385468476476525	91.43115054164898
10	4.0	perception	312	diff_vonmises	-0.046229848969706236	-2.6487752334913846	1.9554396402377516	3.23528251255457	0.3038467506506883	4.8694512494822195	0.620038882776345	-0.5641991680207613	1.1842380507971062	85.9842486776603
11	4.0	wm	312	diff_vonmises	-0.2902260622147398	-16.628728469605843	0.6785790035993741	219.84866978887095	0.6656247753092102	222.4252674492807	-0.1742794367436673	-0.5068883057045426	0.33260886896087527	91.89400027930716
12	5.0	ltm	312	diff_vonmises	-0.2675810792612177	-15.331266519223336	0.7015637726601414	168.9439782147769	0.6867991188139552	170.14496861271078	0.13656960121279127	-0.3289891571737247	0.46555875838651595	101.53039916570778
13	5.0	perception	312	diff_vonmises	-0.10315365256696667	-5.91026893344602	1.6154235737872704	5.481450589131641	0.6180882269930688	6.642128635035085	0.6970156149047526	-0.49585036856023407	1.1928659834649866	85.53257802686173
14	5.0	wm	312	diff_vonmises	-0.09563137235700905	-5.479274025100667	0.3570889688884115	180.0639608223935	0.3458385614726833	181.0003548762427	0.16299365109411923	-0.3604735725462156	0.5234672236403348	138.18469257293032
15	6.0	ltm	312	diff_vonmises	-0.4661344675942134	-26.70753767872607	0.6121151496577774	167.4706909439389	0.6011252272119689	168.5462899880085	0.06270380500588857	-0.27655371217255365	0.3392575171784422	106.93989167072647
16	6.0	perception	312	diff_vonmises	0.0969435693886319	5.55445737690225	0.1660922450530204	232.11423021409522	0.15612716892094283	233.17491602920123	0.19903423152026534	-0.47985508951950706	0.6788893210397724	160.7739633427135
17	6.0	wm	312	diff_vonmises	0.20250494753677223	11.602678824375205	0.3510998550905746	3.5402590082499295	2.7538011718761383e-21	4.753589922715397	0.019779097871113982	-0.37188067047273443	0.3916597683438484	159.2553165339935
18	7.0	ltm	312	diff_vonmises	-0.6307141564192875	-36.137259241979216	0.7335692342530928	1.5822156421861828	5.270435868077762e-32	3.0633433980912255	-0.027184704533913917	-0.3813936233312791	0.35420891879736516	135.81237890484744
19	7.0	perception	312	diff_vonmises	-0.09214673478559382	-5.279618999125857	0.6394718500573725	300.8384705192743	0.6254918188391294	302.701032606755	0.29467927168293784	-0.5666764661240897	0.8613557378070276	107.82199968846838
20	7.0	wm	312	diff_vonmises	0.1838717744731895	10.535076648895064	0.8159583952062041	75.52339173883314	0.7779054751548908	77.2360991036048	0.035958516654936545	-0.3935631825191468	0.42952169917408334	90.88598771735383
0	1.0	ltm	313	diff_vonmises	-0.33087462638956516	-18.957719640090016	0.0004992008742517423	1281.016799079846	5.7970350876209154e-27	1283.3598369353415	-0.2711162325850296	-0.4746704769291057	0.2035542443440761	176.86463649131062
1	1.0	perception	313	diff_vonmises	-0.038512955584200335	-2.206629811549475	9.688018837548157	0.9544469248291965	0.04530806616543107	3.5676237602853393	0.5752014508492143	-0.5744954193188426	1.1496968701680568	43.19288195297952
2	1.0	wm	313	diff_vonmises	-0.015322849436957983	-0.8779346028521022	4.983215157103403	0.37359483673944194	0.022370923416595745	2.663438079598611	-0.11006117567995582	-0.42165375549289913	0.3115925798129433	59.88579299188038
3	2.0	ltm	313	diff_vonmises	-0.10330313928392755	-5.918833891421146	4.291350882605341	0.27748747484462044	9.433482709696548e-22	1.329841597080571	0.010007708462440063	-0.21160934266153245	0.2216170511239725	66.0323487200888
4	2.0	perception	313	diff_vonmises	-0.005728078320499046	-0.3281947124849802	7.558888526165403	1.546115233005127	0.4064588530590317	2.5232888387931767	1.086824455970722	-0.43683894690964575	1.5236634028803677	47.23646215528902
5	2.0	wm	313	diff_vonmises	0.08230896471103415	4.715956294033486	2.539273085230285	0.7997017858766646	0.20991961324471084	1.9820197917999292	0.0907514704963	-0.27669054130342435	0.36744201179972436	76.74169894686935
6	3.0	ltm	313	diff_vonmises	-0.1823858258474019	-10.44993806406417	1.2690358175904533	71.21043473390023	1.2515097853954125	71.69137322480476	0.04146335287402181	-0.12816103219600805	0.16962438507002986	73.5242453385849
7	3.0	perception	313	diff_vonmises	-0.03768299222211208	-2.15907641375133	4.405564825451403	2.100574878664129	0.6952730245061246	2.2270630294867533	1.0702016281857392	-0.3126132444387143	1.3828148726244534	59.32461083271883
8	3.0	wm	313	diff_vonmises	0.03464036834548197	1.984746906974691	1.3013484872793526	129.36859681717544	1.2858355037200817	129.73695401996892	0.21974206982523725	-0.15851427021646813	0.3782563400417054	78.3016113117499
9	4.0	ltm	313	diff_vonmises	-0.4026210846439232	-23.068488893076278	12.095074523428757	0.2086093137977857	6.536738738569513e-35	1.7429956399807633	0.008913771749113286	-0.2774063718816227	0.286320143630736	38.98816529925085
10	4.0	perception	313	diff_vonmises	-0.055467601022365726	-3.1780594382970864	3.59589544423991	1.802444718837013	0.04275687424708521	2.591671213823977	0.8766838787644422	-0.397747237107364	1.2744311158718062	71.2917448989053
11	4.0	wm	313	diff_vonmises	-0.12215034939493997	-6.99869948637845	0.6903518227683538	180.86291218338417	0.6779858199442745	182.57177164908626	-0.05313323272925885	-0.3602983127673447	0.30716508003808585	94.90474484094845
12	5.0	ltm	313	diff_vonmises	0.006439932705882405	0.3689809643953259	1.1607241157632857	6.083764655481786	0.8249052549105023	6.9928744254854855	0.10569516132618961	-0.23974386193035102	0.34543902325654063	84.43363007224039
13	5.0	perception	313	diff_vonmises	-0.09713888600621953	-5.565648194758793	1.8207046314695172	3.7311541181445156	0.5207113693482209	4.403560721279144	0.7145870820444635	-0.3907505473132528	1.1053376293577164	85.28167703804965
14	5.0	wm	313	diff_vonmises	0.1265041405339572	7.248153343525592	0.47671452108278034	10.552326778144767	0.3165956187789192	11.417587939602583	0.1251954274084217	-0.30563800413084496	0.4308334315392667	132.70075735501217
15	6.0	ltm	313	diff_vonmises	-0.4854499239832419	-27.814231809186403	0.5791413435897181	115.97263209570089	0.5665704282771348	116.56335367359102	0.12200979512822485	-0.20328433043512106	0.3252941255633459	114.29887430129935
16	6.0	perception	313	diff_vonmises	0.17067606649836445	9.779018274250467	0.12853127029770609	209.52289921040472	0.11802661440886718	210.0044100761339	0.28452597321199136	-0.3953366768532227	0.6798626500652141	165.00781267841415
17	6.0	wm	313	diff_vonmises	0.10230791455568417	5.861811714825746	0.34843006751398664	4.268367635597941	4.323560416554073e-12	5.011334913005209	0.13636398088887058	-0.3323370565495346	0.4687010374384052	160.05461217184262
18	7.0	ltm	313	diff_vonmises	-0.40068797931811806	-22.957730116553382	2.07057931593807	0.36640790854712885	5.800528561823147e-28	1.24393134017051	-0.0049555127648987785	-0.19490791158689463	0.18995239882199585	95.21747929811495
19	7.0	perception	313	diff_vonmises	-0.06313705255985949	-3.6174866425755994	1.823039380658524	1.4254327343080977	0.04174652324284949	2.460297600315828	0.2870722224145874	-0.3572548538084542	0.6443270762230415	98.96065603020067
20	7.0	wm	313	diff_vonmises	0.18935043434300858	10.84898073682339	0.5620073652006364	96.50088725045744	0.5469468446995491	97.47825991879041	0.02394021449845596	-0.2403783604576617	0.26431857495611766	110.45549777383002
0	1.0	ltm	314	diff_vonmises	-0.18408418434726667	-10.547246838206592	0.7826369509663291	1.2088124575795993	5.2045160411985926e-33	3.413452880504574	-0.1802357809312422	-0.4673793140026271	0.2871435330713849	137.82647772925972
1	1.0	perception	314	diff_vonmises	-0.14519138511822435	-8.318853588932804	13.070218973704565	0.6813585466708402	0.14800663306039685	2.9367633627342755	0.43377189168987773	-0.5028273659249409	0.9365992576148187	36.70995107367381
2	1.0	wm	314	diff_vonmises	-0.10268444130690019	-5.883385108544196	2.206718213997346	1.074153134278749	0.23783069456432385	2.830866212136507	0.024390704361100912	-0.3822019700384873	0.40659267439958824	79.09880395202717
3	2.0	ltm	314	diff_vonmises	-0.01616077886629162	-0.9259444226827251	2.9618421410938818	0.4931324709084948	6.297162757154037e-33	1.873816536286446	0.022402189847545773	-0.2973693721161181	0.31977156196366385	79.85242025201444
4	2.0	perception	314	diff_vonmises	0.016527973216279093	0.9469831091980571	5.6830019730360615	1.405894912579622	0.4417849363338446	2.682094227035705	0.6720214258771512	-0.4426625819700864	1.1146840078472375	52.96523302585382
5	2.0	wm	314	diff_vonmises	0.5117575911254705	29.32155010527109	3.717360743218642	0.5357261424934295	4.346994028264865e-12	1.3919612041438656	0.17410734432135777	-0.22130389277745818	0.395411237098816	71.06692223186494
6	3.0	ltm	314	diff_vonmises	-0.24778503479835118	-14.19703672044776	3.451481187876978	0.6322450132340398	0.23457644306553851	1.6715832905540455	0.11633324729351646	-0.24867487245971764	0.3650081197532341	66.90912396434467
7	3.0	perception	314	diff_vonmises	-0.09640797823137394	-5.523770264046841	4.2220933702201	1.7529812832351659	0.16076448644676733	2.94948188323523	0.8400564945687937	-0.4462194984278015	1.2862759929965952	63.952298306811315
8	3.0	wm	314	diff_vonmises	0.30851233056448935	17.67645446909015	0.6960927152852229	63.42145913514801	0.6682777895609681	63.53261897087813	0.30497018434211753	-0.17578058275519837	0.4807507670973159	111.64495165510726
9	4.0	ltm	314	diff_vonmises	-0.31591024144140817	-18.100323539551525	6.952533438938975	0.44058942875295	0.11150605362887912	2.0845163914984304	0.08474880310296001	-0.33896871912335597	0.423717522226316	49.68871377297384
10	4.0	perception	314	diff_vonmises	-0.08499661009431497	-4.8699470313232975	0.982922200217288	338.3003807575827	0.9661900400666014	340.07554382885365	0.47781988659242813	-0.5657235660919397	1.0435434526843679	87.9113072034296
11	4.0	wm	314	diff_vonmises	-0.5276862485327467	-30.234194948017816	1.0341641967471171	178.45491409794164	1.0209451638266853	179.91107651239295	-0.05821692800637379	-0.31639549820514645	0.25817857019877266	76.15591568013272
12	5.0	ltm	314	diff_vonmises	-0.3444156299174989	-19.733561992612376	1.5387351856904599	2.8233153025701676	0.6328105127866219	3.775684104045898	0.2158292515565643	-0.2842255649473764	0.5000548165039407	83.6524124517552
13	5.0	perception	314	diff_vonmises	-0.08139350062560397	-4.663504065642533	1.0098378935137946	126.09478864691123	0.9703466379903029	127.2742422572678	0.5463433209988366	-0.459537434653992	1.0058807556528286	89.11589283006558
14	5.0	wm	314	diff_vonmises	-0.18676578581455883	-10.700891284618521	0.4728396776911226	144.32495684714235	0.45977105715046296	144.73101159150357	0.2534098090952668	-0.25772949574958126	0.511139304844848	128.1357202254027
15	6.0	ltm	314	diff_vonmises	-0.40972002494271414	-23.47522821121234	0.7750326944717244	78.13910932359728	0.7422149848806113	79.45238615091853	0.10529191155207229	-0.33405588700098754	0.43934779855305983	95.84164363063827
16	6.0	perception	314	diff_vonmises	0.03357762163532843	1.9238560057914804	0.6542862396542392	175.09495983170544	0.6367683723709967	176.49015721300242	0.2025600620647552	-0.4121656397577329	0.6147257018224881	106.35543116375152
17	6.0	wm	314	diff_vonmises	0.4802687084947329	27.517370028947024	0.00013798962129908112	5900.51361744004	1.0164511552052626e-30	5901.744475372593	-0.06631176318580856	-0.3254735457760489	0.25916178259024036	173.03920013679618
18	7.0	ltm	314	diff_vonmises	-0.16061033952858397	-9.202294601151037	0.9523274151937944	182.47436012530756	0.9346780090961799	184.33704844320536	-0.001561525626925686	-0.41833029520141096	0.4167687695744853	82.05342417861632
19	7.0	perception	314	diff_vonmises	-0.34461067141399626	-19.74473704719159	0.6617995206017152	203.3305454001437	0.6405380553633806	205.2415025547327	0.299552979419893	-0.5737647979786082	0.8733177773985012	106.16168276775416
20	7.0	wm	314	diff_vonmises	0.5497399408631591	31.49777844123048	1.5276233518954567	70.7962426084015	1.4788622799250972	71.72023393522775	0.2066091926003608	-0.3000738427058707	0.5066830353062315	69.36207612516648
0	1.0	ltm	315	diff_vonmises	-0.3485952119910706	-19.97303440555657	0.0003712413242569999	2863.0659492706914	7.542692147838875e-27	2863.6868283302565	0.07036365001494005	-0.26796419249052406	0.3383278425054641	176.53323318051687
1	1.0	perception	315	diff_vonmises	-0.12127533771035029	-6.948565009826829	11.439469461853898	0.9173272743370458	0.17856243964337926	1.648475026891737	0.9124896263267805	-0.280591423337397	1.1930810496641775	39.525654625798296
2	1.0	wm	315	diff_vonmises	-0.05724289277247118	-3.2797761629825226	3.108404924872326	0.50406128727167	0.04898214902196892	0.8266270938947682	0.19877116086513785	-0.1253673039150558	0.32413846478019365	76.32732048643007
3	2.0	ltm	315	diff_vonmises	-0.06147597612133061	-3.5223139731992723	4.161556217047048	0.3640860798030108	0.2587429059689605	0.6030224651613139	0.16373102536979295	-0.09014524627946942	0.25387627164926235	63.15521544158196
4	2.0	perception	315	diff_vonmises	0.009040638769300039	0.5179904455832389	5.490942544889082	1.5329815523131642	0.6533522583244052	1.4707616131138312	0.9913725841108854	-0.226722080687752	1.2180946647986373	54.51130925591036
5	2.0	wm	315	diff_vonmises	0.6004529214473309	34.40341819523241	3.111703679470379	0.493841493299059	5.601578376756376e-24	0.41569827949435867	0.26404969206300977	-0.06550570048393921	0.329555392546949	77.78317670716072
6	3.0	ltm	315	diff_vonmises	-0.14759778960327388	-8.456730409727495	2.0517297301138195	77.52320001412836	2.0348304406211484	77.66219475036368	0.1296517796098442	-0.08380890294177767	0.21346068255162187	62.33183163466279
7	3.0	perception	315	diff_vonmises	-0.05943591120218013	-3.4054268633992524	5.018391779807039	1.4632859734502348	0.06276856182906727	1.3566349181435442	1.041518984168745	-0.20995903995716148	1.2514780241259067	60.392858422586556
8	3.0	wm	315	diff_vonmises	0.31930312792430615	18.294721615388564	0.8107080505923833	56.95189105683777	0.7964924703215495	56.39830789267341	0.3223211096917531	-0.033684756129507054	0.35600586582126015	114.53902687495295
9	4.0	ltm	315	diff_vonmises	-0.3085828277333554	-17.680493659333795	9.101598444783743	0.4270561450127506	0.5808091748198932	0.8350803297883843	0.2877422099104092	-0.1603059700405593	0.4480481799509685	42.34546838473781
10	4.0	perception	315	diff_vonmises	-0.08023852952879044	-4.597329096335523	2.843530252767923	1.9115600584227104	0.06831658622731529	2.4704989185097124	0.7935858036263103	-0.36476014820014346	1.1583459518264538	79.5952908716846
11	4.0	wm	315	diff_vonmises	-0.5638812506021986	-32.30801580606469	1.532387276286452	108.0072208097901	1.5134193303794023	108.39925608511714	0.18592146930392062	-0.15807008103677056	0.3439915503406912	71.14448158106175
12	5.0	ltm	315	diff_vonmises	-0.20637539814030934	-11.824439308771744	1.44717555688318	79.49253564746267	1.4308103950202131	79.55839391269623	0.2026937361522343	-0.0826760986449715	0.2853698347972058	77.31356100431117
13	5.0	perception	315	diff_vonmises	-0.10240318431714085	-5.8672702700724315	2.52212143540004	1.6907133988305842	8.984587551438892e-14	1.4425637919065324	0.7720103369984792	-0.22313440780634583	0.9951447448048251	86.6057846154975
14	5.0	wm	315	diff_vonmises	-0.01488652780894327	-0.8529352150565821	0.5682051229989015	25.20245888643776	0.5221010227732757	24.842159335217115	0.3089440793000282	-0.09406044887971587	0.4030045281797441	127.20151214916639
15	6.0	ltm	315	diff_vonmises	-0.4092708800874205	-23.449494106614	0.4380564684419055	51.10328946660193	0.4144501832013065	51.25904389544679	0.18656271071225383	-0.16053584624873007	0.3470985569609839	131.94640778093284
16	6.0	perception	315	diff_vonmises	0.09515297079112028	5.45186363446279	0.4902059328151064	131.2330465018424	0.47677066650366173	131.23141959307796	0.32904442451034654	-0.20157210394680192	0.5306165284571485	129.05350154861299
17	6.0	wm	315	diff_vonmises	0.30199212907995066	17.30287444245115	0.00017176062314276893	4783.540724838704	8.844551545979828e-31	4783.577836825944	0.12486274195691749	-0.13666462483649866	0.26152736679341615	177.0924613875757
18	7.0	ltm	315	diff_vonmises	0.08626424122148516	4.942576944889561	1.2390032391803905	106.98506339018945	1.2158457412138404	107.75080968655651	0.16318169827263063	-0.2321427041242412	0.39532440239687183	77.11359464123893
19	7.0	perception	315	diff_vonmises	-0.2731835177672915	-15.65226260060294	2.0451770201808652	2.200814988723342	0.24265876801653624	2.5118533661393627	0.6485990223172674	-0.2970749727461291	0.9456739950633966	88.45840917964068
20	7.0	wm	315	diff_vonmises	-0.3183975398110193	-18.242835238520012	0.00019833820280475563	6915.871526325014	1.052438277967116e-33	6915.708263769031	0.24430280150113504	-0.1923130670700175	0.43661586857115253	177.1095408984309
0	1.0	ltm	316	diff_vonmises	-0.25722114512669153	-14.737686017281467	1.116964414496723	0.8018419000325612	1.045779787404543e-28	3.216108532220751	-0.22022632897534827	-0.4806229364052957	0.2603966074299474	123.44391781594082
1	1.0	perception	316	diff_vonmises	-0.05361780270813726	-3.072073801941381	9.29299598180143	0.7838672850400796	1.5598430064167508e-18	3.465793393272097	0.3881863126249572	-0.5515981423084766	0.9397844549334338	44.54289990952623
2	1.0	wm	316	diff_vonmises	-0.040046053892197404	-2.2944698741763547	3.2170338156175995	0.6949194813794842	0.10839363125291912	3.050063908554924	-0.06592015110978117	-0.46523753979739496	0.3993173886876138	70.32239955631576
3	2.0	ltm	316	diff_vonmises	0.15120681540164144	8.663512356127788	1.9592359218507687	0.42256352572079026	4.7934099254504487e-32	1.4027320117197435	-0.007963563503085608	-0.21897335883314195	0.21100979533005634	97.93205590380035
4	2.0	perception	316	diff_vonmises	0.03386417967289748	1.9402745719297383	5.776654054789426	1.7836108575900398	0.6030154275498023	2.6057204295661043	0.9761780457434006	-0.43079880563891876	1.4069768513823193	52.285914651509216
5	2.0	wm	316	diff_vonmises	0.20549901298754167	11.774226138290228	2.440338125183631	0.9304874669099655	0.332112780911634	1.8418573232718067	0.14306955805789134	-0.2390037023066871	0.38207326036457845	75.91952743593231
6	3.0	ltm	316	diff_vonmises	-0.20331177265718556	-11.648906498580024	1.3810791264106284	118.88000747242275	1.3669406546673666	119.52838764302382	0.03590680963213089	-0.17262786352151593	0.20853467315364682	69.42011752048688
7	3.0	perception	316	diff_vonmises	-0.028540822600397177	-1.6352686788343536	5.672647392350881	1.6298219025243106	0.3705917836966528	2.035706268106667	1.0573273936456125	-0.3221013425889403	1.3794287362345528	54.626718682310155
8	3.0	wm	316	diff_vonmises	0.21003711992521676	12.03424051279805	0.9544004864977501	106.60231186582892	0.9376766609880774	106.95530462735998	0.22220444294627129	-0.16137546853972395	0.38357991148599524	92.2180843071888
9	4.0	ltm	316	diff_vonmises	-0.5665775822678951	-32.46250423067658	0.7009158007785334	112.85266338255633	0.6806941360877958	114.42172159967177	-0.005956356682744968	-0.3482625517378235	0.34230619505507853	96.51062714073868
10	4.0	perception	316	diff_vonmises	0.014866695163744552	0.8517988881901152	2.543305990934693	2.5780712823658143	0.2892730579504178	3.5266138100453737	0.8006665453040295	-0.44778163064628523	1.2484481759503148	78.54706668977491
11	4.0	wm	316	diff_vonmises	-0.07304692817157778	-4.185280690626682	0.6596776422293092	187.03642178612762	0.6464473791277277	188.81614524769284	-0.017881002677562208	-0.3926618343911663	0.3747808317136041	98.99414985149592
12	5.0	ltm	316	diff_vonmises	-0.0930216639806043	-5.329748749372736	0.9928703989723239	124.41980977027941	0.9735763272897575	125.31383983332196	0.153717173998146	-0.2535316942392356	0.4072488682373816	85.91681733297756
13	5.0	perception	316	diff_vonmises	-0.0924934730168441	-5.299485636372329	1.0419555856249798	269.29954210646866	1.0243399105303432	270.024546247716	0.6435694357759587	-0.393637739123502	1.0372071748994607	89.14068300863164
14	5.0	wm	316	diff_vonmises	0.18383404666880193	10.532915004933361	0.7682470642146519	2.310721184958967	3.732428697579947e-15	2.9418708413731767	0.2193951469950287	-0.32027777188456197	0.5396729188795907	138.41920682428088
15	6.0	ltm	316	diff_vonmises	-0.5686297150008703	-32.58008277527671	0.710430723148741	176.8635683537572	0.6998546899801213	177.37697997191046	0.21050426639915543	-0.21142275443222225	0.4219270208313777	105.50393395929817
16	6.0	perception	316	diff_vonmises	-0.05369608864058776	-3.0765592554660404	0.6491911921402309	168.44605748648954	0.6313850238083434	169.02333237854683	0.41293223742525953	-0.3414315778981365	0.754363815323396	112.60072903795026
17	6.0	wm	316	diff_vonmises	0.1353112503429274	7.752763565287854	0.4178618113219224	4.463097688409575	6.458646710511857e-13	5.114155349502626	0.21923453910330526	-0.3659944649294788	0.5852290040327841	156.14943671747363
18	7.0	ltm	316	diff_vonmises	0.02629501394036122	1.5065933210203624	0.9897595248888923	81.463051125717	0.9646045651181137	82.9134460890723	-0.09753051408106828	-0.3010265362732589	0.20349602219219065	75.91060273138481
19	7.0	perception	316	diff_vonmises	-0.060998953958796856	-3.494982616551885	2.001810252193787	1.646689446017041	2.6822651516295012e-17	3.0659115422276186	0.3619492606251733	-0.472442377311903	0.8343916379370763	96.97704280228913
20	7.0	wm	316	diff_vonmises	0.0025567862982824787	0.14649306400846282	0.3527312457935171	73.79464707423955	0.33231383992602953	75.2209449233617	-0.035242807544239696	-0.35169407538152697	0.3164512678372873	134.65910803495063
0	1.0	ltm	317	diff_vonmises	-0.11909772980593335	-6.82379726746941	2.0921434659821134	0.5438288594671675	2.3062196839019454e-28	2.894548565189176	-0.1724045071195202	-0.4562902800834057	0.2838857729638855	94.93571277686785
1	1.0	perception	317	diff_vonmises	-0.08689298119901995	-4.978601092013455	12.378149583604136	0.6879606403592992	0.02855118252960524	3.218053332995578	0.42858341469627426	-0.5176364678888747	0.946219882585149	38.310240537844436
2	1.0	wm	317	diff_vonmises	-0.0852703359388697	-4.885630366959938	3.2531181655647003	0.6260468112676301	0.07043251588707723	2.790671944925004	-0.046693030392704116	-0.4287748662330167	0.3820818358403126	71.66300904833889
3	2.0	ltm	317	diff_vonmises	0.024663644892841854	1.4131227597692257	2.9829053538485844	0.4261348506700099	1.0785003973524255e-24	1.5979363576340413	0.023851114244526905	-0.2536058617814257	0.2774569760259526	79.57050973192787
4	2.0	perception	317	diff_vonmises	0.014883155286966508	0.8527419837809985	6.202896351214518	1.5163278022036482	0.4633840176605436	2.5767981334227716	0.8553443578949912	-0.43250641846129173	1.287850776356283	51.16797151910643
5	2.0	wm	317	diff_vonmises	0.18929518483342533	10.845815173104103	2.879522818305158	0.7665404753465233	0.23630686029158837	1.769005503837004	0.13874377298964563	-0.25058672686659034	0.38933049985623597	72.72762063303142
6	3.0	ltm	317	diff_vonmises	-0.2204953457773152	-12.6334527153179	1.3135999027340417	107.7692274448739	1.292871299701511	108.59643617351168	0.0781024129994492	-0.22480716872674833	0.30290958172619753	72.43779530359478
7	3.0	perception	317	diff_vonmises	-0.044066940549744194	-2.52484970955425	4.61106832913138	1.957306542908854	0.3849323463470359	2.635583689785215	1.0308359364767572	-0.39629643538754844	1.4271323718643056	59.68318788041552
8	3.0	wm	317	diff_vonmises	0.12497408396548364	7.160487559735787	1.4615460536391507	2.3386694924151645	0.5910320406480277	2.7997442707715505	0.25846394568500075	-0.19410045295663686	0.4525643986416376	89.01430818558316
9	4.0	ltm	317	diff_vonmises	-0.3514750949275105	-20.13803954330632	3.027827015122755	0.5140251626253723	1.1657452030148865e-18	2.0938090325886125	0.0051969075150797295	-0.3324465549354315	0.33764346245051124	78.93484199553555
10	4.0	perception	317	diff_vonmises	-0.041414519169745034	-2.3728771589900326	2.1486233653922993	3.295541323484438	0.3826890286553034	4.60760794357551	0.738160113339746	-0.5218810524022292	1.260041165741975	81.6152560996014
11	4.0	wm	317	diff_vonmises	-0.1798663734312797	-10.30558407393633	0.7128784033467855	201.0854677105246	0.701731716752399	202.69339143577818	-0.030731776046515336	-0.3461885216134455	0.31545674556693015	94.21114303014781
12	5.0	ltm	317	diff_vonmises	-0.09508509229115143	-5.447974482894896	0.9555522196681179	137.70125303220956	0.9372940418035531	138.673542888571	0.15686115707681836	-0.27227104430508575	0.4291322013819041	87.43405541689538
13	5.0	perception	317	diff_vonmises	-0.0660733852164003	-3.7857261110418245	0.9785774094112758	299.1124129213579	0.9623101864430095	300.0941170510366	0.5942119379986934	-0.43670944060774985	1.0309213786064433	90.909971716272
14	5.0	wm	317	diff_vonmises	0.034214930509025965	1.960371114500585	0.9284370545604776	1.8498813803475445	1.577308045758044e-20	2.6056355567808236	0.19231076049888923	-0.319908966372134	0.5122197268710232	131.60465322281408
15	6.0	ltm	317	diff_vonmises	-0.4862582269440645	-27.860544157409468	0.7131090411539577	180.50065433818153	0.7004805423446189	181.46989031554452	0.15869943644764817	-0.2864097144246873	0.4451091508723355	101.8780413568171
16	6.0	perception	317	diff_vonmises	-0.017992440726227237	-1.0308909167521185	0.674715186522838	223.05985115624185	0.6601162684629106	224.02253051384793	0.3530017671978669	-0.3863175577848246	0.7393193249826915	108.07743607760266
17	6.0	wm	317	diff_vonmises	0.12594226348262172	7.215960159878813	0.37171160763702243	4.208088275641116	6.858046472849925e-14	5.204540387136543	0.11023191677321853	-0.3820561141123579	0.49228803088557643	158.67429766425641
18	7.0	ltm	317	diff_vonmises	-0.09326258531442297	-5.343552524995208	1.0413216200306472	135.43628250598547	1.0222905096518868	137.0022658151809	-0.055555878805293446	-0.3424845278929034	0.28692864908760995	76.30252825627093
19	7.0	perception	317	diff_vonmises	-0.09450047256016085	-5.414478239689062	0.9996849450161877	3.6771171384551584	0.1861331784594589	5.277439040053297	0.2532033342872122	-0.521150185490594	0.7743535197778062	116.02250988715275
20	7.0	wm	317	diff_vonmises	0.34254095749946084	19.626151175089213	0.8130110421120097	111.4422452045169	0.7930763593719351	112.79838409889803	0.014235591262348635	-0.3062958400223028	0.32053143128465145	89.95590918774565
0	1.0	ltm	318	diff_vonmises	-0.2700027678867025	-15.470019056758453	0.00029339144078229917	2419.989740995	2.7436589292470524e-31	2422.3406149983425	-0.261148043712808	-0.4871418182371485	0.22599377452434055	177.90971374389443
1	1.0	perception	318	diff_vonmises	-0.06936129703801058	-3.9741095818312644	9.611132367466988	0.9546639673450051	0.13339806789165706	3.4947491698800466	0.5318111517191232	-0.5824994823147284	1.1143106340338516	42.73260589923913
2	1.0	wm	318	diff_vonmises	-0.025722361706679783	-1.4737827649016768	3.673039873340897	0.48922745801815387	0.04128683796346614	2.613521521843157	-0.0744051138404368	-0.4079930117568985	0.3335878979164617	68.7513440585497
3	2.0	ltm	318	diff_vonmises	-0.08243841621994749	-4.723373319145821	4.059925906898428	0.31720579803831583	1.6107606682565607e-22	1.532910292424571	0.0018901421113718675	-0.24389708207780142	0.2457872241891733	67.94203774590372
4	2.0	perception	318	diff_vonmises	-0.01244579088766881	-0.7130912905658012	7.617723378234756	1.3999615484892094	0.35710008080813715	2.563095439077495	0.9494794582357328	-0.44121584132871733	1.3906952995644501	47.12933782742462
5	2.0	wm	318	diff_vonmises	0.25182530670917025	14.428527249022949	3.2955768777219774	0.5267286866711003	0.032219709643813724	1.6426408381092366	0.09385996681768638	-0.25459674143570793	0.3484567082533943	73.86246478464852
6	3.0	ltm	318	diff_vonmises	-0.2087947439013916	-11.963057610064624	1.544808662167574	1.6793230824411312	0.7998657797120029	2.2601767372108856	0.05427309651567147	-0.15041464210450606	0.20468773862017753	77.33079456216964
7	3.0	perception	318	diff_vonmises	-0.06227915544036873	-3.5683327583723483	4.202404582305226	1.9779345224660096	0.5009154650609537	2.334061827441479	0.9856785082606281	-0.332577136153592	1.3182556444142202	61.60635923996497
8	3.0	wm	318	diff_vonmises	0.05883987488100502	3.3712764977594145	1.2219040541140622	156.55041665389197	1.2098650511235902	156.81345278676469	0.24708868322365163	-0.1437150713421218	0.39080375456577343	82.14974536046162
9	4.0	ltm	318	diff_vonmises	-0.32183942024555157	-18.440040461007367	8.414761214704338	0.2778519410036137	0.0759658289506275	1.8035519952897803	0.0071519321536567815	-0.2935346216827514	0.3006865538364082	45.54916881341228
10	4.0	perception	318	diff_vonmises	-0.0780951314594829	-4.474521433147711	3.1483451164544554	1.895174113054697	0.1324627571465668	2.9453697382931883	0.7427826310367965	-0.42738947319990933	1.170172104236706	74.02709303570958
11	4.0	wm	318	diff_vonmises	-0.2956562451140231	-16.939855031718892	0.7933093641682689	160.01498176949977	0.7804416748619711	161.5565086387259	-0.06910101103365918	-0.31784190030410997	0.2487408892704508	86.97836608728396
12	5.0	ltm	318	diff_vonmises	-0.12167660516400057	-6.971555941376951	0.920180639571408	128.5353632419821	0.9032773041179939	129.54495256679715	0.08711125912353168	-0.25567621198305623	0.3427874711065879	87.19847484649571
13	5.0	perception	318	diff_vonmises	-0.09309111325696072	-5.3337278997981965	2.122825048207324	2.7691535696404137	0.3557741476017425	3.6829633824115615	0.6700083836186426	-0.41722458455194966	1.0872329681705923	83.13153906730668
14	5.0	wm	318	diff_vonmises	-0.05784940687970909	-3.3145268615423995	0.9780120774493015	1.6678256393251942	0.06649600613418369	2.4405508041395594	0.1482877582668805	-0.2834198336597469	0.4317075919266274	124.9938160178729
15	6.0	ltm	318	diff_vonmises	-0.4273853124760683	-24.4873746307586	0.5877195466907499	128.81157956264224	0.5742284653014526	129.73372875450005	0.08786674642520609	-0.25870144630025216	0.34656819272545825	110.88803981675638
16	6.0	perception	318	diff_vonmises	0.22426260180543792	12.849300586074548	0.15768049594468525	172.2323572697531	0.14482712578246348	173.05556254535503	0.2261511992598777	-0.43661878101390883	0.6627699802737865	161.16857644237325
17	6.0	wm	318	diff_vonmises	0.18801736688328885	10.772601597575225	0.14902752360195937	7.68971121421874	9.461553681729216e-14	8.694010158445069	0.02898430593032031	-0.33511644048146794	0.36410074641178825	170.45455052132684
18	7.0	ltm	318	diff_vonmises	-0.31704009662456367	-18.165059473007314	0.6967906014380888	36.72968390603823	0.652746195218618	37.806464719902415	0.011219964064714816	-0.24624848975233649	0.2574684538170513	98.64547127284142
19	7.0	perception	318	diff_vonmises	-0.1584163257720731	-9.07658687270932	0.6530193160656504	99.10768084651022	0.6213069922295159	100.34930307106073	0.26204721966817957	-0.41013732865681085	0.6721845483249904	108.52638342927831
20	7.0	wm	318	diff_vonmises	0.2430134345508156	13.923644164740391	0.6920737427122761	50.73770525274614	0.6544568531639888	51.765298460075634	0.07978010538383273	-0.2664628131380322	0.34624291852186495	101.96413539879114
0	1.0	ltm	319	diff_vonmises	1.495706228381142	85.69765427766987	31.08467843376352	0.16233191850989526	0.42605478055337637	1.9895819227962304	-0.10414067336721128	-0.43228892359240795	0.32814825022519667	23.12575578368407
1	1.0	perception	319	diff_vonmises	-0.12161534817740953	-6.9680461745795945	22.31161309872465	0.5585378342595388	0.1317780733065619	2.737409379107049	0.5516047622279401	-0.4750665913851869	1.0266713536131271	28.32799432420032
2	1.0	wm	319	diff_vonmises	0.0055601013365899525	0.31857034025165226	5.544455993206777	0.26249590372212755	0.12167030092915514	1.702697769543459	-0.0644874995115163	-0.27520358142980444	0.21071608191828814	54.12430815026519
3	2.0	ltm	319	diff_vonmises	-0.1569618339110765	-8.993250627738087	135.33659238387918	0.5793564059616085	5.737455297079615e-48	1.2312417060663565	2.4903786618067043	-0.1959582036613591	2.6863368654680633	11.610948177398228
4	2.0	perception	319	diff_vonmises	-0.01654694328167919	-0.9480700138825696	9.17539902751594	1.4571159869601475	0.6445981437674853	2.901100629907678	0.9405845020589793	-0.5700463508072628	1.510630852866242	41.86921841895972
5	2.0	wm	319	diff_vonmises	0.027613036631657185	1.5821104585340955	8.508046341551992	0.21134845569234043	8.807177639676698e-39	1.4359654199229523	0.013513283314975783	-0.2285409848243792	0.242054268139355	46.586109619012205
6	3.0	ltm	319	diff_vonmises	-0.15978251841420824	-9.154863945105491	2.3064178478750788	64.28377471457871	2.2646887517009078	64.81002262581869	0.09801349313399044	-0.20879957968337237	0.3068130728173628	54.93384149473272
7	3.0	perception	319	diff_vonmises	-0.02326835888757597	-1.3331787604538223	2.543510404359864	282.9422567938294	2.5088291506031624	283.46076837133705	1.0446713736151594	-0.5390561689964812	1.5837275426116406	56.8443113149163
8	3.0	wm	319	diff_vonmises	0.1850397870291881	10.601998838772072	2.0767337913559367	194.77799051742855	2.0592469027444653	195.34791340509287	0.22311577614537725	-0.24700631409257667	0.4701220902379539	59.787486143825305
9	4.0	ltm	319	diff_vonmises	-0.5100568008440685	-29.224102000309887	17.80754722924725	0.27084852058578784	0.4141099097422228	1.7722296246227507	0.04359056489266783	-0.36441834183988253	0.40800890673255036	30.40836899225249
10	4.0	perception	319	diff_vonmises	-0.12170220703619367	-6.973022820601249	2.452885797708616	3.2737609257910143	0.7082691626592243	4.6183595519894	0.5864774959951704	-0.4889789074482376	1.075456403443408	71.19774062492951
11	4.0	wm	319	diff_vonmises	0.041051640843928476	2.352085762443971	0.8337192749550513	65.13527464218878	0.8151991197376186	66.60026770971898	-0.1866888437011851	-0.2710929078095905	0.0844040641084054	3.2961056938980624
12	5.0	ltm	319	diff_vonmises	-0.0023681412715328897	-0.13568450014957886	1.6383858751854044	180.53110462635962	1.6145306270484354	181.7693022249059	0.17222407582156052	-0.38564589340797184	0.5578699692295324	65.2425294184956
13	5.0	perception	319	diff_vonmises	-0.10858876099273386	-6.221677707438474	1.0650358393162391	217.05085430884216	1.0420403421952853	218.49436971610686	0.4346281973978705	-0.4743821855913133	0.9090103829891838	84.80481314792837
14	5.0	wm	319	diff_vonmises	0.06367297469213062	3.648192718902387	6.0285676399690304	0.46659289339321797	4.21202795081547e-35	1.4073124748941033	0.22267076887390339	-0.22397814434576238	0.44664891321966577	55.498381103501714
15	6.0	ltm	319	diff_vonmises	-0.3409772921059559	-19.536559747470715	1.0392841752013715	114.33162137986788	1.017521033046449	115.38170827489483	0.10714640058894531	-0.2733142628195857	0.380460663408531	82.30093096405118
16	6.0	perception	319	diff_vonmises	0.2064641999127715	11.829527275547107	1.084853370287077	1.6520394391655988	3.5531614077083085e-32	2.9846499100424295	0.1159051986081635	-0.4075307141875516	0.5234359127957151	124.79561020547825
17	6.0	wm	319	diff_vonmises	0.267291164143504	15.3146556065613	1.0303611624791011	0.9509724989241845	1.1779621148013866e-29	2.199091692266272	-0.01958966788067429	-0.30791377411989757	0.2883241062392233	126.73860810012857
18	7.0	ltm	319	diff_vonmises	0.035016507464578954	2.006298091008717	1.6294543733557907	194.67799284116157	1.6134064992000867	195.98257711660457	-0.05826675465274889	-0.3451325989779761	0.2868658443252272	60.373815273756264
19	7.0	perception	319	diff_vonmises	-0.5099326812657164	-29.216990472315373	0.7051500294023657	156.09861637436748	0.6913134790129348	157.43272476558917	0.03421662391724567	-0.3124692014053796	0.34668582532262526	97.71516829945456
20	7.0	wm	319	diff_vonmises	0.7787119221808015	44.616906597479726	12.394422584775961	0.2275277157001893	0.11824354928793789	1.2187939631647517	0.09856532832152337	-0.2053032875553351	0.3038686158768585	37.67609422073426
0	1.0	ltm	320	diff_vonmises	0.07923964250270951	4.540097085530711	2.358969934572086	0.33678348119533663	7.724886976005758e-48	3.7889493976016144	-0.41124370050734627	-0.6013164299339372	0.19007272942659093	89.54134377549553
1	1.0	perception	320	diff_vonmises	-0.05868915643627875	-3.3626409669818234	8.51286739983589	1.0655078210623354	0.19681541062173463	4.507679274805838	0.3556650384299592	-0.7667144335822099	1.1223794720121691	44.5468916798518
2	1.0	wm	320	diff_vonmises	-0.06384081576743943	-3.657809304146519	4.108299469524737	0.46458314354448915	0.03411744951200814	3.5988017086831277	-0.23006255009863735	-0.5667745005614905	0.3367119504628531	64.87955888247001
3	2.0	ltm	320	diff_vonmises	-0.15394284301295197	-8.820275190887141	1.7365632183007678	0.6388374395563299	1.868800775314257e-34	2.662681454981718	-0.12129894433986593	-0.4143958575185828	0.2930969131787169	103.54474111652789
4	2.0	perception	320	diff_vonmises	-0.03476976004124673	-1.992160505046053	8.544274115574835	1.282922782507871	0.22818816007122078	3.3279155979458905	0.816037961114988	-0.5661144966680042	1.3821524577829922	44.91617634116773
5	2.0	wm	320	diff_vonmises	0.16749946327124945	9.59701231614914	3.4782291792300706	0.57911315074487	0.02181607075271367	2.476842830738497	0.009361921782085558	-0.38765333182324985	0.3970152536053354	72.03802004265702
6	3.0	ltm	320	diff_vonmises	-0.25377258971377603	-14.540098346704415	2.357623672817165	0.5755730192636712	1.2091108696548942e-13	1.6837807262939184	0.059675654809085266	-0.2650465369335333	0.32472219174261857	89.52532044673843
7	3.0	perception	320	diff_vonmises	-0.09041387110644056	-5.180333223838863	2.770638165095409	3.4323313538113807	0.6844902866662105	4.361505541785971	0.9194942096198324	-0.48658767691665317	1.4060818865364855	69.97430685693698
8	3.0	wm	320	diff_vonmises	-0.03885549024449606	-2.2262556019213675	1.1724158338519948	206.53665716596686	1.1585394588795161	207.25569640950505	0.2649435305925181	-0.25311386047776097	0.518057391070279	81.12142323295004
9	4.0	ltm	320	diff_vonmises	-0.10729058657260537	-6.147297792093268	3.090577343714611	0.6352231567643579	0.23132212115790857	3.044017614425489	-0.17933724505308946	-0.46502878368061196	0.2856915386275225	65.61374015329744
10	4.0	perception	320	diff_vonmises	-0.13288661176797326	-7.613842008098366	2.519268909388876	2.549852688449861	0.27615375722984103	4.232537627786895	0.6383052035626778	-0.5521978414765724	1.1905030450392502	77.89013916760257
11	4.0	wm	320	diff_vonmises	-0.34094214771571474	-19.534546122236335	0.6700419659659664	158.710485041895	0.6564073416157058	161.00048831657338	-0.22099963126063216	-0.42753902257490495	0.2065393913142728	87.9277208121558
12	5.0	ltm	320	diff_vonmises	-0.16860359256343682	-9.660274264628242	1.1478587852613942	2.2111379972863454	0.28164369249703164	3.7827388041467374	0.034635919652550085	-0.36863091703958817	0.40326683669213825	100.61098544922876
13	5.0	perception	320	diff_vonmises	-0.08640256571028977	-4.95050235430137	2.3191210858273577	2.789621007158648	0.2929593702080329	4.409232567232763	0.6519723761791278	-0.5520225965915215	1.2039949727706494	80.42290151545149
14	5.0	wm	320	diff_vonmises	-0.26157580602331176	-14.987189707868461	0.505692470567257	148.44799843482582	0.4909298209817022	149.81662431086946	0.07411444732046135	-0.3731605962336193	0.44727504355408065	118.31864657114386
15	6.0	ltm	320	diff_vonmises	-0.33749977897017586	-19.337312921589213	0.6140079847438852	133.15233058478435	0.5982500298279931	134.74925821257392	-0.026192682303303627	-0.3514602824346085	0.32526760013130485	102.53806875229097
16	6.0	perception	320	diff_vonmises	0.24378119358181383	13.967633516899644	0.012025945408753607	177.10514935378893	1.148902611781883e-13	178.56894429911074	0.10702201475756112	-0.57092420055438	0.6779462153119411	177.389956593315
17	6.0	wm	320	diff_vonmises	0.15286066196885784	8.758270784391486	0.6372510993898547	1.5475259532070198	7.677271714619013e-18	3.218124036098486	-0.0902985866630982	-0.3942334821659641	0.3039348955028659	144.80850134909383
18	7.0	ltm	320	diff_vonmises	-0.5034326299270881	-28.844564963993612	0.6975620566359982	70.55780548807367	0.66807305379643	71.78957598220087	0.053226097113430626	-0.2990779132860224	0.352304010399453	99.76447884819537
19	7.0	perception	320	diff_vonmises	-0.16906266924207838	-9.686577420787287	0.4984029215665425	258.59771710812555	0.48693708669181485	260.30918662480735	0.13541488283837566	-0.49443344295276503	0.6298483257911407	119.9672876062198
20	7.0	wm	320	diff_vonmises	0.2695556301317553	15.444399950539022	0.8156939225067679	57.13213000235392	0.772801635187031	58.57106896068404	0.03849305659320379	-0.33381837222765753	0.3723114288208613	91.33976058760061
0	1.0	ltm	321	diff_vonmises	-0.250593454316058	-14.357947305914527	0.0005647746150385571	1752.7957168423873	4.0131553289593634e-23	1754.00100655647	-0.0342556777108598	-0.3493554665123497	0.3150997888014899	178.18001412060138
1	1.0	perception	321	diff_vonmises	-0.052894662137640026	-3.0306408992572065	9.93308851200131	0.9824637041286917	2.8601014645543817e-18	2.390558847725618	0.8385009059239337	-0.38046925449534097	1.2189701604192746	43.06706754430934
2	1.0	wm	321	diff_vonmises	-0.020349222121056738	-1.1659245439108041	4.108546556083679	0.41319122518453066	6.936184293291567e-15	1.5069053694137118	0.08251783308592278	-0.23974440140454814	0.3222622344904709	67.5261334591965
3	2.0	ltm	321	diff_vonmises	-0.03529896548183028	-2.022481743286851	2.5222476562965674	0.5642759595930587	0.4513293525266461	1.0335313352090114	0.0886490173316824	-0.12961622252962096	0.21826523986130336	72.75979677216773
4	2.0	perception	321	diff_vonmises	0.010193911627785433	0.5840681130014402	6.201395876539539	1.6587575082746695	0.5860754221747628	1.6578877948550454	1.1756441483354056	-0.2691896428379381	1.4448337911733438	51.821297490639836
5	2.0	wm	321	diff_vonmises	0.1220181266404921	6.991123680592992	1.7180387393070533	1.5323559187315352	0.6349197980602979	1.958737412301615	0.18771060637022752	-0.15712363986413885	0.34483424623436637	82.47594540381385
6	3.0	ltm	321	diff_vonmises	-0.16404836284467464	-9.399278827030605	1.7395051475756484	66.65221039381893	1.7228780297041548	66.89036187136368	0.07195985620690593	-0.08792595427479988	0.1598858104817058	65.11618134353171
7	3.0	perception	321	diff_vonmises	-0.022254485767186086	-1.2750881096937228	5.278525841992843	1.674334206740014	0.43408331844550674	1.373639363121901	1.17215641800304	-0.2059622368267912	1.3781186548298312	56.973887081692936
8	3.0	wm	321	diff_vonmises	0.07687896123842679	4.404840012311704	1.1796081703264094	76.75138621149878	1.160895351893468	76.78455161838531	0.2540918150927318	-0.09695258274612417	0.351044397838856	86.58886108300231
9	4.0	ltm	321	diff_vonmises	-0.36428611829790675	-20.87205711367349	12.663151853145024	0.26901000826965216	1.8283653226362566e-36	0.9743215003571484	0.22290723765517656	-0.15506808293876398	0.37797532059394057	38.093240926535174
10	4.0	perception	321	diff_vonmises	-0.03824863173427806	-2.1914851705242793	3.344994470040141	2.006238020581273	2.190182439972131e-18	2.2624036965562127	1.03724743099152	-0.35833538336767484	1.3955828143591948	75.041455229137
11	4.0	wm	321	diff_vonmises	-0.21926919435549497	-12.563199413803634	0.8586223391918235	170.96901523662137	0.8456408001133746	171.79477437533234	0.1655254864800355	-0.24606290396059016	0.4115883904406257	93.15427022469511
12	5.0	ltm	321	diff_vonmises	0.025347953518703347	1.452330755915486	1.27306297123535	80.17737171824187	1.2531033646307632	80.49555654103345	0.168937144644147	-0.12980202309551636	0.29873916773966336	78.93738395838756
13	5.0	perception	321	diff_vonmises	-0.08236582319736303	-4.719214045329633	1.717918058907122	3.2906682295236744	0.4830187931757063	3.1212108144924953	0.7876315484129828	-0.2519168631747347	1.0395484115877176	91.0187393054629
14	5.0	wm	321	diff_vonmises	0.259774248756219	14.883968079912925	0.3796143081546903	132.32383371733715	0.3680138109735082	132.53033317288632	0.23402976710258372	-0.21421383939114946	0.4482436064937332	137.7088318532255
15	6.0	ltm	321	diff_vonmises	-0.5240294091829388	-30.02467348691646	0.5125981971091395	92.5485953707396	0.49922123940275553	92.5834713937218	0.22299990030452577	-0.1420724238938682	0.36507232419839397	125.27781993446587
16	6.0	perception	321	diff_vonmises	0.03191908365608975	1.8288287794189482	0.45241504908214475	143.88822671136566	0.4377230914250235	143.70465679232674	0.4345625295915667	-0.23190278125315444	0.6664653108447212	133.36588576170425
17	6.0	wm	321	diff_vonmises	0.09861677672340266	5.6503250954349475	0.0007704584407388797	2073.5843030312026	1.0237940975403252e-29	2073.586503279351	0.2539616566050995	-0.25456407333336983	0.5085257299384693	179.57169715189178
18	7.0	ltm	321	diff_vonmises	0.08614152761428939	4.935545973108417	1.1553153215826286	74.99221662684867	1.1329862999281035	75.69749611590349	0.05313460668699577	-0.1808601203608049	0.23399472704780067	77.05688108806311
19	7.0	perception	321	diff_vonmises	-0.0843667741570986	-4.833860090335134	2.407994613295237	1.4404413806383418	9.017749095921135e-18	1.9334660526111684	0.5226609620788605	-0.3009951112928409	0.8236560733717013	88.63018883873815
20	7.0	wm	321	diff_vonmises	0.011467705065598596	0.6570511009595944	0.3312863368664513	66.89138789718207	0.3145098683003518	67.47221250097934	0.07851922027448843	-0.2119510027914231	0.2904702230659115	141.23536236800845
0	1.0	ltm	322	diff_vonmises	-0.36999521390324625	-21.199164196696128	0.9690310066967333	1.0714455517725052	5.2592403685160365e-15	3.153228487223897	-0.14201497600251467	-0.45004099604783604	0.30802602004532137	128.77725703486132
1	1.0	perception	322	diff_vonmises	-0.0958651509662112	-5.492668552748388	9.540616523722832	0.7956951204340281	1.6738954829295768e-18	3.084052463767268	0.47579614348994703	-0.490842189366451	0.9666383328563981	43.96593201141502
2	1.0	wm	322	diff_vonmises	-0.1097792600953509	-6.289888281532542	3.245847641461799	0.77486279789326	0.18831238270402648	2.7626028213656926	0.0045185190783436635	-0.4156624769848316	0.42018099606317527	68.18083957698468
3	2.0	ltm	322	diff_vonmises	0.058801472183054634	3.369076185244942	1.8862957671179144	0.7354607917271607	0.18658332142516398	1.7901201800817848	0.025803102972105307	-0.23602005717262672	0.26182316014473206	86.93986621085901
4	2.0	perception	322	diff_vonmises	0.05419194670616698	3.104969829861251	4.406891573839302	2.1736255663639175	0.6957746584304929	3.009444737098734	0.9074750520310143	-0.4441685451236089	1.3516435971546232	57.96606335373306
5	2.0	wm	322	diff_vonmises	0.4024609822316707	23.059315700564348	3.158664095404768	0.5825225548488737	0.009084679390038295	1.441708338660619	0.16130830843080066	-0.2266662264923206	0.3879745349231213	76.78799392626635
6	3.0	ltm	322	diff_vonmises	-0.13885313200341812	-7.955698435968759	1.222386124734169	138.94932106250607	1.205886221726236	139.921429620686	0.052984075549787235	-0.24731093119067182	0.30029500674045906	74.05428248917065
7	3.0	perception	322	diff_vonmises	-0.034939436677058254	-2.0018822601600315	5.017802823803309	1.6971669932727547	0.16612332227959303	2.516279457978508	1.004859385888978	-0.3885155756788419	1.39337496156782	59.09912407035603
8	3.0	wm	322	diff_vonmises	0.43457224950388995	24.899155790079078	0.4757467602957529	90.4755650290614	0.4557141029661248	90.79153942746169	0.2614786903920354	-0.24083767606173723	0.5023163664537726	127.63554761616052
9	4.0	ltm	322	diff_vonmises	-0.58721035279256	-33.6446749014018	0.9620220012812802	186.13906235049578	0.9443760881765547	187.92216822907642	0.03310346977424672	-0.4119317977692276	0.44503526754347433	82.59935833355438
10	4.0	perception	322	diff_vonmises	0.013099590940154185	0.750551274218645	1.3324843313460295	7.952626408099763	0.652646033734708	9.231343001303657	0.6640567572626654	-0.5234782490971472	1.1875350063598127	89.98686176929581
11	4.0	wm	322	diff_vonmises	-0.3429586239211339	-19.65008169829541	0.8607801375693902	218.22596851889284	0.84665304723327	220.19300116931885	-0.02660791294057674	-0.4287778318824209	0.4021699189418442	85.68942908358389
12	5.0	ltm	322	diff_vonmises	-0.23104696338029052	-13.23801587100433	0.9802725201806691	153.7497648981819	0.9658278323960543	154.30431116083943	0.2351414657587796	-0.2085948733629568	0.4437363391217364	89.6092205313391
13	5.0	perception	322	diff_vonmises	-0.11934767134634942	-6.8381178628602495	1.1002643393942675	123.30312204768317	1.0627302860218921	123.68160075257546	0.7345339868290424	-0.3483565235511552	1.0828905103801976	88.72068258310424
14	5.0	wm	322	diff_vonmises	0.09054831009548239	5.188036010512965	0.3680326400990733	77.0999451078408	0.34460463992134494	77.34338962400042	0.2749354107001629	-0.2559331959945723	0.5308686066947352	140.11622525944313
15	6.0	ltm	322	diff_vonmises	-0.5442110080389502	-31.18099392519196	0.7007026224464943	105.82475926085296	0.6877755365457159	106.12608264462934	0.17563304934608226	-0.1503241196247087	0.32595716897079097	107.53337225170459
16	6.0	perception	322	diff_vonmises	-0.10147548266392833	-5.814116880696045	0.5420288898834608	119.69276145379916	0.5235174854087133	120.08034855427817	0.31875299324280704	-0.27689130482836255	0.5956442980711696	122.4407303489926
17	6.0	wm	322	diff_vonmises	0.2642720551181836	15.141673401520585	0.00029505977308681296	4272.454499403749	1.0433860157453173e-30	4272.865695035714	0.13520577665633482	-0.2660638121099055	0.4012695887662403	177.72498047978257
18	7.0	ltm	322	diff_vonmises	-0.278783781153698	-15.973134056805677	3.051590840872038	0.41047472334308627	5.69581875607428e-15	1.8067725062875468	-0.01609123955168218	-0.2869498478479598	0.2708586082962776	78.63165293369542
19	7.0	perception	322	diff_vonmises	-0.140702060337855	-8.061634226154146	2.2756513062688173	1.9195958524397976	0.03319548379104771	3.2523393744999276	0.5351625578132693	-0.4892938043796049	1.0244563621928742	89.57362830190272
20	7.0	wm	322	diff_vonmises	0.2127137344662402	12.18759922938204	0.8778988339127983	71.69556187206616	0.8461892100143911	72.92228126504108	0.05034172965425299	-0.2907171964391768	0.3410589260934298	88.11797375480117
0	1.0	ltm	323	diff_vonmises	-0.24606126392793692	-14.098271924725431	0.00020490767152880532	4878.1621335424525	7.530080951219829e-32	4880.127578286903	-0.15371537240173438	-0.47188882153147915	0.31817344912974477	178.2628220685558
1	1.0	perception	323	diff_vonmises	-0.10888604509363747	-6.238710831736592	8.578444886296287	1.1352972976490272	0.30554705147346517	3.16666278502221	0.6375801778009414	-0.5559676911977199	1.1935478689986614	44.25752106726645
2	1.0	wm	323	diff_vonmises	-0.03390229060353755	-1.94245816740873	2.2548521909985504	0.8902348823495199	0.19193417600996848	2.448690945227281	0.02570451781442018	-0.3386656503941749	0.3643701682085951	80.1236474470476
3	2.0	ltm	323	diff_vonmises	-0.07722335751056662	-4.424572465185355	3.1108886798846522	0.40229889464385743	1.9511688331332855e-25	1.7129036274852472	-0.0036596174679438542	-0.27208291585376376	0.2684232983858199	77.8833185971767
4	2.0	perception	323	diff_vonmises	-0.02398315301735562	-1.3741334473109226	6.9047269826879765	1.2651835838337255	0.2607948747973173	2.453149905434881	0.8019934582412543	-0.40599840587232044	1.2079918641135747	49.810859138601955
5	2.0	wm	323	diff_vonmises	0.565248995570092	32.38638182017524	4.204239701015256	0.5229742704929511	2.3985904323072707e-18	1.3608085926675961	0.19652030634893602	-0.21648728822785185	0.4130075945767879	66.72501182106802
6	3.0	ltm	323	diff_vonmises	-0.20985319548797374	-12.023702418794706	2.610619660312272	0.44912951739119983	1.4641194994347535e-16	1.1121788700253188	0.09448658402621044	-0.175542517680515	0.27002910170672545	85.10523217352197
7	3.0	perception	323	diff_vonmises	-0.11442102607853874	-6.555841881856598	3.08953039249004	2.1444555482592977	0.3009062625097677	2.732538251867306	0.853580978387971	-0.36557037805643394	1.219151356444405	72.44944718431657
8	3.0	wm	323	diff_vonmises	0.13028576147387275	7.464824263101049	0.8524779827819587	98.85674697052933	0.838304134433098	98.71110874127756	0.3126653306865208	-0.10396043497123486	0.41662576565775566	104.05632030800797
9	4.0	ltm	323	diff_vonmises	-0.21868089380838304	-12.529492275368884	5.700502219758543	0.6079311674059528	0.4737158132891231	1.9769579871623997	0.08691361699957939	-0.34461954793952676	0.43153316493910615	50.45324879882759
10	4.0	perception	323	diff_vonmises	-0.13683425818931202	-7.840025487051001	2.1819532947514113	2.513524277178156	0.28919266291099954	3.7781348763592515	0.5800162531443862	-0.4604189164080566	1.0404351695524428	82.88555158499733
11	4.0	wm	323	diff_vonmises	-0.6586519448146032	-37.73797660596037	1.312967104072542	123.60550516217637	1.291061391848596	124.80071453746885	0.018887363322541262	-0.2989483705586906	0.3178357338812319	70.08475618050855
12	5.0	ltm	323	diff_vonmises	-0.44534196736165427	-25.516215169875647	0.8653465546719303	152.885543573423	0.8522056826990513	153.66659222252386	0.1382915512728431	-0.22526968473493802	0.3635612360077811	92.32788181680785
13	5.0	perception	323	diff_vonmises	-0.10852667040311656	-6.218120178705924	3.2456314823766568	1.657003998768278	2.3327462802103295e-14	2.4292171418610815	0.7480836514595136	-0.38490090385500497	1.1329845553145186	76.2075004293846
14	5.0	wm	323	diff_vonmises	-0.3355974113723066	-19.228315287148863	0.45175117604411225	134.01382338372713	0.43981589845847535	134.3458104285219	0.21797715192736078	-0.22140576580192572	0.4393829177292865	129.7460575529849
15	6.0	ltm	323	diff_vonmises	-0.328735188299734	-18.83513886701316	1.2236851980717547	0.9380824606015514	2.5660873256020574e-20	1.980929877076817	0.04448219473070436	-0.2841480039842846	0.32863019871498894	119.2379372156579
16	6.0	perception	323	diff_vonmises	0.30352293350081994	17.390583075026928	0.07278782540053544	231.64113812863872	0.06482421684612918	232.51349951419786	0.1553410578907659	-0.4131426842150745	0.5684837421058404	169.4753749610009
17	6.0	wm	323	diff_vonmises	-0.4599658928441889	-26.354104379938697	0.871638831044983	77.5151690662449	0.8537908522414394	78.48836144554123	-0.041612917486837375	-0.20331118289296946	0.16169826540613208	83.09363805979068
18	7.0	ltm	323	diff_vonmises	-0.31020851543907224	-17.773638703677676	0.5376950038745465	67.03889453345286	0.5076806637801402	68.08514051952513	0.11768007227914623	-0.3164925593200225	0.43417263159916875	117.53872397729634
19	7.0	perception	323	diff_vonmises	-0.3068933962790877	-17.583696367227606	0.6962113205777333	221.3975527022623	0.6786895709838773	222.57636996619198	0.4082690039464012	-0.45478392590500505	0.8630529298514062	106.25161145717239
20	7.0	wm	323	diff_vonmises	0.2875711695790659	16.476614326521368	1.1168593385711112	31.11994470664973	1.0364539738028815	31.482439472890956	0.34330249286084147	-0.2027403526854057	0.5460428455462472	87.46319202094438
0	1.0	ltm	324	diff_vonmises	0.018848857422237183	1.0799599789380268	5.377147657254029	0.3579434287547724	7.576061366258905e-17	3.753482572185465	-0.2747705882125326	-0.5973784161499689	0.3226078279374363	58.83089312878482
1	1.0	perception	324	diff_vonmises	-0.0638271633542429	-3.6570270784901893	10.410117394405685	0.7616343083463873	0.06304647096477702	4.1647150524837455	0.262582420212649	-0.6782111120244093	0.9407935322370583	41.38671586857765
2	1.0	wm	324	diff_vonmises	-0.11530796539274513	-6.606659761244852	3.582958488968541	0.6364041240524803	0.08079566752479034	3.8731679789131888	-0.20669984101439987	-0.6026737347140904	0.3959738936996905	67.0840792235685
3	2.0	ltm	324	diff_vonmises	-0.00010731491592686668	-0.00614869176141072	2.2048228989297436	0.5825588251787069	8.0241150537763805e-19	2.385373956588416	-0.06095838130744963	-0.3757690026952337	0.3148106213877841	92.5668765260047
4	2.0	perception	324	diff_vonmises	0.003564286461338209	0.20421857121029843	6.453389864757534	1.5024528852464125	0.34935291906032684	3.24666343243407	0.7797250521634558	-0.5454598297307458	1.3251848818942016	50.49786929999652
5	2.0	wm	324	diff_vonmises	0.12478185462537512	7.149473629848985	2.869071551488133	0.8916761748118505	0.200286834588418	2.563444113494774	0.07578697615669028	-0.37190853129464035	0.44769550745133063	72.5098187479654
6	3.0	ltm	324	diff_vonmises	-0.21663657424078345	-12.412361392169418	1.315892793165707	3.4303951750199637	0.6515663999242236	4.7991986904491615	0.05193172357123177	-0.3223814997358759	0.37431322330710765	83.06471719851307
7	3.0	perception	324	diff_vonmises	-0.05476969646640255	-3.1380724527374446	3.5848001168606234	2.60903161578045	0.4668547827929861	3.7964650375289266	0.9753533618481254	-0.5250368307407227	1.500390192588848	65.20208105167131
8	3.0	wm	324	diff_vonmises	0.03719835011764335	2.131308466590933	1.7385605706320213	1.955429033763437	0.4184287867825833	2.93769165657041	0.2461534054026019	-0.29826304258881287	0.5444164479914148	85.73605224747581
9	4.0	ltm	324	diff_vonmises	-0.2640941265264558	-15.131478844159878	0.5732928406645883	138.59920566448463	0.5551246065417113	141.1058797355122	-0.16964830541267872	-0.49592627348022056	0.32627796806754183	100.89741851363995
10	4.0	perception	324	diff_vonmises	-0.06510320236602893	-3.730138728359573	1.8031024735710397	4.452404310086072	0.4586932901413709	6.287725794647639	0.6538852697074362	-0.6210487946872246	1.2749340643946607	84.46591047803545
11	4.0	wm	324	diff_vonmises	-0.14632253542332344	-8.383663727409917	0.5752028076284382	180.6658512343021	0.5615319552096945	183.18743856356784	-0.18540687742559214	-0.49194751110725576	0.3065406336816636	99.60301318211704
12	5.0	ltm	324	diff_vonmises	-0.11278399518238674	-6.462046920574569	0.7444606530306128	78.30474337358439	0.7090471531362594	79.71659471547751	0.12484479477969046	-0.3667919097770369	0.49163670455672737	98.32111066400957
13	5.0	perception	324	diff_vonmises	-0.07782305119947658	-4.458932382560527	0.9989396149396497	348.1294519236203	0.9822606360583797	349.5904045120584	0.6049021084892559	-0.5425355746387197	1.1474376831279756	88.7081896384691
14	5.0	wm	324	diff_vonmises	-0.06529966897864911	-3.741395436077941	0.4065645033892137	158.31609457414763	0.39255930463342487	159.58266526541422	0.11940763296682633	-0.4030776377567591	0.5224852707235854	131.37236988001519
15	6.0	ltm	324	diff_vonmises	-0.4435387459658462	-25.412898194368154	0.7006785874048046	213.5980118130069	0.6895107964005064	214.98591656321375	0.06238307523734221	-0.3369920984788308	0.39937517371617304	98.90653711786081
16	6.0	perception	324	diff_vonmises	0.02923158217448321	1.6748462870877376	0.41128044482911086	187.8193821994317	0.39559862984402905	189.2001586501549	0.2267407476439871	-0.5025845123265391	0.7293252599705262	132.11934153039368
17	6.0	wm	324	diff_vonmises	0.12676676732027792	7.263200749968854	0.6201086627598469	2.441519098028403	6.425701934375944e-16	3.9333518801596767	0.03164454293828067	-0.4357357221394078	0.4673802650776885	145.76538201673827
18	7.0	ltm	324	diff_vonmises	-0.5606939114903535	-32.12539472707899	3.453476511010013	0.4349497847303286	1.2474063772948738e-15	2.1026918387476816	-0.02626369047704763	-0.33434515721353025	0.3080814667364826	73.78324141009989
19	7.0	perception	324	diff_vonmises	-0.0499897950090154	-2.8642042727407295	0.48937896472908765	276.8116080927194	0.476784960054474	278.8629222179003	0.15255546529967035	-0.5906232416065684	0.7431787069062388	120.96844073755625
20	7.0	wm	324	diff_vonmises	0.25997296313695833	14.895353575257843	0.8032702301843243	167.00398099886658	0.7875761759867926	168.86892991614815	-0.06132674902458746	-0.39232065975358665	0.3309939107289992	87.50207739171066
0	1.0	ltm	325	diff_vonmises	0.0015941297957870455	0.09133690929464951	4.7640675681893425	0.4849378837704026	9.797668242742822e-20	3.666240568526432	-0.17371534725040316	-0.5834704864959406	0.4097551392455374	62.5896261016228
1	1.0	perception	325	diff_vonmises	-0.10517814775069326	-6.026263963118116	9.970308465636279	0.7006089886066834	0.03177750837971854	3.819542317343009	0.24357002925275772	-0.6133352002063204	0.8569052294590781	42.57798609274559
2	1.0	wm	325	diff_vonmises	-0.1305341961039126	-7.479058518887226	2.445933827845134	1.2565503193767518	0.2399331491660301	4.205563681540152	-0.10768294015731927	-0.5964767283271273	0.488793788169808	73.93319910804232
3	2.0	ltm	325	diff_vonmises	0.06809155498634058	3.901358721200291	2.0569187525608417	0.6524598305615622	4.5242069908596603e-17	2.4458985107481253	-0.046932747647820294	-0.3836812138834894	0.3367484662356691	95.71933819548471
4	2.0	perception	325	diff_vonmises	0.044931072584117486	2.5743608280658936	4.644110025242552	1.825273707577148	0.48017660728843276	3.394621432350277	0.6962586347202534	-0.5305835942950335	1.226842229015287	57.35866661708326
5	2.0	wm	325	diff_vonmises	0.3826054392993216	21.921676890599933	3.212586230536769	0.6955012091423378	0.048816678251594775	2.0299676015399744	0.13450705675791452	-0.3113905481406265	0.445897604898541	74.17149864808508
6	3.0	ltm	325	diff_vonmises	-0.16102628351106685	-9.22612643586117	0.8982602590465438	113.62817683964609	0.8715999985543451	115.33635957445996	0.03532029134105841	-0.39303079548717434	0.42835108682823275	85.98709683754409
7	3.0	perception	325	diff_vonmises	-0.06699763645813074	-3.838681806402705	3.726827074952353	2.103821198599353	0.17921886989076422	3.747852122931291	0.8480896167976045	-0.5555055915218775	1.403595208319482	67.30710953671831
8	3.0	wm	325	diff_vonmises	0.3443503588974591	19.72982223863958	0.41082179466811874	112.57118610678059	0.3900587389755423	113.324949955663	0.25818581127052553	-0.36478651831559894	0.6229723295861245	133.01353158993385
9	4.0	ltm	325	diff_vonmises	-0.4225673006068199	-24.21132288500673	0.7236520141287338	174.484422551028	0.7039486702089711	177.14014121986477	-0.10207119301167467	-0.5516752415099049	0.4496040484982302	92.14815665424189
10	4.0	perception	325	diff_vonmises	-0.010542818237091847	-0.6040589891589178	0.8751171109887265	389.37840350746006	0.8594696663300416	391.4771436163029	0.5008342508482286	-0.6550920803997684	1.155926331247997	92.94896753468606
11	4.0	wm	325	diff_vonmises	-0.35454038426913936	-20.313667685568088	0.7384631025031035	223.37283375435308	0.7243416974746091	226.0450140028412	-0.17090253219217288	-0.531050784394477	0.36014825220230406	88.35594057882433
12	5.0	ltm	325	diff_vonmises	-0.3095260668306055	-17.73453727867796	0.795254494168396	130.77896421904026	0.7726463298708892	131.88016412041304	0.236004623018772	-0.34037898372821296	0.576383606746985	97.53115396429371
13	5.0	perception	325	diff_vonmises	-0.10108276615605935	-5.791615882250037	1.02855183556694	264.7109700137992	1.0075598614836816	265.8883809205338	0.6454640321567808	-0.4934097791848586	1.1388738113416395	88.39713340159952
14	5.0	wm	325	diff_vonmises	-0.0804058712340777	-4.606917069785005	0.3503687449859971	179.72960626061038	0.3385337973343529	180.42529031991978	0.2341677082843745	-0.34917031690833866	0.5833380251927132	140.07473829659767
15	6.0	ltm	325	diff_vonmises	-0.48252192359495255	-27.646469744524758	0.7216872342194073	177.69986175422807	0.7094461777627958	178.78909729171596	0.1029377463649297	-0.2867927947587283	0.389730541123658	99.32478802000023
16	6.0	perception	325	diff_vonmises	-0.0775723924947806	-4.444570696683231	0.5185328993649619	230.60267120880633	0.506043855095805	231.82337014638875	0.23668936180551725	-0.43129125063754614	0.6679806124430634	120.56415670254042
17	6.0	wm	325	diff_vonmises	0.30891270573538515	17.69939427660431	0.0004892196963480627	2507.6889802156143	1.2255195764651286e-31	2508.8645656591166	0.008173963188767175	-0.38232667373131335	0.3905006369200805	176.94935176714915
18	7.0	ltm	325	diff_vonmises	-0.5186397055658929	-29.715866216833334	1.992636306220756	0.7224319088403302	6.093349368425564e-32	2.7538774582807406	-0.06644039951814468	-0.43138110325802115	0.36494070373987647	96.77315016500164
19	7.0	perception	325	diff_vonmises	-0.13136905362562018	-7.526892331375822	0.6145473695206255	282.5250028131099	0.5974425759906593	284.8366549139985	0.30237453561188943	-0.6818500804448533	0.9842246160567427	109.54911411490309
20	7.0	wm	325	diff_vonmises	0.2801120507952286	16.049238301320734	1.0475747710601395	148.15499330639955	1.0238873946890152	150.0926667560587	-0.009183398276512378	-0.4405660901041557	0.4313826918276433	77.95702412621432
0	1.0	ltm	326	diff_vonmises	-0.16045650457652091	-9.193480507656227	2.2531749601749413	0.4851388990240511	1.8995513030130436e-17	2.721208680148331	-0.1642432471168559	-0.43012598134260394	0.26588273422574804	91.56749364594803
1	1.0	perception	326	diff_vonmises	-0.06368957914325057	-3.6491440838726916	13.263237335001858	0.6898194537701356	4.1106604658383205e-17	3.1706649988394893	0.487577340857958	-0.5046270074507675	0.9922043483087255	37.219822182492976
2	1.0	wm	326	diff_vonmises	-0.08853118348059032	-5.072463168736139	4.082955241588684	0.45318593012747244	0.010517388480096422	2.6003286616395074	-0.06586372546708391	-0.41095056946530856	0.34508684399822465	66.92965268420161
3	2.0	ltm	326	diff_vonmises	-0.004195855029251149	-0.24040478462483142	3.584499444882809	0.3728294396448345	2.4126284779145524e-29	1.401924458232876	0.04674286386300472	-0.22291537220235086	0.26965823606535555	72.42659165653839
4	2.0	perception	326	diff_vonmises	0.009304061113246987	0.5330834341208426	6.645376799845507	1.5238549683357563	0.4675684172775002	2.448067103867394	0.9457553072166743	-0.416756339676672	1.3625116468933465	49.7576835114273
5	2.0	wm	326	diff_vonmises	0.033480653475794736	1.9183001395030486	2.7558631959523625	0.9880858788448253	0.4046740655656156	2.0226148274447384	0.15305289128227723	-0.27050046754874063	0.42355335883101786	70.59621967629062
6	3.0	ltm	326	diff_vonmises	-0.22277701035703562	-12.76418246600037	1.458873871378911	123.87201357782253	1.4415936335257422	124.56825304139952	0.08385846066519065	-0.20220765961430232	0.28606612027949296	69.00358808691345
7	3.0	perception	326	diff_vonmises	-0.027774273237563256	-1.5913486355555275	4.519835972674014	2.2159370891935746	0.5937424591375036	2.641467659227991	1.1218450306125367	-0.3860557997844442	1.507900830396981	58.92660305013922
8	3.0	wm	326	diff_vonmises	0.05110873835285249	2.9283150038568504	2.342263364085441	1.2091023246074482	0.4573136517548708	1.7832922872985857	0.25986759427110295	-0.20539386466161935	0.4652614589327223	76.84425516263272
9	4.0	ltm	326	diff_vonmises	-0.4244422193576378	-24.318747816358538	1.667277305407714	0.7132989033369029	4.2908681715353566e-18	2.1668294145781943	-0.015400696933201174	-0.33312216506086345	0.3177214681276623	105.03503069103492
10	4.0	perception	326	diff_vonmises	-0.04242010926585828	-2.430493227417476	2.5946740505499863	2.773408673207819	0.28020895809548463	3.860661852714735	0.8729751554345767	-0.4967658477547562	1.369741003189333	77.97881447328044
11	4.0	wm	326	diff_vonmises	-0.09192339876603997	-5.26682278779217	0.6863035299264661	193.19689396712405	0.6742949284119957	194.74790364321294	0.00801260940052373	-0.35076688511030696	0.3587794945108307	97.88381798409011
12	5.0	ltm	326	diff_vonmises	0.03373713851017785	1.9329956494814688	1.0080400895279278	116.27534540709061	0.9866070144123601	117.19725510837141	0.15886412907690328	-0.2615569725327518	0.42042110160965507	85.28351290414531
13	5.0	perception	326	diff_vonmises	-0.05521124793950774	-3.1633714885841564	0.961230508854982	351.1067581474794	0.947782509853374	351.9666687369251	0.611061877699143	-0.4190308816091779	1.030092759308321	92.1655515698028
14	5.0	wm	326	diff_vonmises	0.14298701184017354	8.192552303629075	0.8508655788621055	1.9481078252191053	1.3645808628742495e-10	2.8502312990349714	0.15681845026728913	-0.3423016376604547	0.4991200879277438	134.80966450047413
15	6.0	ltm	326	diff_vonmises	-0.5057510794918155	-28.977402339066433	0.7062153469977338	176.42165367738005	0.6939487500126956	177.23738909963257	0.18130046607314654	-0.2640755945445328	0.4453760606176793	103.55576198956213
16	6.0	perception	326	diff_vonmises	-0.027881043313607176	-1.597466110291135	0.6914339520713189	220.155724726409	0.6766126219874106	220.90372278138273	0.41191431267206724	-0.36432942043190053	0.7762437331039678	108.168371227812
17	6.0	wm	326	diff_vonmises	0.06971488705443807	3.994368797450521	0.36598573583289945	5.070799730952205	2.8457815498848886e-19	5.928897964204367	0.1820775647766304	-0.4022012430734261	0.5842788078500565	159.22840747510122
18	7.0	ltm	326	diff_vonmises	-0.03662230814999785	-2.0983036930224346	1.1565216495803674	137.17267354710313	1.1388971758786781	138.54929762302453	-0.056427399272358514	-0.3092452609273586	0.2528178616550001	71.9351693242827
19	7.0	perception	326	diff_vonmises	-0.010411282585706259	-0.5965225514790194	1.2706096906081825	1.9915673619808623	1.203685842644782e-16	3.386579571998595	0.2418967069500355	-0.4774762614377369	0.7193729683877724	118.12321875201765
20	7.0	wm	326	diff_vonmises	0.28719351202537236	16.45497614259349	0.6604221396138703	126.68989483131983	0.646905552273526	127.95287550165918	-0.021094590833776294	-0.27492869904280504	0.25383410820902874	98.44629446766731
0	1.0	ltm	327	diff_vonmises	-0.4487469293004614	-25.71130511837198	0.0013542894476510844	549.4883327238491	2.3080403458891527e-24	551.5937507129213	-0.21661136683387383	-0.45348379824176277	0.23687243140788894	174.2552834106789
1	1.0	perception	327	diff_vonmises	-0.10255218796625477	-5.875807550298708	10.564817491796724	0.8098938463403296	0.06303110778374264	3.1311465192074324	0.5069336373544944	-0.5090570923351726	1.0159907296896669	41.24972372075365
2	1.0	wm	327	diff_vonmises	-0.0611311426823757	-3.5025564725121736	3.09225381212722	0.6737497294260425	0.15447732302506245	2.5342148846000714	-0.019019614875536717	-0.3805580867820121	0.36153847190647537	70.39042450763975
3	2.0	ltm	327	diff_vonmises	-0.062216310664426525	-3.5647320179464144	3.29504998030036	0.3456922163507151	2.7990640770186763e-19	1.4384097715900752	0.009799798394748455	-0.2286019714317111	0.23840176982645955	75.62602648172313
4	2.0	perception	327	diff_vonmises	0.020035218941350186	1.147933486959931	6.025273104822644	1.649444388178997	0.5266656045489669	2.662251161240971	0.9084706571962016	-0.44610346466899786	1.3545741218651994	51.53558795571246
5	2.0	wm	327	diff_vonmises	0.43561671044472455	24.958998993855165	3.604168465685648	0.4887004709556667	5.294075283097339e-13	1.3891385846570838	0.13373381078182514	-0.22082556608647552	0.35455937686830064	72.20373943693568
6	3.0	ltm	327	diff_vonmises	-0.1602909170468587	-9.183993041066584	1.2641189154602095	90.91481766751666	1.245310646440775	91.60398106086805	0.04614981567034704	-0.17960052161080853	0.22575033728115557	73.15987273909096
7	3.0	perception	327	diff_vonmises	-0.05721616081943461	-3.2782445348953853	4.977247801248841	1.6508513502501425	0.3210388084319732	2.2185093136007232	0.9535074799156287	-0.34052740661929876	1.2940348865349274	58.18830611422743
8	3.0	wm	327	diff_vonmises	0.2763367293836276	15.832928318130623	0.9382121176497878	99.30260710800972	0.922502359678774	99.45454350523752	0.2469429146855262	-0.1295682158335234	0.3765111305190496	95.32041752069992
9	4.0	ltm	327	diff_vonmises	-0.4863623796147841	-27.866511665866717	1.139227535315053	50.50649938899386	1.0818108312040533	52.105374918296164	-0.02878132989326687	-0.3644468385973232	0.3356655087040563	74.50829280104287
10	4.0	perception	327	diff_vonmises	-0.037240885789759044	-2.133745581081915	2.5004336150799498	2.203462840398183	0.24714801109204	3.3629424231158542	0.6238157074558076	-0.43918447609639033	1.063000183552198	79.37863808166455
11	4.0	wm	327	diff_vonmises	-0.4471380961403196	-25.619125768355158	0.9583063479989371	185.37268080669222	0.944857272107404	187.0436351135202	-0.08012794387639133	-0.35280712469177544	0.2726791808153841	78.5997284555647
12	5.0	ltm	327	diff_vonmises	-0.22830416774852574	-13.080865257237292	1.0402460908720723	138.9703261769554	1.0234266091207584	139.75679903719154	0.16865290776434705	-0.23472716223128387	0.4033800699956309	84.52497177213044
13	5.0	perception	327	diff_vonmises	-0.1226029438731018	-7.024631239808048	1.9434365952520616	3.2668915633946587	0.4997408559072053	3.960395614544821	0.6793437701961681	-0.3778029585090438	1.0571467287052119	83.4820439284131
14	5.0	wm	327	diff_vonmises	0.007264453333460533	0.4162225164770306	0.8057093028484358	2.3436722823169993	0.12541259473104613	2.724778703696605	0.2245060404749884	-0.2384888960848282	0.4629949365598166	130.0143087887486
15	6.0	ltm	327	diff_vonmises	-0.4674717772187806	-26.784159876115993	0.6790697782959879	115.36045441144853	0.6657460234779933	115.95249030316401	0.1279414277070643	-0.19281225081783404	0.32075367852489833	105.62960626239177
16	6.0	perception	327	diff_vonmises	0.14864021528585863	8.516457001795645	0.21671028357002878	152.80920869519375	0.20376859113430495	153.47560888110428	0.21526426779628238	-0.3642560441412108	0.5795203119374932	155.01324909722422
17	6.0	wm	327	diff_vonmises	0.34274095402961735	19.63761013218444	0.00025917202521426053	3962.3057677853853	7.20600062175286e-31	3963.0181804446174	0.050062527413388125	-0.27680934214936315	0.32687186956275127	176.30971280076685
18	7.0	ltm	327	diff_vonmises	-0.3057093892089485	-17.515857759194983	2.5596025051975864	0.4483469720722456	3.891781585577746e-17	1.7097590757907293	-0.004226482827856093	-0.2705141248296445	0.2662876420017884	85.9305761812423
19	7.0	perception	327	diff_vonmises	-0.20842576057427756	-11.941916422710293	1.91385603016851	1.8075132137257994	0.07370192344236183	3.1309310736144838	0.37224988217744126	-0.4425138567293604	0.8147637389068016	95.0102325181107
20	7.0	wm	327	diff_vonmises	0.31940339033861564	18.30046622857229	0.9063815533291789	54.75791706102292	0.8648576917115148	55.80179177028788	0.10342477608189071	-0.26931699639680673	0.37274177247869744	88.94177933579246
0	1.0	ltm	328	diff_vonmises	-0.3092421960135616	-17.71827267893441	0.0003597409105690309	3018.140956063827	3.207929017578913e-32	3018.1411066241194	0.17279177163527493	-0.17280861594281305	0.345600387578088	177.2628686826278
1	1.0	perception	328	diff_vonmises	-0.08662182949412899	-4.963065243715426	12.961526584018698	0.939567873162008	1.6980102728340798e-14	0.9141853965676171	1.1904842393984474	-0.14549712475878676	1.3359813641572342	37.647981134305155
2	1.0	wm	328	diff_vonmises	0.021885832323798992	1.253965823284677	2.1755084410184686	6.806948339256635	2.107867331564977	6.434959217861065	0.26744886381977606	-0.0038270275578749374	0.271275891377651	78.35577910859192
3	2.0	ltm	328	diff_vonmises	-0.12754981442559166	-7.308066044263267	3.9167180019769825	15.10790343648697	3.8504721148339804	14.916469825823066	0.2509667878041064	-0.019507262928705638	0.27047405073281205	52.621429058270024
4	2.0	perception	328	diff_vonmises	-0.01110353337918151	-0.6361856003097337	7.130062909397406	1.324327365805568	0.7928403830645763	0.449763931512451	1.2480561703564592	-0.06866998169128737	1.3167261520477467	49.664185548489286
5	2.0	wm	328	diff_vonmises	0.2830518446664352	16.217676082779295	1.793347820095839	1.8828023005482248	1.793326428909711	1.3764086293042206	0.2445154342415803	0.006769941099323426	0.23774549314225685	101.90453895119609
6	3.0	ltm	328	diff_vonmises	-0.158470431294665	-9.079686890802186	3.4025591554021606	6.978824257630121	3.2948196543317656	6.919022555908689	0.12892365138833206	-0.025056517721150917	0.15398016910948298	53.093390766379684
7	3.0	perception	328	diff_vonmises	-0.026965210734539537	-1.5449927687699778	5.324060220960187	1.593691802443815	0.5500343112069426	0.7500418759066461	1.2365277978346139	-0.10523347960885403	1.341761277443468	57.259131540569854
8	3.0	wm	328	diff_vonmises	0.04137094106236692	2.370380317358099	2.1382091224034587	3.164613895108344	2.0443273990715283	2.661852690626593	0.3081211651666116	0.00028796361881313834	0.3078332015477985	85.69990869917896
9	4.0	ltm	328	diff_vonmises	-0.3417210324533885	-19.579172930432193	22.740842743007775	0.2151947643380988	3.343707452032555e-15	0.1308484039029357	0.38602676384717255	-0.020825170276837016	0.40685193412400955	28.383422895658754
10	4.0	perception	328	diff_vonmises	-0.08160792959527742	-4.67578994061016	3.4980560886263405	1.977736148746605	2.3466001699621306e-16	1.8176211178143762	1.1229615801661081	-0.2879904235582402	1.4109520037243484	73.33998008271229
11	4.0	wm	328	diff_vonmises	-0.3940102169289701	-22.575122515064006	1.355502005236256	62.02356835581243	1.334710844388903	61.93261805199712	0.26923371537715823	-0.07149023632528362	0.34072395170244185	82.86645166891482
12	5.0	ltm	328	diff_vonmises	0.16673793872444143	9.553380173621427	2.650541792508533	11.29201269729036	2.5574765422017	11.162821768362127	0.21931156354936387	-0.03601609790365967	0.25532766145302355	61.15796367942184
13	5.0	perception	328	diff_vonmises	-0.054187981500983216	-3.104742640339318	1.976684818224611	1.916932114328979	4.560617068460436e-12	1.1117829109062298	0.8049803572234336	-0.15810252862464946	0.9630828858480831	97.55732979078834
14	5.0	wm	328	diff_vonmises	0.26052974964341713	14.927255092167766	0.5751636263857699	55.82748308124842	0.5583487272593355	55.37980235984263	0.2924085779447214	-0.06193813669445625	0.35434671463917766	126.7207919429668
15	6.0	ltm	328	diff_vonmises	-0.3983239575358904	-22.822281645754742	0.2617028778217778	68.72015230689426	0.2446081990674112	68.51974132801432	0.24738336872615463	-0.13618527115528778	0.3835686398814424	149.84611611932164
16	6.0	perception	328	diff_vonmises	0.04881985330704477	2.79717155094146	0.7029525435490255	91.12413906008075	0.6841269845505037	90.57427721350146	0.4816742830455567	-0.12176746971256769	0.6034417527581244	116.92761101718436
17	6.0	wm	328	diff_vonmises	0.05875137332671718	3.3662057322183734	0.00022620684576244658	5636.941668287813	4.375600163105958e-32	5636.5073505634555	0.27207196493486663	-0.13380138810089193	0.40587335303575856	179.82196345859091
18	7.0	ltm	328	diff_vonmises	0.19028315282782918	10.902421569477447	1.5634845035317826	99.77532577252961	1.5427475104522803	100.2102714774787	0.16626291376268654	-0.16397007583433698	0.3302329895970235	69.7506828939839
19	7.0	perception	328	diff_vonmises	-0.18311957103611187	-10.491978566615282	2.6889527798299806	1.3353133503062318	1.1153315025940496e-16	1.2099629002374628	0.6285434481376677	-0.18877934022364243	0.8173227883613101	83.85993361193268
20	7.0	wm	328	diff_vonmises	-0.15069332536630706	-8.634091544281105	0.0003318809769478876	2652.5557337857636	5.0470065407092907e-23	2652.536835443568	0.14312584491199232	-0.13708706784740343	0.28021291275939575	179.33303886756022
0	1.0	ltm	329	diff_vonmises	-0.5133421594432898	-29.41233918223228	0.7685974010492951	1.1033727555894801	2.842982571230034e-13	2.5548206397897975	-0.07820263935072097	-0.33600691427437007	0.2578042749236491	135.9205833618356
1	1.0	perception	329	diff_vonmises	-0.1089322900505798	-6.2413604725931515	13.478866031544861	0.7227455767083023	3.322101900851385e-15	2.409315111818919	0.6648324864422173	-0.3834544095099264	1.0482868959521436	36.91646249663984
2	1.0	wm	329	diff_vonmises	-0.13944501111164226	-7.98961061085197	4.636129228269206	0.41762778598336314	0.0755127221515791	1.7259474426246733	0.05197768974685463	-0.2710913477032157	0.3230690374500703	60.983488144815965
3	2.0	ltm	329	diff_vonmises	-0.08778002331620265	-5.029424861578372	3.932611736433048	0.4151870930238473	0.06394296622760706	1.186383113563963	0.11518796011839438	-0.18341304552116539	0.29860100563955977	66.91307051309644
4	2.0	perception	329	diff_vonmises	0.02071749149154003	1.1870248245634365	5.729396739109537	1.687279501290997	0.577403915152791	2.326311851463889	0.9647584106875977	-0.37990955021154826	1.3446679608991459	52.82945427321738
5	2.0	wm	329	diff_vonmises	0.2550915427422044	14.615668788609359	2.9152408442472892	0.510357244530681	0.03344608064775414	1.2521622029471913	0.12280314547380261	-0.19230776106532502	0.31511090653912766	78.7385817825091
6	3.0	ltm	329	diff_vonmises	-0.1566220963796223	-8.973785101043568	1.619426160825045	154.90570099087023	1.6038460359676077	155.5617307604562	0.11622335513888515	-0.21048632147966728	0.32670967661855244	66.17163901303246
7	3.0	perception	329	diff_vonmises	-0.02796278959390758	-1.6021498271432415	4.342588533135686	2.223792756241019	0.5301765092776775	2.725435158849223	1.0997737991467487	-0.39469503318012444	1.494468832326873	60.34366039598228
8	3.0	wm	329	diff_vonmises	0.2131834181742398	12.21451012355647	0.9341405419465532	115.80091010362473	0.9183294777181845	116.11214088751275	0.24669569860245133	-0.1631430805087728	0.4098387791112241	93.89309033804426
9	4.0	ltm	329	diff_vonmises	-0.4137011291499611	-23.703328680089367	8.02555271231134	0.3674296059837233	0.056352372019623606	1.6437161379494365	0.13178677078875967	-0.2644172409366005	0.3962040117253602	47.16410368118275
10	4.0	perception	329	diff_vonmises	-0.05844100994234527	-3.3484232201784665	2.0228944694983797	3.4649107820541656	0.38907212323600115	4.5963165640570685	0.7600442349065271	-0.49763027175996166	1.2576745066664887	83.8512112158929
11	4.0	wm	329	diff_vonmises	-0.3501700571352597	-20.06326638570528	0.9281602145956562	192.84725860700019	0.9155333156564862	194.21545154287983	0.017653109959084645	-0.3123447700189068	0.32999787997799146	83.77908588634577
12	5.0	ltm	329	diff_vonmises	-0.07498454259170578	-4.296297819223705	1.2382949384468502	121.06806353748877	1.2202934612675844	121.45961209738785	0.25085967628839256	-0.17396482542765135	0.4248245017160439	80.63696696356351
13	5.0	perception	329	diff_vonmises	-0.09764391012317358	-5.59458394521258	1.053027885676314	118.63928481070954	1.017351620285859	118.89227872701203	0.7107439891818501	-0.3186173652239024	1.0293613544057525	91.19589080721377
14	5.0	wm	329	diff_vonmises	0.11246362377019473	6.443690990779321	0.9892993587964326	1.5958975831339444	5.187163594536331e-17	1.8709949513173472	0.24430874076360448	-0.22282317920248101	0.4671319199660855	128.90518591588648
15	6.0	ltm	329	diff_vonmises	-0.4762352964398703	-27.286272541166205	0.7158245147082327	100.42023167634424	0.7024723686031591	100.73157200663665	0.1669147518696832	-0.1465982963747221	0.3135130482444053	106.13119151651088
16	6.0	perception	329	diff_vonmises	-0.06492167776491004	-3.7197381348376646	0.5746585216668296	134.82522257590568	0.5593378728912777	135.1315229773346	0.310591489793822	-0.2451459058341463	0.5557373956279683	119.7595317888021
17	6.0	wm	329	diff_vonmises	0.1565585759064233	8.970145646016592	0.0002568960358804319	4451.939024764891	2.3844510915452937e-30	4452.290161242822	0.12614975704877907	-0.23789658886789766	0.36404634591667673	179.12019161431135
18	7.0	ltm	329	diff_vonmises	0.029799821840468223	1.7074040217006023	1.342685119169	124.90686074978238	1.3213361202678802	125.99250942321255	0.04627455196848018	-0.2817301655542259	0.3280047175227061	70.17347670777141
19	7.0	perception	329	diff_vonmises	-0.1845618394922222	-10.574614462075253	1.3182380140131655	3.880737741042503	0.4326065848722315	4.881426111874303	0.41196336020169877	-0.3834935999973924	0.7954569601990912	96.08133424279046
20	7.0	wm	329	diff_vonmises	0.3875525430479926	22.20512505621213	1.0147334338996603	60.409292606882	0.9848163038046777	61.28090992347055	0.04655196107535531	-0.21234188943107846	0.25889385050643376	81.98000267387172
0	1.0	ltm	330	diff_vonmises	-0.05165379836529169	-2.9595446421509646	4.709525449336414	0.4187667084838297	1.2303403843292467e-18	3.7337081112244883	-0.24254401553565358	-0.5942095573443578	0.3516655418087042	62.960343066340556
1	1.0	perception	330	diff_vonmises	-0.03777040534566374	-2.1640848168048956	9.649964142280423	0.8305415506413945	2.6415134111876514e-15	4.222823486263515	0.3431409002260586	-0.6720832274289074	1.015224127654966	43.7004349750778
2	1.0	wm	330	diff_vonmises	-0.16055729108606123	-9.199255149284742	5.402913452338947	0.5159461325422047	0.0884444177286387	3.977131386508632	-0.22397418215341458	-0.6381095133800059	0.4141353312265913	55.179648780304746
3	2.0	ltm	330	diff_vonmises	0.014930636152721749	0.855462436996401	1.693726089689349	1.0786439828009018	0.17720262285803734	2.837791515953778	-0.031987411390173026	-0.37062514327515905	0.338637731884986	89.87061793232377
4	2.0	perception	330	diff_vonmises	0.011547671220201281	0.6616328241222189	5.6268793615406425	1.7664414954867123	0.3572488778101445	3.4676458378412676	0.8663558922100573	-0.5640088234081065	1.4303647156181638	53.83688306449892
5	2.0	wm	330	diff_vonmises	-0.004449188355431668	-0.2549197150249862	2.110846733422291	1.6013009370655515	0.3593231176254402	3.5215155588208744	0.07589011864972506	-0.4401503590269882	0.5160404776767132	77.50217882506425
6	3.0	ltm	330	diff_vonmises	-0.13146083172558656	-7.532150829155626	0.9280051547207033	168.08283318150507	0.9094032769452076	169.72671832611985	0.061420343455822035	-0.3885078608045447	0.4499282042603667	85.06488309310114
7	3.0	perception	330	diff_vonmises	-0.02719165913486197	-1.5579673063859423	3.077322396379201	3.505189264172064	0.5755095475810442	4.787254336782351	1.0799112682332006	-0.5983309951203357	1.6782422633535363	68.20092098029048
8	3.0	wm	330	diff_vonmises	-0.01712271617032524	-0.9810593703600443	1.5587641643110723	2.5759867980180586	0.3955462628603679	4.056487431730669	0.21969104879418255	-0.4015452275774454	0.6212362763716279	88.57186560556784
9	4.0	ltm	330	diff_vonmises	-0.34999427315772247	-20.053194705686373	0.43931737809110355	187.01177834093465	0.42558367644468353	189.8915112588203	-0.19637551848322943	-0.593155668675788	0.3967801501925585	116.81314816762094
10	4.0	perception	330	diff_vonmises	-0.05473212600264713	-3.13591982372991	1.522671777586834	6.305142273533069	0.48677779938564214	8.156128879549463	0.7637346863135996	-0.6809221525978679	1.4446568389114676	89.60021911191012
11	4.0	wm	330	diff_vonmises	-0.11007337375949414	-6.306739753185077	0.6276167464736688	11.289400499552	0.38271391894866263	14.41069184440715	-0.1860234481623828	-0.6406781970403301	0.4546547488779473	109.27235182810767
12	5.0	ltm	330	diff_vonmises	-0.07058482548728347	-4.044212598088787	0.7437859822344388	65.83334303620663	0.7047035352788711	66.87427439842293	0.19370308370853806	-0.31592957989612813	0.5096326636046662	101.07883653601742
13	5.0	perception	330	diff_vonmises	-0.08888516080830387	-5.092744575657445	1.0144144424019774	320.32574665161906	0.9965570348130905	321.3092990611877	0.7461358219922545	-0.4902820149077769	1.2364178369000314	89.94646524590587
14	5.0	wm	330	diff_vonmises	0.05502203523083383	3.1525303989469027	0.3157734791953504	174.92086097213007	0.30357393652030573	176.190125792565	0.11537858601445095	-0.42628311194357593	0.5416616979580269	142.24883990633032
15	6.0	ltm	330	diff_vonmises	-0.4902159973943653	-28.08730770049329	0.6596831128192367	144.48531630584924	0.6481578681441423	145.32064609270577	0.08712557962627443	-0.2289586712662448	0.31608425089251924	104.46871005329396
16	6.0	perception	330	diff_vonmises	-0.07969951513732497	-4.5664458466077384	0.29718740655739984	230.46343965525142	0.28669719155644985	231.25038890758765	0.2680877578031229	-0.4140821479284007	0.6821699057315236	145.99958203822453
17	6.0	wm	330	diff_vonmises	0.0824725150603241	4.725327038785691	0.3413436911024428	4.580286862791873	4.0188944895016735e-16	5.569904944280015	0.10983378489528106	-0.3830801548590511	0.4929139397543322	160.52650564729788
18	7.0	ltm	330	diff_vonmises	-0.59069441256286	-33.84429682181131	3.1529470916286653	0.44482894186899935	4.2393237222512747e-17	1.787847231254133	0.015137383380250224	-0.2839976379966582	0.29913502137690845	77.27214084900763
19	7.0	perception	330	diff_vonmises	0.05566333169793106	3.189273979928224	0.5865408541333987	299.097943118344	0.5735850812294299	300.8983609157058	0.2628027168752425	-0.5555112077030486	0.8183139245782911	112.50204244268434
20	7.0	wm	330	diff_vonmises	0.08241900033810692	4.722260871060832	0.8587016937237938	174.07979142191869	0.8442295531959274	175.89734063291831	-0.08653806610004011	-0.37633888924559855	0.28980082314555844	83.24347576440937
0	1.0	ltm	331	diff_vonmises	-0.5054285071040806	-28.958920302661763	0.3081850458328927	2.5142985789925003	2.3309048286458657e-11	4.392981003361832	-0.16726649137207728	-0.41199242577762624	0.24472593440554896	157.38224834168892
1	1.0	perception	331	diff_vonmises	-0.12921980229785868	-7.4037493011821995	12.840502094318632	0.6759089374370456	4.704037941207737e-15	2.793261077053911	0.5116262487151019	-0.44456130775259434	0.9561875564676963	37.837513576822545
2	1.0	wm	331	diff_vonmises	-0.07341668146941809	-4.206465994053976	2.769998084037598	0.7980862127052908	0.22069357440855714	2.4264171000850707	0.023587345386778646	-0.3502411559622382	0.37382850134901685	72.38954985436649
3	2.0	ltm	331	diff_vonmises	-0.03265373082801368	-1.8709209618014107	3.224070460924468	0.34417984256634854	1.0418920327738255e-21	1.2801930004219186	0.03106386173713946	-0.20337722044551942	0.23444108218265888	76.46862053060022
4	2.0	perception	331	diff_vonmises	0.03979414468551184	2.280036539812783	5.361416689590484	1.8172876698233045	0.6767626200792973	2.6396321628069446	0.8958474439024474	-0.4272174703250896	1.323064914227537	53.45885887492773
5	2.0	wm	331	diff_vonmises	0.48304295458252516	27.6763226211082	3.6883363948795513	0.4769807253447372	2.1692098222874834e-13	1.1836986990153475	0.16234879900405558	-0.188172022340288	0.3505208213443436	71.35486477755236
6	3.0	ltm	331	diff_vonmises	-0.1522169913223512	-8.721391172950199	1.4626253479599063	101.7434408658863	1.443798063590369	102.42727199188512	0.04887363131322786	-0.18952244391220674	0.2383960752254346	67.82596098163009
7	3.0	perception	331	diff_vonmises	-0.0492849102472314	-2.8238173508474222	5.796285097146711	1.4824205948974187	0.2577626995387121	2.0986115453172576	0.9650161653794695	-0.33257500447367244	1.297591169853142	54.57933610204714
8	3.0	wm	331	diff_vonmises	0.41345471952392704	23.689210448486218	0.8462443405842722	69.47351312107092	0.824847508564074	69.5427692269477	0.26238043202632966	-0.12643106237929658	0.38881149440562623	101.61791087148194
9	4.0	ltm	331	diff_vonmises	-0.5473936424767949	-31.363345446213454	1.1710368845330394	146.54934526618018	1.1500955178041832	148.020608009333	0.025887512096346654	-0.35412018622956865	0.3800076983259153	74.48279784987608
10	4.0	perception	331	diff_vonmises	-0.005838124763033342	-0.33449990919262435	2.116449307601419	2.792063371729128	0.38818916234847667	3.9527918220880656	0.5968070033792319	-0.44437820520752314	1.041185208586755	81.80432534351718
11	4.0	wm	331	diff_vonmises	-0.44245201007770724	-25.350632814532393	1.0031243741968487	181.69692842315277	0.9893280536652126	183.25882963410675	-0.056213525159215294	-0.33836831307024084	0.28215478791102555	77.65177437909283
12	5.0	ltm	331	diff_vonmises	-0.23810080665634348	-13.6421713200689	1.1596993011284538	151.10498729524886	1.1434392024054314	151.76985841830532	0.21186400382773485	-0.2227895679624332	0.43465357179016806	81.13708348604823
13	5.0	perception	331	diff_vonmises	-0.12342226742244686	-7.071575021241198	1.1375518565236522	62.24790755901504	1.064209720549574	62.84182612036148	0.6444670336318303	-0.36005508553658316	1.0045221191684135	86.80057394115707
14	5.0	wm	331	diff_vonmises	0.06421009990434574	3.678967726632382	0.9767439678568297	1.686483972981744	2.373009056402227e-12	1.8790904999734293	0.26978718423085435	-0.21841273057283117	0.4881999148036855	129.51061170962356
15	6.0	ltm	331	diff_vonmises	-0.49807213004770273	-28.53743094482444	0.7481821701680847	117.44325759724569	0.7347383700564947	117.88979820692954	0.17131226081696838	-0.1744277588912233	0.3457400197081917	102.6037467568927
16	6.0	perception	331	diff_vonmises	-0.008037689962176206	-0.46052571186736285	0.5440237968629619	115.197463014976	0.5243610833944562	115.80361641990167	0.2731074769623234	-0.3011961642826435	0.5743036412449669	120.94113199859015
17	6.0	wm	331	diff_vonmises	0.37141362242763853	21.280433018769184	0.00020159698070905957	5436.433361652545	7.326409399604744e-29	5436.9912742976285	0.08564095794201876	-0.2632124871805672	0.348853445122586	175.71111997400618
18	7.0	ltm	331	diff_vonmises	0.009225700917410137	0.5285937256175726	1.0922733490377727	65.44194027865566	1.0534539553427946	66.88199476307402	-0.029522522633307346	-0.3240514956986065	0.2945289730652991	75.70680211029111
19	7.0	perception	331	diff_vonmises	-0.22698419224156452	-13.005236231627771	2.4270920409435717	1.5454119758924225	1.3741768436406774e-14	2.894268482940434	0.4344325528945839	-0.45365944847542616	0.88809200137001	88.25227149202779
20	7.0	wm	331	diff_vonmises	0.6667469048290423	38.20178365011489	22.32241803212382	0.3309305872043288	0.12117329776855469	1.3302640304240965	0.381992725508761	-0.22897763409610117	0.6109703596048621	28.390584247153072
0	1.0	ltm	332	diff_vonmises	-1.0551318274541919	-60.454600543051	0.00039177747184386866	1236.2827483063847	3.2737801686472377e-26	1238.2146474708522	-0.23037984438616377	-0.38454766033075316	0.1541678159445894	150.62548992630647
1	1.0	perception	332	diff_vonmises	-0.1255118737797252	-7.191300646356954	16.70815242030689	0.608504336386634	0.06345056355014667	2.817761626176732	0.5072079517319082	-0.4642617565658251	0.9714697082977333	32.87087191655448
2	1.0	wm	332	diff_vonmises	-0.10085506443200538	-5.778569534473892	3.880918632593581	0.425982464894236	0.11386353095576823	2.0519404833519412	-0.04263701441746026	-0.3194496818405208	0.27681266742306054	64.38295255112885
3	2.0	ltm	332	diff_vonmises	-0.1063039782024747	-6.0907692964525	28.01932854748422	0.2154169870931869	5.221675312503575e-31	1.2536817740600192	0.2532951350520553	-0.19952965140586876	0.45282478645792407	25.547227902139156
4	2.0	perception	332	diff_vonmises	0.004137199323538123	0.2370440602431136	7.509942218442934	1.4950815264346606	0.5600582311640165	2.7248343863947517	0.9023089723216161	-0.4938056964929254	1.3961146688145414	46.33293089342624
5	2.0	wm	332	diff_vonmises	0.2652550832922407	15.197996767036509	4.096289143683594	0.3543613788376745	5.361465769724525e-16	1.4168981189433902	0.050495956554552385	-0.2254299660396827	0.2759259225942351	67.62730709101177
6	3.0	ltm	332	diff_vonmises	-0.15013276635089046	-8.601973878529725	1.7558257995004278	79.46242050159631	1.7248062297562976	80.16541685001911	0.07729551469797258	-0.22123409144240647	0.29852960614037904	62.42748753700474
7	3.0	perception	332	diff_vonmises	-0.03629886191665564	-2.0797715889525223	4.18372671013511	2.6947444339551208	0.9451745920445225	3.373734183167102	1.0053700826198115	-0.4648066238449072	1.4701767064647187	57.639082235045976
8	3.0	wm	332	diff_vonmises	0.20183569152328887	11.564333279388858	1.5203703780394453	118.95868859013015	1.5002561406684471	119.39041049967398	0.23061778659274523	-0.18182583301842925	0.4124436196111745	71.81922607441336
9	4.0	ltm	332	diff_vonmises	-0.48662088765145395	-27.88132308533811	9.810025818273822	0.3392886130946018	0.25266929071308064	1.9585835312447801	0.02327244863467509	-0.3488067729818707	0.3720792216165458	40.811819663863645
10	4.0	perception	332	diff_vonmises	-0.07972709069142608	-4.568025809475467	2.241915739433682	3.138286511489474	0.5289775923771889	4.527580071153551	0.5921872897166904	-0.4908310955409568	1.0830183852576472	76.67458292720536
11	4.0	wm	332	diff_vonmises	-0.3319331224047506	-19.018366994391556	0.8375424014215681	147.4525628176865	0.8256489529436893	149.09507848824646	-0.17200410383652098	-0.3139160506379177	0.14191194680139674	77.23117629713342
12	5.0	ltm	332	diff_vonmises	-0.0671739504789409	-3.8487838556641085	1.3389020783973409	126.21479215823005	1.3137436493031849	127.15937964351473	0.1967336382792979	-0.2901017553234908	0.4868353936027887	73.93036665473869
13	5.0	perception	332	diff_vonmises	-0.1109195305260308	-6.355220964714065	1.073689012146853	181.71857512046532	1.0468630887312753	182.76771428025967	0.5489709626324952	-0.4274640713710909	0.9764350340035861	86.41947762054014
14	5.0	wm	332	diff_vonmises	0.05114575041757199	2.9304356389563426	1.635441333484923	0.9913964820013427	2.3678826025488566e-16	1.6317782432618646	0.19287274066348709	-0.24251982327654067	0.4353925639400278	106.39841153637528
15	6.0	ltm	332	diff_vonmises	-0.39969519077071003	-22.900847522837978	0.8882362354919886	126.87900293829355	0.8726619485607771	127.67592179320204	0.1236459584601306	-0.2224195730553653	0.3460655315154959	90.66247188477774
16	6.0	perception	332	diff_vonmises	0.07549665780535725	4.325639859590375	1.1288105736887442	1.6812154306261275	2.3691262589927496e-11	2.6731943427739786	0.18972715263926926	-0.361102604176965	0.5508297568162343	123.35064226161977
17	6.0	wm	332	diff_vonmises	0.24381578907544638	13.969615692674962	0.12314414256205185	8.037489029332555	8.357966372551226e-12	8.980584257456371	0.012068795175939506	-0.3025874826311965	0.314656277807136	171.24559237259368
18	7.0	ltm	332	diff_vonmises	-0.007624036202789742	-0.43682509727479846	1.3789419472534066	190.0636256803589	1.3635527640932719	191.43937631402252	-0.03775203841207997	-0.3373303838452877	0.2995783454332077	66.45957655927555
19	7.0	perception	332	diff_vonmises	-0.31870741712211464	-18.26058990061264	0.7112879094024679	139.38575739419932	0.6897095626586408	140.85541386090938	0.1579568668003617	-0.397462213350007	0.5554190801503687	100.8598931017491
20	7.0	wm	332	diff_vonmises	0.7242693354329226	41.4975761510514	14.277633920488906	0.28673337418812445	0.14877302822841515	1.464006200586865	0.15920272922848494	-0.2523546509222715	0.41155738015075644	35.09022564431811
0	1.0	ltm	333	diff_vonmises	-0.5143753032238474	-29.471533960488422	0.0006047605179332043	865.8475944353478	8.06908821803005e-29	868.9663812551148	-0.4130221925340436	-0.5796932886336492	0.16667109609960562	172.55212311525707
1	1.0	perception	333	diff_vonmises	-0.043634377475281795	-2.5000656710143514	7.944496345846971	1.0088425044392604	0.09845773550945194	4.337726864135148	0.3551083471677492	-0.7068802563399038	1.0619886035076531	46.95128828353674
2	1.0	wm	333	diff_vonmises	-0.03631218915689626	-2.0805351835708668	4.357009066095001	0.5104083104992998	0.08712033336176335	3.478424892555571	-0.19177867814605043	-0.5497547181153143	0.35797603996926386	61.02435209344594
3	2.0	ltm	333	diff_vonmises	-0.1020986667463608	-5.849822698479159	2.7781100882134835	0.3689695904066305	9.434711720576215e-20	1.8834916268687898	-0.06853231103314567	-0.29887364471694394	0.23034133368379828	82.49124665997715
4	2.0	perception	333	diff_vonmises	0.0014980226765407478	0.08583037698067612	7.142446166984729	1.6108162742877563	0.39273670046736153	3.2327923620496493	0.9517028097633815	-0.5577914479999276	1.509494257763309	48.13117523838167
5	2.0	wm	333	diff_vonmises	0.2583541190733874	14.802600642725421	3.116917947997681	0.5903043692931372	0.04679934794786899	2.1220404826830266	0.041387539122346884	-0.3262582928542654	0.36764583197661227	74.88506319304423
6	3.0	ltm	333	diff_vonmises	-0.17308170290046923	-9.916851087134106	0.9751230142840743	28.284682034305018	0.9219584451163801	29.11920239706156	0.012778768119321882	-0.19178550575439468	0.20456427387371656	82.6581587765028
7	3.0	perception	333	diff_vonmises	-0.055507407750268765	-3.180340195802156	4.114393497275749	2.1130002393349168	0.5460345766116086	2.7688820605846565	0.9426268686737911	-0.39547611492877466	1.3381029836025657	61.286952581473685
8	3.0	wm	333	diff_vonmises	0.10952054494650111	6.27506499540735	1.1056655295389073	175.3002582202874	1.0940844947351986	175.79041059209732	0.20391635506091177	-0.18051361849420644	0.3844299735551182	84.03507231827828
9	4.0	ltm	333	diff_vonmises	-0.5567079908507296	-31.897018296954457	0.9030148745555523	179.22662769501585	0.8866593273689432	181.58088387389802	-0.19535490648834042	-0.46918244919964636	0.27382754271130594	77.59271779520533
10	4.0	perception	333	diff_vonmises	-0.04821072273609055	-2.762270940053389	2.9810575632712086	1.890510656329116	0.15326826194933876	3.1754808935049175	0.6480472562712473	-0.4542811045443119	1.1023283608155592	75.20391771826661
11	4.0	wm	333	diff_vonmises	-0.24257068045296845	-13.898276223571628	0.6553803764085839	161.67889108523306	0.640779091786292	164.22531816085387	-0.24728685755118818	-0.4740645402478805	0.2267776826966923	88.84834901306924
12	5.0	ltm	333	diff_vonmises	-0.16980799911657776	-9.729281676941117	0.831648706749233	116.6831131302636	0.8105781700301815	117.90785910162462	0.09504480572112328	-0.30744651341015583	0.4024913191312791	91.83819648369271
13	5.0	perception	333	diff_vonmises	-0.12564205987515614	-7.198759760176434	2.024879557682132	3.6059128208880233	0.5087679013864498	4.714232044104641	0.703251682963058	-0.4709759481926217	1.1742276311556796	81.10659286776573
14	5.0	wm	333	diff_vonmises	-0.006222250000863458	-0.35650866412474896	0.42119431740479296	69.71945408995701	0.394552957397878	70.65616464258194	0.12848889857939128	-0.3230521647226592	0.45154106330205046	131.22423491575486
15	6.0	ltm	333	diff_vonmises	-0.44887028976110904	-25.718373152125878	0.640576598578931	122.3429274658771	0.6283980092791656	123.16733291635781	0.05949306048557901	-0.21494781745392189	0.2744408779395009	104.99313344742757
16	6.0	perception	333	diff_vonmises	0.21697916912867785	12.431990633328525	0.00024235728701133225	8150.106337452365	5.650013729630547e-31	8150.994191091228	0.1730726504854374	-0.4556471507619335	0.6287198012473709	178.42076466320347
17	6.0	wm	333	diff_vonmises	0.21654926812839398	12.407359120403807	0.4167759190094795	2.7601092575579442	1.4660149521358385e-21	3.84318305010537	0.026729367604287124	-0.3342727899392428	0.36100215754352993	155.65159492109566
18	7.0	ltm	333	diff_vonmises	-0.8209910619323582	-47.039322866687705	0.11963399706643837	33.427495009274644	0.09183677230823725	34.56112387894038	-0.042096923219517635	-0.30392326815097714	0.2618263449314595	152.43963418508224
19	7.0	perception	333	diff_vonmises	-0.11402707390741348	-6.533270085121106	0.7054894945168135	122.85465895490651	0.6778407597480154	124.35557453424691	0.22637980857096807	-0.43745118389615456	0.6638309924671226	102.73351290167884
20	7.0	wm	333	diff_vonmises	0.20404521022941535	11.690929376005112	0.6861127023337631	88.62360656096068	0.6617610417137925	90.09958545202	0.0015374907121419312	-0.33154560313441017	0.3330830938465521	98.11229416401747
0	1.0	ltm	334	diff_vonmises	-0.275215592980029	-15.768691933945949	0.000573826916536653	1669.528272617884	1.1049431105349652e-23	1671.6738075745916	-0.1889782078936264	-0.4939230346622594	0.304944826768633	177.81239477398097
1	1.0	perception	334	diff_vonmises	-0.10837332811982774	-6.209334313052574	9.19213600758782	1.031951852223794	0.23890492826328302	3.227692679383549	0.5870909580921787	-0.558519824296771	1.1456107823889496	43.11921079420131
2	1.0	wm	334	diff_vonmises	-0.09822080580682922	-5.627637633105363	3.090617646037901	0.6191607692306974	0.09273552250906648	2.4106522003500688	-0.007626610047288485	-0.36576721323567474	0.35814060318838625	72.75986616848144
3	2.0	ltm	334	diff_vonmises	-0.07836774587614355	-4.490141088656787	2.9542849022236504	0.4886286673523368	3.3496567303092113e-19	1.9626918256940795	0.004831981760030024	-0.31151037147382404	0.31634235323385407	79.96363796763947
4	2.0	perception	334	diff_vonmises	-0.020509745667742912	-1.1751218656483933	6.349625559606678	1.3401552278461595	0.2685461729343983	2.7130234840093483	0.763644372027633	-0.4447035952279159	1.2083479672555488	51.63486899318798
5	2.0	wm	334	diff_vonmises	0.47193386703028295	27.0398187901234	3.531430925742268	0.5442657027157108	8.17855950843351e-15	1.6275553021218105	0.131689225055709	-0.2586988857294059	0.39038811078511493	72.95886242131758
6	3.0	ltm	334	diff_vonmises	-0.18558964321648896	-10.633503277643566	2.710856725080963	0.5813622259001264	2.1039636214420552e-11	1.5185977738536354	0.11750317303051594	-0.2401046773751547	0.35760785040567067	83.51357186443543
7	3.0	perception	334	diff_vonmises	-0.10478667704096316	-6.003834343647591	2.744281743013984	2.7580908928075303	0.4017066052689278	3.643067042595074	0.8837955760280544	-0.4515112736246274	1.3353068496526816	74.29314151652929
8	3.0	wm	334	diff_vonmises	0.08270994002696316	4.738930487325144	0.8082154193159419	122.72884065125545	0.7931089959523435	122.87189695344615	0.3107952569482322	-0.16648668746376138	0.47728194441199356	103.10805516596793
9	4.0	ltm	334	diff_vonmises	-0.217216506152079	-12.445589043091609	5.676400371111897	0.5758543188800467	0.3177541963483314	2.258915917903701	0.052260371555391816	-0.3809857629452839	0.43324613450067573	51.75946663983237
10	4.0	perception	334	diff_vonmises	-0.147841784217584	-8.470710271351388	1.5468626244016226	5.151101242398537	0.5293041088876618	6.709102986473718	0.5809274191768712	-0.5465267714239228	1.127454190600794	87.65464597820176
11	4.0	wm	334	diff_vonmises	-0.6100892833029858	-34.955541059422295	1.1474569789545022	152.50507584425915	1.1287390683710241	154.01806331239388	-0.021719010708515896	-0.34899871685143324	0.32727970614291735	73.76062420109383
12	5.0	ltm	334	diff_vonmises	-0.3498701523088099	-20.0460831048941	0.8087402317324596	159.17920555862185	0.7953733858388418	159.98107365106347	0.16355021677524206	-0.24299139476904585	0.4065416115442879	96.19456450655684
13	5.0	perception	334	diff_vonmises	-0.10008562734153995	-5.7344840365893965	2.807221874959618	1.9285238623377654	0.07546000398354774	2.7670872017262043	0.7416412463726869	-0.40689593726460577	1.1485371836372926	79.71151112466384
14	5.0	wm	334	diff_vonmises	-0.2935352632049684	-16.818331719906457	0.4775621633680882	143.7969438390847	0.4653711621815192	144.29882803329545	0.2055212075306514	-0.25019553881851486	0.45571674634916626	126.49342954115325
15	6.0	ltm	334	diff_vonmises	-0.33958479396392066	-19.456775480952288	1.47077855118223	0.7916494433480695	5.249174507181225e-18	1.844682563597672	0.04524001264694422	-0.2757040325059044	0.32094404515284863	110.96728153066546
16	6.0	perception	334	diff_vonmises	0.19091232534630845	10.938470499371928	0.1366317286220327	193.55554340313543	0.12699120809433967	194.4600393760385	0.15237788304823852	-0.4024984998085124	0.5548763828567509	163.59241172033677
17	6.0	wm	334	diff_vonmises	0.3821082377447254	21.893189339954226	0.00017661719042049036	3511.5180215350224	1.6147074000052567e-29	3512.5058031732406	-0.058499131950839	-0.25591281226797946	0.19741368031714046	175.4763605243246
18	7.0	ltm	334	diff_vonmises	-0.33195131906512954	-19.019409586232502	0.6498952723929066	86.7124974374452	0.6244009748791638	87.83625680316048	0.1161487852161791	-0.3099773898135778	0.4261261750297569	105.8782524909007
19	7.0	perception	334	diff_vonmises	-0.27096553505996507	-15.525181552440136	0.6793397471959607	287.1883313165156	0.6656363904130986	288.541980645169	0.3726768403939076	-0.4801091360633336	0.8527859764572412	106.57224101646541
20	7.0	wm	334	diff_vonmises	0.3011351810650517	17.253774937935326	1.1456431518876387	65.96672251203427	1.1059446308216683	66.65101259700677	0.2412447978603005	-0.23693934700450558	0.4781841448648061	82.4573782975148
0	1.0	ltm	335	diff_vonmises	-0.08306372059901147	-4.759200620977236	0.0009584460010290436	1012.8537636185034	4.829876751295564e-24	1014.5974705537703	-0.12298178509752233	-0.431983332646638	0.3090015475491157	179.7482329491334
1	1.0	perception	335	diff_vonmises	-0.08188756880200589	-4.691812086942088	12.225092771546816	0.7302709166422408	0.03177676595955067	2.7258860822542226	0.5599026451507769	-0.43876564173396976	0.9986682868847467	38.57415170666778
2	1.0	wm	335	diff_vonmises	-0.011199097595610816	-0.6416610265836077	2.7721223527094567	0.6660224146824358	0.05174828425452667	2.189173869707541	0.050183776490004106	-0.33277559064143614	0.38295936713144024	79.0834152277815
3	2.0	ltm	335	diff_vonmises	0.043490034973158655	2.4917954548383374	3.745552788849194	0.3230325322617621	3.505219924835807e-30	1.097890704226659	0.06480764871005501	-0.17460102486035547	0.23940867357041049	70.81558368613028
4	2.0	perception	335	diff_vonmises	0.012282276844757871	0.7037226260158834	6.408426173894382	1.4601745795815182	0.5274399494816542	2.0242406017852765	0.9334930486174279	-0.34067402569818794	1.2741670743156157	50.57519194317655
5	2.0	wm	335	diff_vonmises	0.2076504712948971	11.897495619100054	2.7717890711879605	0.7686232868661821	0.3464882398162762	1.3352894808259073	0.18936929244456335	-0.1765549355213831	0.3659242279659465	73.10811351101648
6	3.0	ltm	335	diff_vonmises	-0.23075962281950205	-13.221552469588229	1.6238926470171886	88.77194620516276	1.6058463516816357	89.19201319085893	0.08374507355187433	-0.13759557733863836	0.2213406508905127	66.41721803106279
7	3.0	perception	335	diff_vonmises	-0.04296329830745597	-2.46161566697878	5.362424364515985	1.6066502621016312	0.33149737656445943	1.784338385769875	1.0607735712839115	-0.27553354711761024	1.3363071184015216	56.54849837659859
8	3.0	wm	335	diff_vonmises	0.12683592884613026	7.2671634135048775	1.1399635822425866	51.03147133883344	1.108135394376248	51.12487714100307	0.2693643989767871	-0.11659928812777487	0.38596368710456197	87.56120558682693
9	4.0	ltm	335	diff_vonmises	-0.33244881221998207	-19.0479138443422	4.5730761579074715	0.398089822725286	5.952423612825492e-40	1.3395624729965399	0.1158955432018701	-0.21316289803578675	0.3290584412376568	63.911841962912376
10	4.0	perception	335	diff_vonmises	-0.035992710249850894	-2.062230390553715	2.8697382554646222	2.255379127557612	0.1999245742417273	3.0661326457806597	0.8500517859628898	-0.4206183802326084	1.2706701661954982	76.30448509417218
11	4.0	wm	335	diff_vonmises	-0.18738284212160045	-10.736246006733934	0.8086035167992599	165.89345426833498	0.7970249081123145	166.85894426925952	0.07418683437987994	-0.2425627518606177	0.31674958624049765	92.90498666915593
12	5.0	ltm	335	diff_vonmises	-0.0678680859837041	-3.8885548904972227	1.095779600202314	118.7445244727999	1.0779209863820804	119.49360913766176	0.1306731493620532	-0.21397068793856633	0.34464383730061954	81.5534473957157
13	5.0	perception	335	diff_vonmises	-0.04517307972237528	-2.588226815700104	0.9556293010503311	254.00014243565153	0.9387427163464035	254.6800177336417	0.5902234641290391	-0.3736978478124904	0.9639213119415295	93.08772733633782
14	5.0	wm	335	diff_vonmises	0.09022651767495295	5.169598662937329	0.929251853225999	1.7518424965098094	1.8148339992435467e-16	2.2318860080108096	0.2198940997955358	-0.26555204501216767	0.4854461448077035	131.49410445220948
15	6.0	ltm	335	diff_vonmises	-0.510980182639593	-29.277007880072656	0.663446746065608	136.30804311316965	0.6470115572864025	137.05283259016292	0.2215056523216532	-0.27548736365114834	0.49699301597280154	108.3022859086049
16	6.0	perception	335	diff_vonmises	-0.0027776746071957823	-0.1591490318529771	0.8102682048117125	224.0087951954583	0.7949286712487211	224.64747437003302	0.4628775178381943	-0.3363647057527501	0.7992422235909444	100.64120085489836
17	6.0	wm	335	diff_vonmises	0.10604069003390186	6.075683995597547	0.29558992405809215	5.728649877438442	5.761644454169028e-13	6.398657353175846	0.1805973422685223	-0.35453658181717906	0.5351339240857014	162.93136796119734
18	7.0	ltm	335	diff_vonmises	0.06386588575059017	3.6592457083735206	1.1243060887608929	144.41151169520393	1.106727437259148	145.79127212289134	-0.024826217408268292	-0.31497453011640175	0.29014831270813346	74.33601411874861
19	7.0	perception	335	diff_vonmises	-0.11320641088569301	-6.4862495575740695	1.5303910676628294	1.9097365473162011	1.3877979949645302e-16	3.091097927178136	0.34531914618635745	-0.4527316297126928	0.7980507758990503	109.48704266661117
20	7.0	wm	335	diff_vonmises	-0.173905574358424	-9.964055444536204	0.00033677147181441136	3280.665880960905	9.272402212972105e-29	3281.597894739899	0.02752006841808452	-0.32415965942425373	0.35167972784233825	179.11674143077607
0	1.0	ltm	336	diff_vonmises	0.05110242934940481	2.927953524586365	7.718660071501685	0.17384526988343554	7.849608665796784e-30	3.364436805321758	-0.34611330894722003	-0.5354667108817557	0.18935340193453565	48.938884975656975
1	1.0	perception	336	diff_vonmises	-0.11224109304074628	-6.430940919169958	11.040854765289724	0.7516629507521857	0.1753873677688138	3.938224425969698	0.24308313858076058	-0.6791606486123637	0.9222437871931243	39.4236211054035
2	1.0	wm	336	diff_vonmises	-0.061871853264330194	-3.5449960626988455	2.4994662596278063	0.8429416009076903	0.14773700479206828	3.457536749089911	-0.13772845794537364	-0.5074934668363373	0.3697650088909637	76.05041453855213
3	2.0	ltm	336	diff_vonmises	-0.16919940033608663	-9.694411535402166	0.0006333999763040543	1308.3856829101553	9.60802248078588e-31	1310.167305542827	-0.15163833602247223	-0.4154279920987278	0.2637896560762556	179.14682580409547
4	2.0	perception	336	diff_vonmises	-0.010842500142188358	-0.6212294975173879	7.872803511381955	1.2932041633213294	0.38406295200909196	3.1262332235293298	0.7185403569233515	-0.553481772676205	1.2720221295995566	45.767951434831616
5	2.0	wm	336	diff_vonmises	0.39332406575241113	22.53580894853924	4.054805068107208	0.4776416020841628	0.019155155806199527	1.8515232406732203	0.06957461680707794	-0.29114085308752274	0.3607154698946007	67.00941409370611
6	3.0	ltm	336	diff_vonmises	-0.34207922944134855	-19.599696106076607	5.21968740538452	0.3140166157708128	4.716492015234764e-17	1.3227301616004723	0.06804278940683689	-0.21051089149750601	0.2785536809043429	59.73629488284922
7	3.0	perception	336	diff_vonmises	-0.09149553934514855	-5.24230824875018	4.275361718425153	1.9127755908236241	0.4361355990541696	2.9653286252829654	0.8283480189310606	-0.4414496933640209	1.2697977122950814	60.64920454444149
8	3.0	wm	336	diff_vonmises	0.16469101375324988	9.436100011792213	1.2102860565577254	137.40659760463944	1.1948154152772643	137.7997226015345	0.243823178861291	-0.17197833697412612	0.41580151583541713	81.47257863714032
9	4.0	ltm	336	diff_vonmises	-0.32051629662012926	-18.364231061496618	3.61001926825176	0.5768150196961612	0.27168497752708726	2.6992793434081888	-0.13430737775349927	-0.4241194535236374	0.2898120757701381	61.15895082186134
10	4.0	perception	336	diff_vonmises	-0.09497716095271432	-5.441790472725251	2.0221759572254143	3.287069164469825	0.5245329460194912	4.979656804584417	0.4554549409857396	-0.518277215644051	0.9737321566297906	78.64531815515787
11	4.0	wm	336	diff_vonmises	-0.43072494982433257	-24.678721755918406	0.7778282913397628	135.33829961371967	0.7644457960669576	137.25213347096877	-0.22228139470161068	-0.3555401193072498	0.13325872460563915	77.75523048305776
12	5.0	ltm	336	diff_vonmises	-0.30476976282966717	-17.462021133343004	3.005997533697987	0.8382443365211844	0.1513749764160128	2.592988386744339	0.07219368613021698	-0.3840303139663628	0.45622400009657976	72.38585913275855
13	5.0	perception	336	diff_vonmises	-0.09807848401768904	-5.61948319525488	1.390149983467233	8.565757880011498	0.750981232228006	10.442211635856665	0.47079628842904375	-0.5796313541744185	1.0504276426034622	84.02769973170044
14	5.0	wm	336	diff_vonmises	-0.19623049139379647	-11.243178968642761	0.5141270709865093	145.61353978201447	0.4997031491638161	146.6215246265917	0.14431485149875556	-0.32697219431391744	0.471287045812673	120.09150995311296
15	6.0	ltm	336	diff_vonmises	-0.3558431501856955	-20.38831067428025	0.8143674264540123	150.10103725038582	0.7944183829906966	151.93169069229143	0.01787748168591463	-0.4129749710596222	0.43085245274553685	89.83532839174353
16	6.0	perception	336	diff_vonmises	0.33727258364936147	19.32429558858143	0.32833229896456234	6.299496382285644	4.932391354929423e-14	8.303677703680847	0.03389908058967128	-0.6186466503949379	0.6525457309846092	158.94712675015904
17	6.0	wm	336	diff_vonmises	0.5020901270422578	28.767645214708693	0.00028457319265610086	2929.205680254662	8.805231122612809e-31	2931.131238216459	-0.17378639255088046	-0.43911886694729674	0.2653324743964163	172.42015707107018
18	7.0	ltm	336	diff_vonmises	-0.40653929070235906	-23.292985563487242	0.8128826143316664	156.21822003622313	0.7960615202302687	158.0830795522934	-0.06305457487317057	-0.39201998800477256	0.328965413131602	86.9143452422783
19	7.0	perception	336	diff_vonmises	-0.35045045848572975	-20.07933219965698	0.4527654896459302	184.30674025442488	0.43596449253009123	186.47269104699745	0.06459266263096453	-0.5789331903863584	0.6435258530173229	123.47285636247986
20	7.0	wm	336	diff_vonmises	0.6204321571751027	35.54814408033072	5.20906552120381	0.6329249645111892	0.18098970681535168	2.2557419233888654	0.13409916519865084	-0.3614116580977274	0.49551082329637824	56.11944553011136
0	1.0	ltm	337	diff_vonmises	0.05602986487099094	3.2102747837960934	5.742847650543677	0.3203063003865014	1.5656184240416214e-15	3.6354839152481473	-0.2797050915089852	-0.578602163894518	0.2988970723855328	56.887652197464575
1	1.0	perception	337	diff_vonmises	-0.09085560872707843	-5.205642925153564	9.646331801611169	0.873407478302464	0.1597163637778421	4.106405926132093	0.3055220798067365	-0.6953101333776872	1.0008322131844238	42.2150110728156
2	1.0	wm	337	diff_vonmises	-0.12210732083024217	-6.99623413122276	3.158436604080447	0.6861442329718915	0.10214549204389806	3.62318373211076	-0.1742834355166918	-0.5555146673160173	0.3812312317993255	70.2433321194593
3	2.0	ltm	337	diff_vonmises	-0.10526555197123386	-6.031271856066724	1.8299884763871683	0.7101660778716803	9.312154145422148e-32	2.775535619012681	-0.09459027979962109	-0.43280696265269863	0.33821668285307754	101.12515218149416
4	2.0	perception	337	diff_vonmises	-0.015081896924083132	-0.8641290408013016	6.911604877605629	1.3510738656323014	0.28136946751441394	3.347263652774952	0.6973408028118218	-0.5626699849546466	1.2600107877664684	49.203915694682394
5	2.0	wm	337	diff_vonmises	0.27373940748983006	15.684112735579099	3.576767923643487	0.5753208677838699	0.013458603625543849	2.321998254221265	0.041380567445964855	-0.36520845232479987	0.4065890197707647	71.58551912093307
6	3.0	ltm	337	diff_vonmises	-0.23885818616259333	-13.685565969266719	2.6083455710763275	0.7124782512852444	0.015825061689837487	2.1856951293563305	0.07706114817901893	-0.3400456936617635	0.41710684184078245	83.94345467603236
7	3.0	perception	337	diff_vonmises	-0.09376423120115844	-5.372294717115248	2.8752553659277007	3.0804754446807863	0.49263828096851353	4.480869291523904	0.86960264944975	-0.5607893030111731	1.4303919524609232	70.73802534991779
8	3.0	wm	337	diff_vonmises	0.030165218387330963	1.7283397016844915	0.940757309062675	189.34260311153653	0.9259564577360616	190.16979604649285	0.261717997977172	-0.27966220278379694	0.5413802007609689	90.50132413876239
9	4.0	ltm	337	diff_vonmises	-0.18693706355383083	-10.710704776203348	3.348031558231073	0.6191596773380799	0.15209783372432448	3.1871547286271515	-0.15573177758224643	-0.4909622735781537	0.33523049599590726	66.50385010143646
10	4.0	perception	337	diff_vonmises	-0.1278712034897999	-7.326480281224058	1.238387540817419	12.490254826226563	0.7591118237974901	14.551710908669545	0.5188603881691689	-0.6408408572570132	1.1597012454261821	86.9266096282577
11	4.0	wm	337	diff_vonmises	-0.43284755399980607	-24.800338016749883	0.7351991890700805	183.15691668305752	0.7217704736834968	185.54900666380266	-0.22133343414785145	-0.45382401460729227	0.23249058045944082	84.5330439801716
12	5.0	ltm	337	diff_vonmises	-0.24467341426952194	-14.01875399669958	1.4617033766273002	1.744027715827809	0.2098805408508063	3.1996550444232725	0.12239695233435255	-0.3728856184684668	0.49528257080281934	97.16868388481839
13	5.0	perception	337	diff_vonmises	-0.08811292847299863	-5.048498922040923	1.7797954447356188	4.199236832639248	0.4772000195129687	5.7987898404675144	0.6121586306082143	-0.5565816782324211	1.1687403088406354	84.6177291559334
14	5.0	wm	337	diff_vonmises	-0.24288456317021814	-13.916260378532135	0.48053330388504417	189.29125670217385	0.46887211085529973	190.43652546699786	0.13493127861767107	-0.3624965179898929	0.497427796607564	122.97796959395758
15	6.0	ltm	337	diff_vonmises	-0.3601283915937383	-20.633836921155797	0.6976899252508525	169.45822664097392	0.6836958822693256	171.05946669386705	0.0011164801953000847	-0.35844611502040635	0.35956259521570644	96.81361468240796
16	6.0	perception	337	diff_vonmises	0.14646713549117102	8.39194870101489	0.44786788130862765	4.561112904046205	5.41665633151207e-11	6.126975162802878	0.10600112400390271	-0.5336922256958563	0.639693349699759	154.4999468090707
17	6.0	wm	337	diff_vonmises	0.2179645852038451	12.488450815499954	0.4807173831933733	1.9132485516868787	3.266490143258159e-17	3.529832528775272	-0.09661140591821482	-0.3839257621885803	0.2873143562703655	152.3134396099736
18	7.0	ltm	337	diff_vonmises	-0.46585407433715176	-26.69147232849251	0.7665992450663458	79.67279335583348	0.7338367958563754	81.26941603573208	0.03365078671415134	-0.36806926468553414	0.4017200513996855	93.83399644664854
19	7.0	perception	337	diff_vonmises	-0.2004363051465175	-11.484154346091755	0.5008122824423719	300.6343787011474	0.4890795226040908	302.72666084704485	0.14672501106700508	-0.5920762158256743	0.7388012268926794	119.37471430639322
20	7.0	wm	337	diff_vonmises	0.30955066155743943	17.73594645272382	0.9746110385265617	158.02823209608027	0.9552386042732043	159.69063157860046	0.026793649698767297	-0.3833872979828321	0.4101809476815994	81.95492067391748
0	1.0	ltm	338	diff_vonmises	-1.6285255286538542	-93.30763962117706	0.42221797707219066	61.73300411023695	0.3962383193158501	64.89596181464127	-0.4248342182403171	-0.5383499041067932	0.11351568586647609	93.38030965378178
1	1.0	perception	338	diff_vonmises	-0.03988337814509761	-2.285149240438399	9.157229696703194	1.0643281067121182	0.16326355317511132	4.486853750567389	0.43108234811279245	-0.7567197957125319	1.1878021438253243	43.353065787064395
2	1.0	wm	338	diff_vonmises	0.03918571167707545	2.2451758963129302	7.29132382064265	0.2874876248944052	0.05173179609408148	3.2283649659832836	-0.23674349793325355	-0.5203761028915777	0.2836326049583241	48.514664198523064
3	2.0	ltm	338	diff_vonmises	-0.15585380776894756	-8.929765406203936	124.62314681914893	0.34862939126833986	1.6069339703707416e-58	1.7772100462953324	1.268089625045188	-0.2828517637804783	1.5509413888256665	12.097056994772771
4	2.0	perception	338	diff_vonmises	-0.03384574580904079	-1.9392183893306312	9.94925646815071	1.420190714612947	0.32319379385181707	3.3633370585501634	1.0429539336758684	-0.6029765827635423	1.6459305164394107	41.47795899856152
5	2.0	wm	338	diff_vonmises	0.045359340118807656	2.598898750306113	3.411065817837287	0.4765315639178665	2.0784114769425782e-19	2.3694294140791308	-0.04157981396795574	-0.3767408210413945	0.33516100707343877	74.29630098416152
6	3.0	ltm	338	diff_vonmises	-0.229044259164953	-13.123269371852432	2.199107187798051	0.48028855790845865	0.32034445830714064	1.1131095918810334	0.024421534045886872	-0.14392727472498465	0.16834880877087152	77.31508187231455
7	3.0	perception	338	diff_vonmises	-0.059710775794136396	-3.421175444455932	3.1606113712639297	3.717164603696173	1.159072020131929	4.13435102952213	0.9714273142641534	-0.4097055828063836	1.381132897070537	62.887035168060095
8	3.0	wm	338	diff_vonmises	0.016845432372745793	0.9651721790313822	1.4835247275711436	162.90896889451983	1.4686510676866324	163.45384767052894	0.19295902774469198	-0.1973709425971002	0.3903299703417922	71.44389444685655
9	4.0	ltm	338	diff_vonmises	-0.299066800807048	-17.135265478723532	2.364121909278683	0.8252203222871931	0.4484065806477968	3.0614891742026917	-0.2554151991534924	-0.44123482622427374	0.1858196270707813	63.41372330417178
10	4.0	perception	338	diff_vonmises	-0.10800874490291683	-6.188445233442277	3.642475652246577	1.7176005676324413	0.1904477526306695	2.911943440128416	0.6987329434045949	-0.4278037421938182	1.1265366855984131	67.97164104947649
11	4.0	wm	338	diff_vonmises	-0.07981620165988665	-4.57313149187658	0.60887189295997	130.7850215183407	0.5954130635923588	133.14026291165305	-0.29018641149475144	-0.41775787374952955	0.1275714622547781	85.27946127450761
12	5.0	ltm	338	diff_vonmises	0.024113862472867155	1.3816225474541866	2.359672622941086	0.9056283170553276	0.23755488622311854	2.4331083488067664	0.03160692939237092	-0.33440265358641014	0.36600958297878106	77.1181388820776
13	5.0	perception	338	diff_vonmises	-0.11369954119409104	-6.514503842995261	2.412155807665307	2.7878022953141897	0.3687311134398296	4.22037842650857	0.6696224177807857	-0.5143297444133377	1.1839521621941234	77.74157657906167
14	5.0	wm	338	diff_vonmises	-0.07595576182834975	-4.351944582465322	1.6130352902359628	0.8725857979234152	2.911805283738406e-16	2.2185132207802263	0.0419120232210618	-0.33739968490139377	0.37931170812245557	107.04437306420202
15	6.0	ltm	338	diff_vonmises	-0.3372892554660261	-19.32525081331313	0.6639230774647532	124.63786193758847	0.6511452596999568	125.71812867615671	0.00548906570011809	-0.2453995723302178	0.2508886380303359	99.67125463209817
16	6.0	perception	338	diff_vonmises	0.3233535697210845	18.52679483550735	0.00014955923190638668	13366.873501060687	1.6800870254368756e-35	13367.958596949748	0.145475575274304	-0.4908485346177258	0.6363241098920298	176.69799069267685
17	6.0	wm	338	diff_vonmises	0.16722196625498548	9.581112908289741	0.6829874859520346	1.5222277483647921	3.544996524555684e-18	2.8873698285029534	-0.03131877494792079	-0.3502825458349114	0.3189637708869906	142.51884636160878
18	7.0	ltm	338	diff_vonmises	-0.5893157954298395	-33.76530787852481	0.6467699612528618	64.60324866733258	0.6275351009532895	65.4193185915561	0.01498096861371323	-0.19138185581667422	0.20636282443038745	102.17989219631123
19	7.0	perception	338	diff_vonmises	-0.14968014195393978	-8.576040410879797	0.5911868341434483	122.20848918368816	0.573895939384297	123.37309554485833	0.09569513504686	-0.31812618132419246	0.41382131637105246	110.25463988767066
20	7.0	wm	338	diff_vonmises	0.29239016155142633	16.752722228045045	0.6559179867220444	45.857273032059155	0.6249848829895214	46.87134444977746	-0.004683534636090059	-0.22681139650945426	0.2221278618733642	100.43039251533202
0	1.0	ltm	339	diff_vonmises	0.014918803223155091	0.854784460072956	7.006461381714706	0.207901892403827	0.020916210020920672	3.6497088520180365	-0.37775548956670213	-0.5828720211861259	0.20511653161942378	50.03080661874591
1	1.0	perception	339	diff_vonmises	-0.05454118568580721	-3.1249797494360916	13.039886611744633	0.7082144946046144	0.09806932590515707	4.228255993165786	0.2695859062403373	-0.7065359983725527	0.97612190461289	36.820324730584616
2	1.0	wm	339	diff_vonmises	-0.07083569143426836	-4.058586158074574	4.098343185995417	0.43038112827420627	0.026818159076348932	3.619763355843079	-0.25634495986750166	-0.5707611051970243	0.3144161453295226	65.26216150108246
3	2.0	ltm	339	diff_vonmises	-0.08120583215062317	-4.652751454078477	11.494673136468593	0.2755521364647907	1.856706299382391e-40	2.0067316633452656	0.04901950521475479	-0.3193812636421943	0.3684007688569491	40.00889966211565
4	2.0	perception	339	diff_vonmises	-0.018888962553852303	-1.08225783371639	8.389502437974793	1.3547621144883273	0.3508362921786385	3.2230326038940946	0.8340858274152743	-0.5697339986193887	1.4038198260346628	44.70155204151695
5	2.0	wm	339	diff_vonmises	0.013318578349627455	0.7630983285479666	3.834496496163099	0.6945151150147345	0.17065228343563746	2.4706866911326397	0.05874171859621202	-0.38058622909176426	0.4393279476879763	64.23457141781975
6	3.0	ltm	339	diff_vonmises	-0.28199465558415054	-16.157103610217078	2.653408332282881	0.7219177877884584	0.34382790732369556	1.7343766575812236	0.062497587136714994	-0.23728173644232325	0.29977932357903825	71.59225306399341
7	3.0	perception	339	diff_vonmises	-0.05177636003696895	-2.9665669086681397	3.647299795331412	2.9703318974581654	0.8031225943904444	3.8131355930049122	1.0107460430407667	-0.49436946677768456	1.5051155098184512	61.81775739696374
8	3.0	wm	339	diff_vonmises	0.01597836884691554	0.9154930984315762	1.395412965932298	40.196092727449596	1.3129588611551553	41.09373970991787	0.2377415921691295	-0.29281504139892256	0.530556633568052	73.87740307547145
9	4.0	ltm	339	diff_vonmises	-0.0903094008691421	-5.174347520156931	0.6931112398742535	148.07529514445372	0.6775844811609609	150.30937315599274	-0.18827313650334787	-0.4269334013974948	0.23866026489414693	88.57692447935523
10	4.0	perception	339	diff_vonmises	-0.0942053677128913	-5.397569977426664	2.647730488808508	2.7553557368427324	0.3653040891117081	4.381198803031961	0.7071911854428918	-0.5591520713044045	1.2663432567472963	74.68779979785228
11	4.0	wm	339	diff_vonmises	0.049233768434477757	2.82088714081999	0.6389700905551805	92.27445252787899	0.61627557177049	94.4601988481159	-0.1898430390897765	-0.4139325138997396	0.2240894748099631	92.29043328397995
12	5.0	ltm	339	diff_vonmises	0.0679800586358769	3.894970450887611	0.8246249215023896	68.50026862451547	0.7810841628425235	70.31582686924884	0.02482039214300613	-0.412171027269431	0.43699141941243713	90.14250977711984
13	5.0	perception	339	diff_vonmises	-0.06498785167028782	-3.72352962032971	0.9900531963624822	301.2765144645817	0.9703663673214781	303.1407999404178	0.49725100289265356	-0.5921756914999392	1.0894266943925928	87.61554880893141
14	5.0	wm	339	diff_vonmises	-0.07587585083729612	-4.347366019941241	1.4813722160234233	1.1440221980086556	2.2595686617726525e-18	2.786051927091766	0.048374037316092966	-0.41799847484396035	0.4663725121600533	111.02593701957863
15	6.0	ltm	339	diff_vonmises	-0.39279948501457695	-22.505752686247487	0.7590453976300292	224.79060894330263	0.7462025899656872	226.56761392916786	0.029792117607129853	-0.40652581673055366	0.4363179343376835	93.44309442351381
16	6.0	perception	339	diff_vonmises	0.14863052890172374	8.515902012865974	0.9690314107262277	2.677012102791683	1.8499414634993183e-18	4.448519312529424	0.19102490079938972	-0.5785503881353041	0.7695752889346938	129.67159899056503
17	6.0	wm	339	diff_vonmises	0.11086147659298368	6.35189471936633	0.8006851905224972	2.016228087415476	1.2228836911214996e-14	3.9309567867732222	-0.013160060404707297	-0.5021410223522478	0.4889809619475405	137.1773376423675
18	7.0	ltm	339	diff_vonmises	-0.40087536291413245	-22.96846640575499	1.0149453989707347	143.31578896255138	0.997398615853002	144.8872072054704	-0.06073332315813218	-0.34012308035732985	0.2793897571991977	77.06994516810707
19	7.0	perception	339	diff_vonmises	-0.07611830113684431	-4.361257398847036	0.35397586930993497	159.82943774223037	0.33921396564939793	161.70056646309604	0.0211449122423204	-0.5078813622566969	0.5290262744990173	135.71282445452448
20	7.0	wm	339	diff_vonmises	0.366871252195341	21.020174375472678	0.7022195786539492	92.69913626959175	0.6806521782190188	94.2958085600618	-0.06754494828283697	-0.32943419618409386	0.2618892479012569	93.3493708513877
0	1.0	ltm	340	diff_vonmises	0.05301972244150092	3.0378063268530595	4.577899607744303	0.38491714432028024	7.013675901824866e-15	4.131779166355942	-0.33920858269600107	-0.6575594548389095	0.31835087214290847	63.87882415122854
1	1.0	perception	340	diff_vonmises	0.005736513317258618	0.32867800219951027	10.282708436606388	0.6640577230701319	6.82514338761947e-15	4.5380960107850505	0.11628966861339451	-0.7222604113597816	0.8385500799731761	42.32423426865654
2	1.0	wm	340	diff_vonmises	0.017656919701933237	1.011666978122166	2.8775368286163454	0.7590771088398235	0.051753833281873364	4.4903852214052336	-0.2666733861627487	-0.6917143564688282	0.42504097030607946	75.75439547506122
3	2.0	ltm	340	diff_vonmises	0.3320620250078379	19.02575256951671	0.3039064439716355	22.102524857005154	0.25446745323254927	23.509873800849316	-0.08995341079012853	-0.3177402364370119	0.22778682564688335	140.2177511320839
4	2.0	perception	340	diff_vonmises	0.014222861856296539	0.8149099569633952	6.864386672189599	1.5191004566705957	0.44542510085386955	2.8628807549900723	0.8792979003306888	-0.4944719612816385	1.3737698616123273	48.79635973540624
5	2.0	wm	340	diff_vonmises	0.032823676747933746	1.880658145758299	2.6934491365069966	1.3169906307878303	0.4908391656858415	2.6749733924892074	0.15526840689393528	-0.34979218658691624	0.5050605934808515	69.16354056918036
6	3.0	ltm	340	diff_vonmises	-0.2779528417542746	-15.92552473618758	1.1885940646354316	72.19843672223463	1.1649872331025597	72.9774158259049	0.025609300584577	-0.1915864939379297	0.2171957945225067	74.53241301276832
7	3.0	perception	340	diff_vonmises	-0.033253354007206144	-1.9052768392673558	5.091316670131506	1.8517847140171506	0.48770385601174077	2.4169237690497987	1.030495776019837	-0.3744032181286056	1.4048989941484427	56.42094264988998
8	3.0	wm	340	diff_vonmises	0.05436980309498154	3.115160250299763	3.1147205647073366	0.7690174280287874	0.21791755670852236	1.4277411914048599	0.23529251862154005	-0.20304859900723138	0.4383411176287714	71.96813845987941
9	4.0	ltm	340	diff_vonmises	-0.42101322893706994	-24.12228113726921	0.23743825406111116	121.27193213345896	0.2236720504203331	123.25150821006002	-0.0967698626704454	-0.4808522866760203	0.3840824240055749	147.13063222320847
10	4.0	perception	340	diff_vonmises	0.0011161473502805943	0.063950532485788	2.6714226359093174	2.7662849578915027	0.3227176587958724	3.96723503511535	0.8451408968803442	-0.508140567218896	1.3532814640992403	76.00292883126193
11	4.0	wm	340	diff_vonmises	0.10976682270910913	6.289175671792714	2.3929482514401847	0.7798855816922933	7.759343859465605e-17	2.904274297395056	-0.01431535732609912	-0.4584908046815608	0.44417544735546166	88.90119017982477
12	5.0	ltm	340	diff_vonmises	0.09312571727322266	5.3357105638842075	0.6940845670205104	156.68831305418917	0.6769535979619866	158.46352809768095	0.013895562259229166	-0.40313497485031036	0.4170305371095395	97.65426258430722
13	5.0	perception	340	diff_vonmises	-0.04521360118215587	-2.590548524325241	0.9506363842573832	472.4137372415809	0.9389101797938313	474.07353712202394	0.5043743601810604	-0.5522851386708325	1.056659498851893	89.78988849652063
14	5.0	wm	340	diff_vonmises	0.14804874867663023	8.482568461363945	0.6783717041856733	2.7448662476187855	4.119935410036004e-14	4.3257124105148215	0.08128731160456226	-0.49024098038689023	0.5715282919914525	142.82508683684523
15	6.0	ltm	340	diff_vonmises	-0.5481553681163671	-31.406989110507848	0.7111851249134248	256.64626446379094	0.6990483721660847	258.18906465403893	0.15506735623955592	-0.41171964837997876	0.5667870046195347	100.29434728090962
16	6.0	perception	340	diff_vonmises	-0.011029464528637628	-0.631941767780184	0.721961163841285	286.18810969109535	0.7055500439948983	287.7403946385761	0.45230101084679575	-0.5490384001960678	1.0013394110428635	103.57558248395515
17	6.0	wm	340	diff_vonmises	0.06481094471621637	3.713393598494901	0.8679109966595498	3.1877251880493467	7.121003340588943e-17	4.895521696277723	0.2300983489604651	-0.6012579045253147	0.8313562534857798	134.22907996715875
18	7.0	ltm	340	diff_vonmises	-0.2505535980723976	-14.355663711365539	0.8509272487951256	45.949828912053185	0.8071610203650952	47.88646531415974	-0.20679576826203316	-0.36902161516569354	0.16222584690366038	76.99513333980954
19	7.0	perception	340	diff_vonmises	0.08400828165262093	4.813319982841488	1.118630819700568	2.215538677276115	1.9273055459743354e-14	4.2537418765398956	0.1294909755370156	-0.5909093370368638	0.7204003125738794	123.73434169766179
20	7.0	wm	340	diff_vonmises	0.2217822176619069	12.707185043079049	0.5091024201265917	154.9985599199698	0.49584165321003526	156.94500407910374	-0.0944477743135792	-0.410740022293977	0.3162922479803978	110.19487418088355
0	1.0	ltm	341	diff_vonmises	-0.060487480564742194	-3.465677349739321	6.661521760626765	0.2989333320763317	0.018863261296775017	3.2084815651007728	-0.21882533100548307	-0.5110683323273306	0.29224300132184755	51.8193313274204
1	1.0	perception	341	diff_vonmises	-0.11483235330649615	-6.579409196017373	14.062239676038567	0.6078709874675914	0.01851552785351593	3.5691692289656434	0.32207241738504644	-0.5724892617652095	0.894561679150256	35.996051221814724
2	1.0	wm	341	diff_vonmises	-0.1720382415544843	-9.85706515592413	3.5168235813625874	0.6884938659313953	0.17034287545343946	3.377030510404826	-0.13956653468801278	-0.5226471577986398	0.383080623110627	64.85028449487146
3	2.0	ltm	341	diff_vonmises	-0.07845761700206323	-4.495290324872074	2.7637044855258224	0.576327913416521	7.504711908983504e-16	2.323840847245303	-0.009780704274542473	-0.36841872330548725	0.3586380190309448	82.7154178935815
4	2.0	perception	341	diff_vonmises	0.021597462187384755	1.2374434315305296	5.901379566589888	1.6409265678578075	0.42716857513057777	3.4554641840437625	0.7475276087927294	-0.5786150525079998	1.3261426613007292	51.92888672798739
5	2.0	wm	341	diff_vonmises	0.22249255403300164	12.747884319177418	3.197912099041004	0.6194910781801004	0.06547647390859519	2.26623276775238	0.03601899919622514	-0.34673521235781507	0.3827542115540402	73.07776976584688
6	3.0	ltm	341	diff_vonmises	-0.1725957943069818	-9.889010575498139	1.0771545777818217	163.2389514983685	1.0556667035481497	164.95941480910338	0.05327639995999789	-0.411726780662228	0.4650031806222259	78.40316154224226
7	3.0	perception	341	diff_vonmises	-0.04388650650286313	-2.5145116001874994	3.435176331688124	2.9846554756099697	0.5351965542644953	4.685023240127037	0.9228399536603258	-0.6393172019685188	1.5621571556288445	64.93284916873279
8	3.0	wm	341	diff_vonmises	0.17925801710648187	10.270727824085325	0.8316980411315708	101.65493905744205	0.8033045034602333	102.85011169544978	0.18743863432015573	-0.3377169805451672	0.5251556148653229	94.28683958520173
9	4.0	ltm	341	diff_vonmises	-0.4879426062169316	-27.957051980844064	0.8346541854755326	197.78772619291516	0.816787017711176	200.61171827742686	-0.1918600538106361	-0.5651894958760977	0.3733294420654616	82.55671503255637
10	4.0	perception	341	diff_vonmises	-0.06970017457928762	-3.993525834718209	0.9582317700934988	354.13985727172843	0.9397684475320681	356.3807425793762	0.501661089041221	-0.6784870156361151	1.180148104677336	88.4627261794102
11	4.0	wm	341	diff_vonmises	-0.33229220382195834	-19.038940844099137	0.6563709122509223	154.6984138992314	0.6396439683029805	157.57511453531185	-0.2938075914715128	-0.5310121545211857	0.23720456304967286	87.8101315995457
12	5.0	ltm	341	diff_vonmises	-0.15191133101380377	-8.703878127305765	1.303604271163229	3.7979191308348788	0.560017378994301	4.92187844450241	0.2421455173954412	-0.3361228694716262	0.5782683868670674	90.29934789719736
13	5.0	perception	341	diff_vonmises	-0.10825155987011571	-6.20235750626538	1.037254281389591	303.8867078416168	1.0187475243214084	305.13955965928324	0.6286152374657235	-0.5028708888421569	1.1314861263078804	87.6684880784999
14	5.0	wm	341	diff_vonmises	-0.03075632327904676	-1.7622075172293443	0.4528193693580521	68.50097504815135	0.4223117620210421	69.41861444541334	0.17316961370418582	-0.34018489553439757	0.5133545092385834	128.6065116941257
15	6.0	ltm	341	diff_vonmises	-0.4138665322220693	-23.712805578039664	0.8162978792087563	156.82734477020202	0.8036733436643833	157.8131310976893	0.07803953727912472	-0.2483527880400267	0.3263923253191514	92.55286069919933
16	6.0	perception	341	diff_vonmises	-0.06712257781372642	-3.8458404187649804	0.42371196754671653	158.16043312663354	0.40870464798155365	159.3191541275984	0.17066160851496193	-0.4049154134865809	0.5755770220015428	130.3928296799131
17	6.0	wm	341	diff_vonmises	0.20966483703462999	12.012910274382497	0.44033372009369964	2.487784735491162	1.3580465725231612e-21	3.611978208976996	0.011362292121734452	-0.33186969366446917	0.3432319857862036	154.47037589138165
18	7.0	ltm	341	diff_vonmises	-0.31178558968576825	-17.86399840199213	1.0178678249754969	125.08285741444504	0.9946743540842119	126.81063840518512	-0.04015331789663179	-0.38125085789674884	0.34109754000011705	78.0748356151082
19	7.0	perception	341	diff_vonmises	-0.1539374079241231	-8.81996378323597	0.5893215708980103	247.04092709292286	0.5739810311978019	249.1919677645816	0.15529273388135323	-0.5763149991996706	0.7316077330810238	109.94965749734303
20	7.0	wm	341	diff_vonmises	0.3256040372201748	18.655737125136586	1.0305277960966923	155.36094231745824	1.0120854062341471	157.30223819325607	-0.1268290211846903	-0.4088644201768652	0.2820353989921749	74.425094014307
0	1.0	ltm	342	diff_vonmises	-0.5323690079085853	-30.502497296728684	0.0002742996821785095	1346.2862637207002	6.933278552792138e-32	1349.4598803320157	-0.44632128188249	-0.5638642008716772	0.11754291898918723	172.05253992909883
1	1.0	perception	342	diff_vonmises	-0.07627388962489896	-4.370171962553388	10.55506304907975	0.7604481074582383	0.09960911762223636	4.087630088412519	0.2562677928816457	-0.6773260145028197	0.9335938073844654	40.812493969084755
2	1.0	wm	342	diff_vonmises	-0.039885126171301216	-2.285249394962344	3.4377556310793835	0.5848446323334542	0.09310106898566935	3.4336355235909455	-0.1849015619617032	-0.5320864993960888	0.34718493743438555	67.79024373212383
3	2.0	ltm	342	diff_vonmises	-0.11562517474316308	-6.624834518245887	4.136731687840697	0.3225309992723578	2.2124514778039753e-43	1.850104803789993	-0.041912928402481286	-0.29438886504430384	0.25247593664182255	67.29226107762054
4	2.0	perception	342	diff_vonmises	-0.002276564640310866	-0.13043754567853094	7.740376659795603	1.4632936655655309	0.43173937274227653	3.141406549901747	0.8608758199402046	-0.5592128007682606	1.4200886207084653	46.065517134609365
5	2.0	wm	342	diff_vonmises	0.23300874224625642	13.350417520362138	3.52237078833906	0.5460817634432842	0.084741256343615	1.9807400775057409	0.048934307419061907	-0.30392008567134976	0.35285439309041167	69.21279844784476
6	3.0	ltm	342	diff_vonmises	-0.22898559226940257	-13.119908006340257	1.9700708779800273	1.0215841958024772	0.6058205304041013	1.8665851840509724	0.02449463261333179	-0.19985914466309448	0.22435377727642627	73.25135542248984
7	3.0	perception	342	diff_vonmises	-0.05658323431926977	-3.241980517693954	4.465731003253629	2.0785689255259605	0.6242645457165239	2.8362134174411056	0.930210350720246	-0.42071707643588796	1.350927427156134	58.35717153052286
8	3.0	wm	342	diff_vonmises	0.12766044399818477	7.314404651862188	1.2840368897814614	159.0766339225591	1.2698914538260457	159.58623288582547	0.21086407113343597	-0.18844559079914447	0.39930966193258044	77.68870163726535
9	4.0	ltm	342	diff_vonmises	-0.4326031198359328	-24.786332970791136	0.8433955966101001	104.4442286327972	0.8193484064511619	106.5938245449207	-0.18120424449936223	-0.42112476879738914	0.2399205242980269	80.30523659866283
10	4.0	perception	342	diff_vonmises	-0.05626897532997178	-3.2239748039331317	2.715110655594807	2.2455932820414746	0.334143954135309	3.673444160886975	0.5944790355637546	-0.4799448195992241	1.0744238551629786	74.39748138104181
11	4.0	wm	342	diff_vonmises	-0.07784146330261474	-4.459987318362303	0.6170699375974378	126.6046275181632	0.6024780982524199	128.7854319286549	-0.23017948251713705	-0.39840032765168587	0.16822084513454882	89.78787638881997
12	5.0	ltm	342	diff_vonmises	-0.11472283831126735	-6.573134448997368	1.2058769429801657	5.024146726203065	0.6769022812896015	6.619723217966398	0.055694102009411495	-0.3741241206576114	0.4298182226670229	84.56373343974556
13	5.0	perception	342	diff_vonmises	-0.10409790602307749	-5.964370671271812	1.072719169369234	210.90674139715148	1.0452940526467975	212.49323748695204	0.5322827738683031	-0.5404344773733314	1.0727172512416345	84.95828652319625
14	5.0	wm	342	diff_vonmises	-0.023845867612351086	-1.3662675730154186	1.2236871277762407	1.3391489285179417	3.212165357427267e-20	2.451639074819183	0.12336673215748561	-0.345755044754385	0.4691217769118706	119.81997986488581
15	6.0	ltm	342	diff_vonmises	-0.4119613848024286	-23.60364867154401	0.7691112877251814	192.46227158567643	0.7567317234187545	193.7944279280566	0.06142188884594191	-0.320024131943633	0.3814460207895749	94.20812253869362
16	6.0	perception	342	diff_vonmises	0.2528683992503147	14.4882920492721	0.2930703435037899	7.372822292709878	1.6478983977583748e-07	8.865995609042061	0.12869008265659976	-0.5542186473832428	0.6829087300398425	161.87820636786643
17	6.0	wm	342	diff_vonmises	0.18996172664438887	10.884005205741321	0.8285617877189055	1.603738362698612	1.120323150413615e-17	3.1664173888450824	-0.008239128282448493	-0.4094250073086524	0.4011858790262039	135.63902652070493
18	7.0	ltm	342	diff_vonmises	-0.4043374910563633	-23.166831736438287	0.8080282007843465	68.2408154082493	0.7784888029926755	69.80338141367388	-0.083091318214219	-0.3181393708810294	0.2350480526668104	85.8312611415589
19	7.0	perception	342	diff_vonmises	-0.18248697466159772	-10.455733464220344	0.7811447004056766	4.937429286964379	0.274939327635587	6.765212231425714	0.09038696440384197	-0.4920598322597427	0.5824467966635847	117.2848120313201
20	7.0	wm	342	diff_vonmises	0.5596953004755371	32.06817853055473	5.038540586394567	0.4041999606848768	0.007726470443259379	2.0525788050983946	0.022725456152976442	-0.3254133474310483	0.34813880358402477	60.42569346082922
0	1.0	ltm	343	diff_vonmises	-0.7596129856775965	-43.52261814265773	0.6910327367759015	0.8602918192460312	5.813490117827237e-09	3.011858476614381	-0.2360250641990685	-0.41825965982687885	0.18223459562781036	135.2630190047576
1	1.0	perception	343	diff_vonmises	-0.08290323005289468	-4.750005190032994	11.084457690200189	0.7719149571882818	0.00396687894267437	3.2453076951294832	0.49453232853675033	-0.5167775633619549	1.0113098918987053	40.70104769994964
2	1.0	wm	343	diff_vonmises	-0.04532523545561459	-2.596944697043435	4.281335454163008	0.46674742936810215	0.1063269625409662	2.4871510297010233	-0.06667599848003647	-0.3912874514892042	0.3246114530091677	61.62508352080556
3	2.0	ltm	343	diff_vonmises	-0.14750509598463502	-8.451419456591692	4.876538423777218	0.2648108382417708	4.3216451321828535e-19	1.2360316459262055	0.029828717050532416	-0.19670737624025292	0.22653609329078533	61.85320759082393
4	2.0	perception	343	diff_vonmises	0.016790066831883832	0.9619999672095327	6.766333893288301	1.702680781511193	0.5725893972732438	2.6819203363299846	1.0334220096190887	-0.46776921286370177	1.5011912224827904	48.80115571582115
5	2.0	wm	343	diff_vonmises	0.26349808394101115	15.097328119603834	3.142182696879576	0.5050202413499421	0.05935208249685277	1.536687941050732	0.080279819155473	-0.23446353404245585	0.31474335319792884	74.43018890368276
6	3.0	ltm	343	diff_vonmises	-0.14631850094403795	-8.383432568774326	1.4778676158325137	84.6624873357203	1.4588638505322602	85.24703200044715	0.034305480964363255	-0.16077823006552805	0.1950837110298913	67.12782714060916
7	3.0	perception	343	diff_vonmises	-0.033445543310754215	-1.916288475228219	5.047601344777007	1.9186259378329427	0.6716442716119041	2.283120901272414	1.034773854776955	-0.349626713936275	1.38440056871323	55.68164340633217
8	3.0	wm	343	diff_vonmises	0.19634148936029383	11.249538683657594	1.2315465572811448	120.64682422127599	1.2166836729585793	120.9676708728026	0.2073854571788729	-0.14317022511713873	0.35055568229601164	80.83960114480212
9	4.0	ltm	343	diff_vonmises	-0.6008650585939177	-34.4270319143124	1.0639384386183361	139.5518383085933	1.0441317103292325	141.20751812941256	-0.05939855227738633	-0.3640530946288507	0.3046545423514644	75.452784002152
10	4.0	perception	343	diff_vonmises	-0.025211717857336738	-1.444525027500006	3.004493367752181	1.9701659789496915	0.21915207866576114	2.957830368257254	0.7122403711933134	-0.4102113914270547	1.122451762620368	74.01253421781445
11	4.0	wm	343	diff_vonmises	-0.18832713509216162	-10.790350008570961	0.732494482794899	165.75868943926164	0.7196271795193276	167.62000953261565	-0.1296978490867957	-0.3661596408823158	0.23646179179552007	87.99422248753578
12	5.0	ltm	343	diff_vonmises	-0.0796113968719869	-4.561397041905853	1.1506839358845056	113.49999293281725	1.1285721911559896	114.33856772463727	0.16068811339955857	-0.2455220330415102	0.4062101464410688	79.84988440116808
13	5.0	perception	343	diff_vonmises	-0.12465209053389258	-7.142038695074685	1.153762579819334	75.75900476984629	1.0895157226761694	76.43705746556127	0.6656681566854097	-0.3845045548475472	1.0501727115329569	85.7367080272139
14	5.0	wm	343	diff_vonmises	0.15040872926334878	8.617785388715724	1.0585752786123714	1.4707967079014432	1.1467563053631375e-14	2.0416960059230798	0.19388177953206492	-0.26248962062246894	0.45637140015453387	125.99012862541367
15	6.0	ltm	343	diff_vonmises	-0.4934782749915192	-28.27422243841029	0.7213400531857991	132.23402225070217	0.7108411225825808	132.67028614682886	0.13973673607891612	-0.15999828903721003	0.29973502511612615	103.76161636459231
16	6.0	perception	343	diff_vonmises	0.14271287454627476	8.176845393681537	0.17788433468218287	140.07327001620436	0.1639059906136611	140.60833803285772	0.23611028352350516	-0.3547641284611416	0.5908744119846467	159.70494471762743
17	6.0	wm	343	diff_vonmises	0.22435542729843944	12.854619095054757	0.06478985805877563	19.472549082510856	9.895090298863167e-10	20.108166003073585	0.10281154640160217	-0.2986340629798798	0.401445609381482	174.72894938382677
18	7.0	ltm	343	diff_vonmises	-0.06636073422121809	-3.8021899962651684	1.053727857182053	56.263408053859905	1.0210707154005771	57.37038217551836	-0.03629983778543533	-0.24322436863735497	0.20692453085191964	76.26510474514214
19	7.0	perception	343	diff_vonmises	-0.14329870505041295	-8.210411009078676	2.3804878506497933	1.2087456383405104	4.116826292346409e-14	2.4225866112242525	0.3065250338895475	-0.3796440385317682	0.6861690724213156	89.12783661855958
20	7.0	wm	343	diff_vonmises	0.2653025044844726	15.200713801210878	0.6720817754787063	73.4092376005736	0.6491173511636031	74.58525054771854	-0.002623764626630276	-0.2631463702824881	0.26052260565585783	98.94254774076458
0	1.0	ltm	344	diff_vonmises	-0.016311624238344327	-0.934587225860426	5.775225710573771	0.30974512283551175	3.9837714800866205e-20	3.55376884780384	-0.2756868681999201	-0.5655970863594972	0.2899102181595771	56.72362049613611
1	1.0	perception	344	diff_vonmises	-0.07623540362166241	-4.367966876997607	10.726002118978439	0.7626740890047109	0.0666246931743071	4.034759807827132	0.298488560492556	-0.6585816787048586	0.9570702391974146	40.77721981100723
2	1.0	wm	344	diff_vonmises	-0.13075302484024717	-7.491596481915378	3.7939414182532425	0.602053857815412	0.09615261482763439	3.6629040672234687	-0.19071144121342753	-0.5724501721929589	0.38173873097953137	64.77267083585951
3	2.0	ltm	344	diff_vonmises	-0.04662737899169407	-2.6715520259810304	2.4395413128073513	0.5643222030136174	2.3246644287782795e-19	2.377138527699275	-0.05051505123600242	-0.37584042134903517	0.32532537011303275	88.06401658039343
4	2.0	perception	344	diff_vonmises	0.0029935070634295358	0.17151532067711323	6.467217246787425	1.5222657375787312	0.3517401330800437	3.3323035502533904	0.7808978201273366	-0.5608223325784008	1.3417201527057374	50.4003229542798
5	2.0	wm	344	diff_vonmises	0.15267711071260193	8.7477540720837	2.9783744969041535	0.7618387661772573	0.12971738814187794	2.4772218697154336	0.04991586354489186	-0.3688822074956323	0.41879807104052413	73.19832381698106
6	3.0	ltm	344	diff_vonmises	-0.20019811786822203	-11.470507220311715	1.295387553031405	3.830178126139915	0.6672666600743353	5.269395367800686	0.052516613073988916	-0.3385774041557782	0.3910940172297671	83.01160297890581
7	3.0	perception	344	diff_vonmises	-0.056033304486988365	-3.210471859275892	3.3863463761188197	2.845833686361891	0.5205797662825774	4.129326063986904	0.9609845929736014	-0.5530990047157464	1.5140835976893476	66.02302895577128
8	3.0	wm	344	diff_vonmises	0.05206716632372596	2.983228881555188	0.9625561502202463	133.19775595201682	0.94016230613335	134.21658186007733	0.22981525861140284	-0.30905344971559856	0.5388687083270014	88.37617521548287
9	4.0	ltm	344	diff_vonmises	-0.3118793971637845	-17.86937317456923	0.6698692608565437	114.40734758550082	0.6458900037819046	117.01845365761834	-0.19442993753434834	-0.5068917367672814	0.31246179923293305	91.99120427352265
10	4.0	perception	344	diff_vonmises	-0.07801954443298893	-4.470190615543664	1.621475981321641	5.440527793156973	0.5335998861235466	7.361372008149848	0.6079296021900795	-0.6307675546262399	1.2386971568163194	85.58774817636919
11	4.0	wm	344	diff_vonmises	-0.20836877112563906	-11.93865116782653	0.5962386940176799	164.96084012382386	0.581427486701967	167.59388824750104	-0.22805347022202938	-0.4985489255404296	0.27049545531840025	95.49756441457029
12	5.0	ltm	344	diff_vonmises	-0.13158731572040694	-7.5393978282347875	0.9816460444264784	6.506154278522965	0.5811330202187328	7.822754894347025	0.15111116267680957	-0.3524568672462908	0.5035680299231003	96.00905731168429
13	5.0	perception	344	diff_vonmises	-0.09055890415705867	-5.188643005529188	1.0243690549303974	272.9249394510434	1.003059013761792	274.30434817041277	0.6267273309113648	-0.5308896882498502	1.157617019161215	87.97062979618295
14	5.0	wm	344	diff_vonmises	-0.07445534730430174	-4.265977162717241	0.4289465297547601	146.40194191913577	0.41420972101183284	147.56616536435797	0.12887766369355802	-0.37739671108519346	0.5062743747787515	129.10601457333496
15	6.0	ltm	344	diff_vonmises	-0.4224187231241431	-24.202810022318673	0.7177121273470429	194.64035055717926	0.7066757768305278	195.8787342369677	0.055669191435512744	-0.299498061008002	0.35516725244351477	97.64000131714072
16	6.0	perception	344	diff_vonmises	0.03587231110316026	2.055332027591365	0.32311980004915136	151.7674674905231	0.30646669349251576	153.03748815698532	0.1857876049703151	-0.4763594167316043	0.6621470217019194	142.29839062730792
17	6.0	wm	344	diff_vonmises	0.15395608559212237	8.821033934783474	0.5449932071873105	2.3678869318559936	3.840809806252586e-15	3.72715981537447	0.011029270429634308	-0.39004159714128567	0.40107086757092	149.4233887609086
18	7.0	ltm	344	diff_vonmises	-0.5522151160619544	-31.639595533676903	3.1352520783582927	0.47095771410666354	1.0228516228334483e-10	2.044309418582413	-0.009101203074018294	-0.32476373894518507	0.31566253587116677	77.50693539607428
19	7.0	perception	344	diff_vonmises	-0.08880722588885234	-5.08827923369618	0.5273059671337437	291.32141863097314	0.5152779851156076	293.3184653462026	0.15853329457505083	-0.5656812640873383	0.7242145586623892	116.76121140841241
20	7.0	wm	344	diff_vonmises	0.2669377358615456	15.294405657644527	0.8612120888756094	161.52905027511775	0.844907171483856	163.33773519187753	-0.06219961886586134	-0.3819936418153418	0.31979402294948045	84.25012681596678
0	1.0	ltm	345	diff_vonmises	-0.15594391491517742	-8.934928165386875	0.5461325991397225	1.3300678899541947	9.392820924938347e-29	4.760971416646697	-0.4180464035423982	-0.6437825199121618	0.22573611636976365	149.44068739265634
1	1.0	perception	345	diff_vonmises	-0.0580035447693262	-3.3233583120805132	7.504707124550382	1.27539926391682	0.23067253309092986	4.64267808517722	0.4505384174311241	-0.7870324584938572	1.2375708759249813	47.10815560568432
2	1.0	wm	345	diff_vonmises	-0.10188404160457745	-5.837525583677576	6.247380148622861	0.36200877034999274	0.017059730388197632	3.545136962548405	-0.22077525055274355	-0.563896933072949	0.3431216825202054	53.60217269134503
3	2.0	ltm	345	diff_vonmises	-0.1876979385406996	-10.754299701688002	1.8832966594472593	0.7094165522053472	2.9390113476590774e-24	2.992949655390897	-0.12346247789849008	-0.4681800721338031	0.344717594235313	99.74734726658693
4	2.0	perception	345	diff_vonmises	-0.04867411903329281	-2.7888215921250685	8.151487883532113	1.2913104440332417	0.14314524052289687	3.5450330392012406	0.7990572642754633	-0.5835450880004711	1.3826023522759345	46.42151146460458
5	2.0	wm	345	diff_vonmises	0.12682251638696385	7.26639493620175	2.7884951270592127	0.6599549158369477	4.660277668480879e-17	2.866358280480761	-0.04171547792315672	-0.4546266296944744	0.4129111517713177	82.33335489435723
6	3.0	ltm	345	diff_vonmises	-0.15495814299229949	-8.878447594643474	1.622894381598333	1.0423986988043983	1.874954968033684e-17	2.454123928148366	0.08304908061490551	-0.3721434944507133	0.45519257506561883	106.70811466209614
7	3.0	perception	345	diff_vonmises	-0.1051822269721851	-6.026497685293298	1.324745683294526	299.65645832228705	1.299208489943131	300.81293637746893	0.9286081228445084	-0.5772833853115067	1.5058915081560151	78.56391616885085
8	3.0	wm	345	diff_vonmises	-0.12191165199969697	-6.98502313305026	1.0799074828312243	207.10608448491683	1.0636144808322392	208.05137263199705	0.29947245397227107	-0.31569865385372253	0.6151711078259936	84.22514076808724
9	4.0	ltm	345	diff_vonmises	-0.08255569461083588	-4.7300928759718115	4.430290256883529	0.5756128021292957	0.21029802012887522	3.33514727153331	-0.180086680392257	-0.5388219022278427	0.35873522183558565	57.302257875936704
10	4.0	perception	345	diff_vonmises	-0.17887624503890057	-10.248853895876932	1.9769007374926073	3.588119869103777	0.3470012446958585	5.498140469134512	0.6364682802196961	-0.6248226326492661	1.2612909128689622	84.12111698065776
11	4.0	wm	345	diff_vonmises	-0.520768891736784	-29.837859598223012	0.7752090020504805	176.75821463282855	0.7589809946597144	179.38513913600627	-0.22935079502508415	-0.5057208996902673	0.2763701046651832	83.17596793804412
12	5.0	ltm	345	diff_vonmises	-0.2543474338415477	-14.573034489103609	0.5413739122379962	147.5428588778561	0.5264363489338556	148.85595604696115	0.0834448519045452	-0.3565146602672069	0.4399595121717521	114.6922962097333
13	5.0	perception	345	diff_vonmises	-0.09252901203177552	-5.301521871935952	2.8746054501745815	2.258553144624705	0.11884992380191092	3.6261783298448482	0.7958363748942987	-0.5227956572138057	1.3186320321081044	77.43741360234446
14	5.0	wm	345	diff_vonmises	-0.34730887517269626	-19.899332734831436	0.5140538041908632	126.74227621464638	0.4967392101954488	128.07248791215707	0.08309262813429541	-0.3675626688594136	0.450655296993709	117.7559915080437
15	6.0	ltm	345	diff_vonmises	-0.266296337480321	-15.257656237413832	1.4571558926484245	0.64427503284951	8.052066390776956e-10	1.9703688989423855	-0.0393785923040777	-0.29871970080571125	0.25934110850163355	111.55555558484741
16	6.0	perception	345	diff_vonmises	0.16165727891319595	9.262279809295327	0.00014190985665831738	13192.798503582122	7.892085684110646e-30	13193.923757586941	0.11888570877954407	-0.4770440415691155	0.5959297503486596	179.07597684251223
17	6.0	wm	345	diff_vonmises	0.15256256797957468	8.741191256907344	0.32586313473978035	2.2438088968594827	4.181437685448495e-10	3.5904473739249663	-0.08963205615424313	-0.3203451323371557	0.2307130761829126	160.99816105983598
18	7.0	ltm	345	diff_vonmises	-0.5188069219136247	-29.725447007823956	0.6351763851896078	46.913023852610905	0.5922611884240649	47.881114241315686	0.12585789002678638	-0.28378619936175875	0.40964408938854513	108.80706617972561
19	7.0	perception	345	diff_vonmises	-0.1473974270352	-8.445250480204459	0.5732539789136143	286.8811558717485	0.5618437158415527	288.4665029457874	0.20782234041887193	-0.48055636914573086	0.6883787095646028	113.39381153596906
20	7.0	wm	345	diff_vonmises	0.1963187037875741	11.248233166506965	0.9377685378445907	55.22377549793148	0.8901206910944557	56.54635147399096	0.07643402955035228	-0.3217040850310262	0.3981381145813785	86.1140351786909
0	1.0	ltm	346	diff_vonmises	-0.6057569548262965	-34.707316922243656	0.00041000055584075807	1510.8648545200385	8.598113876013576e-24	1511.9435724298405	-0.07308507661545605	-0.2702612886801319	0.19717621206467584	169.7728188525677
1	1.0	perception	346	diff_vonmises	-0.10383203331420669	-5.949137287165805	18.090032766467985	0.6686902062713941	0.08919392658362973	2.0175449201659963	0.7762196584046686	-0.337616117581856	1.1138357759865245	31.615062891211693
2	1.0	wm	346	diff_vonmises	-0.11925279711471751	-6.832681969803194	3.945877847895388	0.3279120953159756	2.123934703332082e-15	1.1568987591635942	0.06611761644169897	-0.18403260873037353	0.2501502251720725	68.94160901292491
3	2.0	ltm	346	diff_vonmises	-0.1345826848248133	-7.711019836001154	23.640685454105004	0.2390817882636128	2.906895480212535e-14	0.7244984108299478	0.34580703291649717	-0.1153075033458071	0.46111453626230425	27.82926270263971
4	2.0	perception	346	diff_vonmises	-0.013311079721100839	-0.762668688781255	8.010295016415945	1.3300224478384142	0.5644504029097039	1.8333711048420662	1.0021559939948084	-0.33100233748400865	1.333158331478817	45.60734557681292
5	2.0	wm	346	diff_vonmises	0.05566015212654269	3.18909180390701	4.54721530546222	0.3432720085758561	0.07994094696377294	0.8716786213734852	0.13286818277439164	-0.13556993838385895	0.2684381211582506	62.26636223943953
6	3.0	ltm	346	diff_vonmises	-0.21164652283560786	-12.12645250709953	2.4537064089897265	65.41486139772486	2.4209436019763912	65.66345756922368	0.15736340739887567	-0.1383333387583967	0.29569674615727237	55.76504904712948
7	3.0	perception	346	diff_vonmises	-0.033749673391777604	-1.933713845293831	3.8732376538584288	3.130405769722184	1.2489644157620639	3.1507663969079025	1.1418367518062433	-0.3532394574124938	1.495076209218737	58.82767654405549
8	3.0	wm	346	diff_vonmises	0.08471118802071974	4.853593551126418	1.8619667233237471	110.60533266038905	1.8423434402797036	110.75408113564129	0.2776065197465556	-0.13133623344077527	0.40894275318733087	67.07930610747755
9	4.0	ltm	346	diff_vonmises	-0.43090587518126783	-24.689088015277694	30.32159913334396	0.1876565182626876	0.03951830272269202	0.9361351555571645	0.2553958768267812	-0.15320307207470507	0.4085989489014863	24.498714191490023
10	4.0	perception	346	diff_vonmises	-0.10362891056363426	-5.937499210834916	2.901166006312666	2.4488694138663045	0.3511789729350509	3.321722009690121	0.8450130236664428	-0.43053745180101577	1.2755504754674587	73.28797880174801
11	4.0	wm	346	diff_vonmises	-0.25753285981686314	-14.755545953440528	0.9565387497384567	105.52063638005009	0.9428558653850957	106.26134697088078	0.029109400726689216	-0.17602244922318455	0.20513184994987377	83.67038957808931
12	5.0	ltm	346	diff_vonmises	0.05040146010446622	2.887790945282912	1.6424149263928176	123.6257536778953	1.6218587691053712	124.10260856685089	0.21543537074874308	-0.19328216072239357	0.40871753147113665	68.40087737240171
13	5.0	perception	346	diff_vonmises	-0.05133151897949846	-2.9410793935209445	0.9683558412086462	150.50429813204548	0.9421154243821118	151.02388189671194	0.5778735631919858	-0.3339991038132464	0.9118726670052322	93.30397314536322
14	5.0	wm	346	diff_vonmises	0.06865576473246789	3.9336855584135333	1.9673797030196518	0.7890241964481141	6.182839916219934e-23	1.2294528808815204	0.20734328158920498	-0.18779434217880173	0.3951376237680067	97.76805192501024
15	6.0	ltm	346	diff_vonmises	-0.4261296840480194	-24.41543242119475	0.7980358462752715	27.936417046129367	0.73065036696356	28.54880875218619	0.18156306316765125	-0.2126617973814784	0.39422486054912964	100.07502033787797
16	6.0	perception	346	diff_vonmises	0.041533779526315595	2.379710274084751	0.7828145248681775	60.925089634325964	0.7395392762549482	61.45329120522326	0.3490845581531481	-0.2701716291480576	0.6192561873012057	103.07853721418701
17	6.0	wm	346	diff_vonmises	0.07259920648731792	4.159628127722104	0.00047184628740368407	2543.173364933035	3.6381064522989876e-25	2543.7319553395428	0.10210320774046977	-0.27986299965022	0.38196620739068976	179.74112846876682
18	7.0	ltm	346	diff_vonmises	0.087507727407952	5.0138234552569285	1.564165863238713	171.16352429992247	1.5471079617185097	172.18529796979576	0.05380843091010945	-0.2874786913852745	0.34128712229538394	64.95887986696582
19	7.0	perception	346	diff_vonmises	-0.25806674136670177	-14.786135113006186	0.735461537406233	43.803905241378736	0.6758803014267073	44.692756398940844	0.24868443142577412	-0.3109720281739601	0.5596564595997342	104.03623192150435
20	7.0	wm	346	diff_vonmises	0.7039934332763929	40.335852531662034	11.723014268219885	0.2244265475376045	6.493939406048048e-15	0.8428410674610726	0.16894498940276834	-0.13414232210735974	0.3030873115101281	39.61241105876857
0	1.0	ltm	347	diff_vonmises	-0.4698568085467892	-26.920812105217365	0.9893446245913246	1.0052277933736837	2.0238700565203748e-11	2.3633481706609007	-0.034669167147854174	-0.3289302002894128	0.2942610331415586	127.27348966359001
1	1.0	perception	347	diff_vonmises	-0.07631546752991192	-4.372554201031626	11.390376823967614	0.8941713917675393	4.925845632436712e-19	2.4528685519758398	0.799478856202456	-0.39038615464950677	1.1898650108519626	40.194264004400395
2	1.0	wm	347	diff_vonmises	-0.14772650761944917	-8.464105408801634	6.616606721350342	0.3168783654702096	0.01236345071496309	1.6224977424835256	0.05703848030475356	-0.2577955578967111	0.31483403820146466	52.57050652526971
3	2.0	ltm	347	diff_vonmises	-0.07343834680046882	-4.207707326084936	2.3380630776646276	0.8747184105790087	0.4671168819180474	1.5802525093498785	0.11530700640133296	-0.19050011817446266	0.3058071245757956	74.32935640538682
4	2.0	perception	347	diff_vonmises	0.005197501748764369	0.2977949142160631	5.729670071885186	1.7063630196428536	0.47942865011775665	2.1441332451601567	1.069530529229932	-0.3436136597700186	1.4131441889999505	53.702667302625315
5	2.0	wm	347	diff_vonmises	0.05166966740319615	2.9604538710478234	1.7666297243903173	1.2100864703654526	0.3809318644651381	1.9913968290743982	0.13147369244609358	-0.2144886441140299	0.3459623365601235	85.21404194344089
6	3.0	ltm	347	diff_vonmises	-0.13446309163828907	-7.704167651154794	1.4844251964612285	159.39460941855145	1.471356530418881	159.9563987995457	0.12554158253594494	-0.18126031264280584	0.3068018951787508	69.98903531504263
7	3.0	perception	347	diff_vonmises	-0.018876087554931562	-1.081520150616996	3.787361865401944	2.5910820672188475	0.6137785257830944	2.769790548659778	1.1906674853185941	-0.3637942337682423	1.5544617190868364	63.84612008410656
8	3.0	wm	347	diff_vonmises	0.032862676171340595	1.882892648122955	1.0279655248086328	117.22418303897685	1.0100721367136622	117.61861288043397	0.2605870746671357	-0.18163772395381805	0.44222479862095376	88.93439023867654
9	4.0	ltm	347	diff_vonmises	-0.36312109727578035	-20.80530632606163	8.027402589457461	0.3417650199783991	1.5622973814896699e-21	1.5089908747620218	0.1397211646498885	-0.2401633163247126	0.37988448097460115	47.97426476565391
10	4.0	perception	347	diff_vonmises	-0.0746688519603188	-4.278210078413411	2.609618235945524	2.5325402085829243	0.098892460212677	3.3408865104330063	0.9449554688152322	-0.47683585594813754	1.4217913247633698	82.11937273373991
11	4.0	wm	347	diff_vonmises	-0.3082912466393075	-17.663787293259045	0.8704189828331428	187.05176304178252	0.8564030932759303	188.34044362936817	0.0948718672087665	-0.320676607150272	0.4155484743590385	89.3055944312972
12	5.0	ltm	347	diff_vonmises	-0.010376852327970497	-0.5945498430232126	1.1895602003665537	66.33595561486685	1.1624873997382912	66.62282483254239	0.2261048809324926	-0.1422085919453986	0.3683134728778912	83.11196837908997
13	5.0	perception	347	diff_vonmises	-0.0936711796910114	-5.3669632583065034	1.777414438929285	3.259480171877193	0.4307683628566118	3.1671091153234014	0.8245712386438958	-0.280710737732286	1.1052819763761819	90.61979191652514
14	5.0	wm	347	diff_vonmises	0.16215798302046444	9.290968041426678	0.39065466869624804	104.00397960468145	0.37545627436444146	104.3450774297992	0.212578721269562	-0.2325176823951285	0.4450964036646905	136.55101930555207
15	6.0	ltm	347	diff_vonmises	-0.46898551951242545	-26.870890920812297	0.5607702727590788	77.7814229152201	0.5473907727079069	77.9508859821883	0.1526555709138293	-0.12632019362242541	0.2789757645362547	119.96692598921175
16	6.0	perception	347	diff_vonmises	-0.039670365486656686	-2.272944514126872	0.36419303651211155	147.5530920925666	0.35209567036746997	147.5776026848424	0.3189328476781981	-0.22891800894739056	0.5478508566255886	140.83574217552678
17	6.0	wm	347	diff_vonmises	0.07554004710928293	4.328125883581326	0.00029120487829497927	4147.410570081335	8.296007785109092e-31	4147.6019473753895	0.16177097322463396	-0.22266027222667617	0.38443124545131013	179.73676192039667
18	7.0	ltm	347	diff_vonmises	-0.035186592586096535	-2.0160432506296444	1.2006069648782824	83.21564640021569	1.1775966499202908	83.9492816438939	0.07916767938800717	-0.19707385193962956	0.27624153132763674	76.37238159103018
19	7.0	perception	347	diff_vonmises	-0.09723031331301818	-5.570886593570602	0.8547352858892128	84.64017292207915	0.8133635768741229	85.31702196990842	0.46112716350016214	-0.3379760849215412	0.7991032484217033	98.54190184352944
20	7.0	wm	347	diff_vonmises	0.18360503393947636	10.519793542088234	0.7683481269871542	87.41157307564679	0.7523944630584419	88.14016056843764	0.05163949441200799	-0.18246132538093462	0.23410081979294262	95.38328076891003
0	1.0	ltm	348	diff_vonmises	-0.22482399258088423	-12.881465908165199	0.3070126451802679	3.1723464858998245	7.906541455392436e-14	5.569432344794381	-0.2159622130641019	-0.5235811997364843	0.3076189866723824	161.58522457392965
1	1.0	perception	348	diff_vonmises	-0.060214690033871344	-3.450047603629288	8.410326147849295	0.891286366392764	0.01882025536083373	3.481784229942349	0.4500448395149125	-0.5549692512259943	1.0050140907409069	46.5936480894905
2	1.0	wm	348	diff_vonmises	-0.04411646061023959	-2.527687000021869	2.801574600497932	0.8648934485224579	0.16364623458610003	3.1530939870576495	-0.04249157473724896	-0.4656768282282422	0.42318525349099323	72.97977548720388
3	2.0	ltm	348	diff_vonmises	0.10855881898399436	6.219962156707556	2.276088617973685	0.41850667640517714	1.2092852912484793e-15	1.541255166829909	-0.011971413328487224	-0.242838044489511	0.23086663116102377	91.12411243988785
4	2.0	perception	348	diff_vonmises	0.03593927096240284	2.059168544922755	5.079572804141944	1.8833556024572964	0.568774201559105	2.7841128081790356	0.9240069543491414	-0.43903933430979514	1.3630462886589365	55.42203751813878
5	2.0	wm	348	diff_vonmises	0.35550712679991814	20.36905795245751	2.9492271895497377	0.6609838527081836	0.0806188107809923	1.577655844019872	0.15696168919371462	-0.2358321054657757	0.3927937946594903	76.4962823331991
6	3.0	ltm	348	diff_vonmises	-0.16345971767768355	-9.365551943331242	1.121582562822421	117.24190700702577	1.1074888920069346	117.990914556069	0.03770888810376505	-0.18534813520330928	0.22305702330707433	77.32496486091276
7	3.0	perception	348	diff_vonmises	-0.04433091113219641	-2.5399741098443718	5.120542157874143	1.5697327328087793	0.1601897669616021	2.108792164793744	0.9869064366709964	-0.32552652034543644	1.3124329570164328	58.721996009906604
8	3.0	wm	348	diff_vonmises	0.27461537908438394	15.734302210920381	0.6961138133550584	104.2753357586152	0.6803247525382412	104.51415078373714	0.24656822901479103	-0.17273050764994746	0.4192987366647385	109.61351241306434
9	4.0	ltm	348	diff_vonmises	-0.5250338454503702	-30.082223445830152	0.8271473313460418	152.99153999612824	0.8098743837763832	154.6728565431817	-0.00912032405196328	-0.37021448643491794	0.36109416238295466	88.12137850303485
10	4.0	perception	348	diff_vonmises	0.000661665430227856	0.037910636601764	2.3680432322145863	2.4787559454096044	0.21319310974154448	3.5352593133840844	0.7263772996244163	-0.4597673720307282	1.1861446716551445	82.483378684061
11	4.0	wm	348	diff_vonmises	-0.25819566273978456	-14.79352176357286	0.7711230528293113	208.2142082617123	0.7580804771305388	210.0507996773892	-0.02443566346716608	-0.3987108616185857	0.37427519815141963	90.81729559831047
12	5.0	ltm	348	diff_vonmises	-0.23460115301136983	-13.441655936454335	0.894264051738204	153.4686913410124	0.8801920473699648	154.2428619438993	0.16460942910796206	-0.23291654937741946	0.3975259784853815	91.43414542860592
13	5.0	perception	348	diff_vonmises	-0.10704507572479133	-6.133231056688845	1.1092880513580428	70.32742471532548	1.040132498296854	70.91078325673274	0.7094247365056745	-0.3834848597959688	1.0929095963016433	88.12517256303016
14	5.0	wm	348	diff_vonmises	0.06012293162520344	3.4447902340777805	0.34971626876903317	95.74878016938843	0.3306320869085988	96.19170446460785	0.2350019918796562	-0.2841090940332016	0.5191110859128578	141.14900818752133
15	6.0	ltm	348	diff_vonmises	-0.5420613213145833	-31.057825948610436	0.6293656130876497	133.5373262817248	0.617425045533197	134.04517343130692	0.1658977101275383	-0.20026663734579664	0.36616434747333493	111.31071391113385
16	6.0	perception	348	diff_vonmises	0.031065951646862853	1.7799479159227307	0.37719169529503865	174.23023483004104	0.3635378319611528	174.75004866231492	0.31833083392194794	-0.35435697702091673	0.6726878109428647	138.12275371154527
17	6.0	wm	348	diff_vonmises	0.254816768710157	14.599925396253251	0.00043476340576612075	3249.144720251329	6.980499087863522e-25	3249.76678474216	0.12583805160215888	-0.32379846107687626	0.44963651267903515	177.86659197014006
18	7.0	ltm	348	diff_vonmises	-0.7984694338892001	-45.748928632051275	0.00017007289220055544	5207.246119248635	1.4827561769546436e-32	5208.577087612511	-0.07087612189570791	-0.35277228114512127	0.28189615924941336	162.61192176892348
19	7.0	perception	348	diff_vonmises	-0.10945424998333841	-6.2712665738151525	2.1067261179405383	1.8222930364830143	4.026705340264715e-12	3.1671454916253143	0.46594068160789814	-0.48971472372434127	0.9556554053322395	94.62145784751908
20	7.0	wm	348	diff_vonmises	-0.2901254271278511	-16.62296250385619	0.0003096172023551418	4167.770147166831	1.5690734562701734e-29	4169.021897197037	0.006164902966702357	-0.4045775214474361	0.41074242441413844	177.58948897024607
0	1.0	ltm	349	diff_vonmises	-0.14597981350916273	-8.364027208181863	4.384880131003382	0.35855169453179564	8.166564996727134e-17	3.491069525254641	-0.26587399484074453	-0.5555759483247277	0.28970195348398314	65.31045551058267
1	1.0	perception	349	diff_vonmises	-0.034806205409750136	-1.994248670844097	8.516859669682901	0.9234924296666414	2.311992414868167e-14	4.2251359054612765	0.3860166055463232	-0.672451222222228	1.0584678277685513	46.554972347861195
2	1.0	wm	349	diff_vonmises	-0.14537668485638686	-8.329470481874395	6.081171664187138	0.4812152222200922	0.10844331120719083	3.811521428106754	-0.21135844583343005	-0.6196362314026447	0.4082777855692146	51.79161578376019
3	2.0	ltm	349	diff_vonmises	-0.015607159544153745	-0.8942243720673314	1.2634134103234107	2.1027102836857097	0.3937551629461243	3.7456220513048613	-0.028779114648392	-0.3507501745132419	0.3219710598648499	89.79586059051161
4	2.0	perception	349	diff_vonmises	0.01561650202679919	0.8947596568930897	5.572178072772232	1.8938458093850161	0.38912007909524193	3.543895106813225	0.9377149305254028	-0.5761362019056653	1.5138511324310682	53.9221293480268
5	2.0	wm	349	diff_vonmises	0.008318884101799413	0.47663694929158507	1.8193000621948858	1.728242527934647	0.34723249448078664	3.644460751075579	0.04513039765003357	-0.4304952713965414	0.475625669046575	81.96860604810547
6	3.0	ltm	349	diff_vonmises	-0.09621892822716817	-5.51293849668892	0.9363004188416847	142.49733985497093	0.9158820827875547	144.0486696385337	0.048000609481356094	-0.36352738796956174	0.41152799745091784	84.43181048653767
7	3.0	perception	349	diff_vonmises	-0.021241818593542856	-1.2170665545925239	3.0551880136305454	3.6424745051105667	0.6508760003204166	4.799295241685372	1.0897017184739308	-0.5811168132573024	1.6708185317312332	67.64760751831386
8	3.0	wm	349	diff_vonmises	0.014543665624677387	0.8332906589435103	0.8862477891683539	164.81206821588742	0.8659718254505674	166.19572287525418	0.19954476198046223	-0.3806092356589339	0.5801539976393961	90.64583397411866
9	4.0	ltm	349	diff_vonmises	-0.5221080250554996	-29.914586285590765	0.615498273351484	205.30395686741653	0.6007321007057368	208.2536159502724	-0.2094825923838144	-0.5767549520634638	0.36727235967964944	96.4219196113301
10	4.0	perception	349	diff_vonmises	-0.048856346132343534	-2.7992624358135876	1.7815876796145862	4.347864570495486	0.3505059056570805	6.051505335520405	0.7645905952159173	-0.6399760089638392	1.4045666041797564	88.34253908103295
11	4.0	wm	349	diff_vonmises	-0.10026258365890657	-5.744622886732682	0.5303211853355093	34.25143087093115	0.44434602041349747	37.55702588930656	-0.232213059729796	-0.6616309798421169	0.42941792011232094	109.03800323165224
12	5.0	ltm	349	diff_vonmises	-0.08406519394265136	-4.816580816862656	0.793777020346865	55.95567961420649	0.7509503139811422	56.83958241328587	0.19748202693010697	-0.27776587653492424	0.4752479034650312	98.44830080958414
13	5.0	perception	349	diff_vonmises	-0.11007044692793362	-6.306572058089314	1.0718141728658601	221.25353593090026	1.0462553109131174	222.00176195143217	0.8014255235718935	-0.4540590564073739	1.2554845799792673	88.49238066353533
14	5.0	wm	349	diff_vonmises	0.09765089206864465	5.594983981220863	0.3120634216940535	176.98265302320996	0.30071721816358493	178.08323257929084	0.12856600744540714	-0.3914157326006169	0.519981740046024	142.89047801798364
15	6.0	ltm	349	diff_vonmises	-0.49920901167072557	-28.60256946362963	0.6479868632293335	120.10762568914957	0.6377041173846516	120.65807687925592	0.08449378982447087	-0.16515045980126253	0.2496442496257334	106.79739519369484
16	6.0	perception	349	diff_vonmises	-0.06579122028344547	-3.769559251256921	0.14698574342728132	178.42130495220164	0.13599205311403942	178.96139182098767	0.23455723190213007	-0.36335277256625886	0.5979100044683889	163.5121305159866
17	6.0	wm	349	diff_vonmises	0.1005991212944998	5.763905072899485	0.2793067974513952	4.840100896741634	5.63110348835966e-17	5.5882172860976675	0.10956227391758	-0.31798607978284565	0.42754835370042565	163.8580504067187
18	7.0	ltm	349	diff_vonmises	-1.0563116232948193	-60.52219786540604	0.000201171464476493	4430.3842341488735	5.644686466097784e-28	4431.50510290049	-0.03654007179727614	-0.32022926690206077	0.28368919510478463	150.5710849474237
19	7.0	perception	349	diff_vonmises	0.02541232639376644	1.4560190499717243	0.6908779395622838	284.3517114697636	0.6770064100056167	285.9356856183814	0.3073970026494095	-0.4958323177460393	0.8032293203954488	104.29110568476412
20	7.0	wm	349	diff_vonmises	0.057275743089111666	3.2816583474816907	0.8646210959085951	162.08064864420953	0.8500033681434953	163.75780621462525	-0.07327968251947681	-0.3495944274630496	0.2763147449435728	83.28502457413663
0	1.0	ltm	350	diff_vonmises	-0.025362415843886	-1.453159386110398	6.392966912267383	0.3284743161233755	0.05005727591278681	3.3977274557404376	-0.24392440257227493	-0.5449539589093297	0.3010295563370548	51.74461591876806
1	1.0	perception	350	diff_vonmises	-0.09981157809143738	-5.718782171179795	14.698764943944573	0.5970196656984171	0.03200406284094063	3.70876869046756	0.29565901312188037	-0.5993870130635507	0.895046026185431	35.109773445971854
2	1.0	wm	350	diff_vonmises	-0.16266080859246718	-9.319777824533686	3.6694868119763733	0.6152854850982719	0.1261624291857386	3.462989365563098	-0.17161813912086005	-0.5395212191296004	0.36790308000874034	64.73692146797868
3	2.0	ltm	350	diff_vonmises	-0.07721969151419424	-4.424362419065507	2.9230720917311506	0.5463900643843954	5.238968308471483e-22	2.2967552160972557	-0.012977459862873297	-0.3645205153171232	0.3515430554542499	80.39482279237973
4	2.0	perception	350	diff_vonmises	0.010455979203761581	0.5990834790520976	6.514886700408327	1.5274528477629377	0.40001705612009597	3.361794914669961	0.7556181293948463	-0.5736386648349832	1.3292567942298295	49.856850195041346
5	2.0	wm	350	diff_vonmises	0.12381862658442924	7.094284728394131	3.2782937761534527	0.6831548048506366	0.12779063968592763	2.3823528574294075	0.04137501570846719	-0.36016692444880066	0.40154194015726785	70.03823801615172
6	3.0	ltm	350	diff_vonmises	-0.2033867471203094	-11.653202218888278	1.1207962411496037	93.07180558422364	1.0849493973913757	94.64784668661089	0.06062181649208753	-0.38350694632870663	0.44412876282079417	77.3261249761189
7	3.0	perception	350	diff_vonmises	-0.041464716835562895	-2.3757532733828044	3.519985154946107	3.0582157658859788	0.6093389059353761	4.578566044464131	0.9673951442472035	-0.6205831331227409	1.5879782773699445	63.694131744618886
8	3.0	wm	350	diff_vonmises	0.09217486241772335	5.281230593734575	1.8990974587431304	1.8617116836372192	0.43209009370181617	3.09209989578489	0.20684798678516902	-0.3357694822960677	0.5426174690812366	81.47704586106323
9	4.0	ltm	350	diff_vonmises	-0.3654871909645531	-20.94087350836085	0.6967161829245266	166.08927152059425	0.6793107096252943	168.76750297696938	-0.20086136398646914	-0.5202951129111604	0.31943374892469123	89.7801330687255
10	4.0	perception	350	diff_vonmises	-0.07728138184432266	-4.427897014618635	1.0213862140626122	309.1347036464636	0.999312940861706	311.2754066775931	0.5583609257460722	-0.6741322473590188	1.232493173105091	86.16488552318606
11	4.0	wm	350	diff_vonmises	-0.15210831954587034	-8.715164738805658	0.5695489097899207	63.770082720056024	0.5350734869621037	66.46431133893999	-0.2685708925880945	-0.4962863680660856	0.2277154754779911	96.00984117879936
12	5.0	ltm	350	diff_vonmises	-0.08773542807625292	-5.02686974254288	1.3848525223504153	3.170883737834872	0.5008359561267625	4.4920844337390955	0.19978322732901477	-0.362254436371785	0.5620376637007998	89.09644889582452
13	5.0	perception	350	diff_vonmises	-0.09059040335289033	-5.190447776508398	1.00338508170507	390.916253141839	0.9888503987112393	392.37767869017506	0.578899288519608	-0.5325808809182533	1.1114801694378613	88.29530903680816
14	5.0	wm	350	diff_vonmises	-0.030403089264343656	-1.7419686990063943	1.1119398069752535	1.6022938564185385	1.570090401823676e-14	2.755664897026035	0.14267886013164616	-0.37569096038304495	0.5183698205146912	124.05573551436447
15	6.0	ltm	350	diff_vonmises	-0.4111639015149929	-23.557956244941728	0.817222490909994	212.14710502531997	0.8060769257514078	213.3832585731838	0.07469876794579022	-0.3023852342216209	0.3770840021674111	91.76750400916052
16	6.0	perception	350	diff_vonmises	-0.03659355235886054	-2.096656107553707	0.4896893504335213	180.96550359948162	0.4741770639687771	182.34481704844183	0.18946419357233424	-0.4508707660502367	0.6403349596225709	122.79824285824023
17	6.0	wm	350	diff_vonmises	0.16848470337944382	9.653462416155689	0.5980455254394426	2.1875843120863	3.6307332280025426e-18	3.553511969932358	0.014551660622559193	-0.39014485443350516	0.40469651505606435	146.67519535957717
18	7.0	ltm	350	diff_vonmises	-0.30068548174182813	-17.228009064664725	1.0811618195692563	151.70827300923412	1.0613738329058109	153.47882675280536	-0.06160938530873494	-0.3916253419265985	0.33001595661786354	74.89550789296122
19	7.0	perception	350	diff_vonmises	-0.09372725720966389	-5.370176263450857	0.4670743112479703	202.37422995015476	0.45117164912885804	204.54053211199164	0.08256315977207151	-0.5847775020552248	0.6673406618272963	122.4177125272946
20	7.0	wm	350	diff_vonmises	0.3420381922885973	19.597344850420725	0.9250252717544242	146.60483363433013	0.9072515120779737	148.54556527662456	-0.13314737725502113	-0.3957847322825252	0.26263735502750407	78.26287572637847
0	1.0	ltm	351	diff_vonmises	-0.1620672850803462	-9.285771432247373	0.0004662855316813403	2312.076103757795	6.085470808600425e-25	2313.1263993611205	0.004441102629300531	-0.33872057524502	0.3431616778743205	179.22350848535802
1	1.0	perception	351	diff_vonmises	-0.07033731190929988	-4.030031114698145	12.05156086467958	0.9594485172748979	0.13184240798428556	2.1713433223025276	0.9218710820076738	-0.36445423788882103	1.2863253198964948	38.575865438218415
2	1.0	wm	351	diff_vonmises	-0.024846452317021792	-1.423596853638394	3.040977111100722	0.4608057161626912	1.5294837312433938e-20	1.2852783379882242	0.09956499378720077	-0.2038637558296357	0.30342874961683647	78.79125860097193
3	2.0	ltm	351	diff_vonmises	-0.06006309902532095	-3.4413620786272188	5.93325803781018	0.301474820044073	4.5249803202527e-14	0.8192726231178393	0.1557724231950232	-0.13038927766761574	0.2861617008626389	55.95506684260738
4	2.0	perception	351	diff_vonmises	-0.030089881729337405	-1.7240232291388402	7.335029659487682	1.2845547804393935	0.2688643242424175	1.5676216377511365	1.0418339102995375	-0.2577806663138855	1.299614576613423	48.945455023366776
5	2.0	wm	351	diff_vonmises	0.046941910773653714	2.689573369610047	2.7012502055761107	0.6743642825806292	0.30021361383988565	1.0564876966760361	0.19381684770069751	-0.13860728528581018	0.3324241329865077	75.55545570179166
6	3.0	ltm	351	diff_vonmises	-0.20358101386967586	-11.664332883726702	1.6140682129882247	67.47213275497691	1.5936100006008949	67.69236884570726	0.1371650101544688	-0.1005353887873035	0.2377003989417723	69.9724718951189
7	3.0	perception	351	diff_vonmises	-0.04654825010976704	-2.6670182750090223	3.8898608287271643	2.1621394171105637	0.507646073638919	1.9419886546789642	1.1551421013992391	-0.25692055739539776	1.4120626587946368	64.74244002740443
8	3.0	wm	351	diff_vonmises	-0.08852269101735406	-5.0719765864350315	1.4196986148524728	78.99968071405992	1.3965868818956018	78.97793554710073	0.3343813977799499	-0.10711189152682188	0.4414932893067718	79.69845402994704
9	4.0	ltm	351	diff_vonmises	-0.3060741372347949	-17.536756281661706	21.4039973842218	0.22813877533510235	9.903783071535773e-20	0.8392512896607858	0.28469652309477733	-0.13357099124576213	0.41826751434053944	29.26050760845763
10	4.0	perception	351	diff_vonmises	-0.11103547800027116	-6.36186426563324	3.359554732515526	2.073341051194329	6.211513354533457e-20	2.601053743004786	1.033531715027554	-0.4122223033918387	1.4457540184193927	74.87481648023669
11	4.0	wm	351	diff_vonmises	-0.34288756524469177	-19.646010336037488	0.9492907272897375	127.38501799105882	0.9351530553345203	127.9632148577016	0.1517047591548888	-0.18346280706866835	0.33516756622355715	89.37674306265674
12	5.0	ltm	351	diff_vonmises	0.059582412793976414	3.413820786301128	1.2148639984928	47.61715260738151	1.182042787289574	47.983423807932816	0.15108609409523055	-0.13452156797912007	0.2856076620743506	80.32120761234549
13	5.0	perception	351	diff_vonmises	-0.041460766489111275	-2.3755269352035118	2.29100095002836	1.9277962548097791	4.268385811483626e-14	2.030405595734231	0.7557933422963804	-0.31210568529097255	1.067899027587353	90.84511075458593
14	5.0	wm	351	diff_vonmises	-0.034487531013171556	-1.975989972881266	1.172768782094782	1.1123108075937975	1.684088078188907e-12	1.4926312805980735	0.17855225654200724	-0.19769791062711561	0.37625016716912285	121.71102631475559
15	6.0	ltm	351	diff_vonmises	-0.37257038344956017	-21.346710543230536	0.3488130032373581	66.74752228765317	0.3265239960929008	67.30384453101631	0.14938462139769904	-0.2537541640108012	0.40313878540850023	139.1484710401097
16	6.0	perception	351	diff_vonmises	0.10956252150513034	6.277470075055288	0.49534511906092865	156.3202209238238	0.48039866402658404	156.49038411757988	0.39447405249554635	-0.2821292297631004	0.6766032822586467	127.83688445900914
17	6.0	wm	351	diff_vonmises	0.03147885664053983	1.8036056294002973	0.00039626947022856977	3260.332359021644	6.892059410547036e-31	3260.7310517924243	0.14218867413705993	-0.2690557844390469	0.4112444585761068	179.90907843413333
18	7.0	ltm	351	diff_vonmises	-0.014184491450994883	-0.8127114946814039	1.0881124334464756	123.49590081612949	1.072443366810134	124.18941412536037	0.11667040652395144	-0.19656065436149994	0.3132310608854514	81.69526834713108
19	7.0	perception	351	diff_vonmises	-0.12417130327731016	-7.1144916144288395	0.700062417408505	128.35961780250864	0.676924270417908	128.92537010644816	0.4072773620421799	-0.32169108107535216	0.7289684431175321	108.6433265878314
20	7.0	wm	351	diff_vonmises	0.21176855050423096	12.133444177495456	0.6403332881176407	66.06595695984477	0.6207256425280039	66.48660869001552	0.13248585456276984	-0.16233719590625117	0.294823050469021	110.68118241564247
0	1.0	ltm	352	diff_vonmises	-0.29355518969228434	-16.81947342353018	0.000589869115692249	1887.5671703464145	1.3817619980602417e-25	1887.8812519793448	0.1272435135982164	-0.22716653932189956	0.35441005292011596	177.51661931543313
1	1.0	perception	352	diff_vonmises	-0.10746541714277368	-6.157314845893778	12.721681270771004	0.9115044599996988	0.22542573485491266	1.322944856417341	1.0232447451555113	-0.23115366758467404	1.2543984127401853	37.50860105983028
2	1.0	wm	352	diff_vonmises	-0.0716901058549885	-4.107540498336953	2.926952542587359	0.4679271608530107	1.0338185296304231e-13	0.4689740411165316	0.22754620683292764	-0.0737726552479447	0.30131886208087233	80.3353617951067
3	2.0	ltm	352	diff_vonmises	-0.07901785564513741	-4.527389634640361	5.414158056509594	0.3870619474098711	0.5765724364537852	0.3852876879535015	0.24945953423238554	-0.0593256142077149	0.3087851484401004	55.14929367804069
4	2.0	perception	352	diff_vonmises	-0.017056750364314567	-0.977279808083454	6.343475919352407	1.3047868320571359	0.47204928993300127	1.0590752870164428	1.02720300297682	-0.16875467574246036	1.1959576787192803	52.13133366766465
5	2.0	wm	352	diff_vonmises	0.47993405775896064	27.498195954176325	1.5530573430750858	0.6060914461196624	5.8227306626153365e-30	0.3381041359816668	0.21429780757814118	-0.04180507781065455	0.2561028853887957	108.03645098306268
6	3.0	ltm	352	diff_vonmises	-0.18370157312637028	-10.525324830054881	2.5364132862499997	53.56169826291188	2.5109234005901344	53.56106689912299	0.18840894858595547	-0.06551981997921885	0.2539287685651743	58.62042524393706
7	3.0	perception	352	diff_vonmises	-0.04857291799864529	-2.7830231999574084	4.418360156829837	1.7776682263069101	0.2722767994701315	1.43640547911842	1.1478648934861526	-0.2074587759927606	1.3553236694789133	62.93414768543232
8	3.0	wm	352	diff_vonmises	0.047728967785585816	2.734668414629934	1.3528677276925998	47.840320712050215	1.3383969192962206	47.304424374576264	0.34154487671354516	-0.014730062238270003	0.35627493895181517	94.52197248507136
9	4.0	ltm	352	diff_vonmises	-0.31324429227668604	-17.94757590401652	18.94515816763314	0.2694021641410075	0.18474752574753484	0.452235676891727	0.3787878569590649	-0.07987646045818701	0.45866431741725194	30.865138172516907
10	4.0	perception	352	diff_vonmises	-0.1126659693553377	-6.455284538811118	2.9819549952691062	2.1363971474387546	0.0647974243843395	2.5554835375802396	0.9608233255382697	-0.37951429525629243	1.340337620794562	77.96195531483306
11	4.0	wm	352	diff_vonmises	-0.4848852648200678	-27.781879222273137	1.3976450502589814	94.264733106791	1.3809830983299651	94.41711038711225	0.21810317717844896	-0.1080048712179753	0.32610804839642427	77.5664966055671
12	5.0	ltm	352	diff_vonmises	-0.010745499541482937	-0.6156717724867335	1.7546592536357108	59.97543280206027	1.735241842263543	59.93229002042574	0.2133387111490066	-0.05943422152486377	0.27277293267387037	72.10440277744715
13	5.0	perception	352	diff_vonmises	-0.052007927289848446	-2.9798347349315737	2.079793239577742	1.8963198092432731	2.009728379808033e-15	1.5352320220265265	0.7573100584472146	-0.22869998739740355	0.9860100458446182	95.21950094185672
14	5.0	wm	352	diff_vonmises	-0.01202999727418565	-0.6892680713647223	1.2449612012088969	1.0506721686097917	1.7182169007991952e-13	0.7645820938131553	0.28535064626942186	-0.08793568568527042	0.3732863319546923	119.04442358157851
15	6.0	ltm	352	diff_vonmises	-0.3628504196145133	-20.789797638462556	0.3648260223619091	22.4041243555587	0.3058466645396799	22.613983721448765	0.19437361766085637	-0.19445924789201863	0.388832865552875	140.834947179817
16	6.0	perception	352	diff_vonmises	0.05904307986954436	3.382919285978723	0.6993150154816324	136.65072456684126	0.6848309782609748	136.56030556055728	0.4025633913092861	-0.17975861320647724	0.5823220045157633	112.942116461872
17	6.0	wm	352	diff_vonmises	0.10151277993422159	5.816253856871207	0.00022016137504928175	4455.474933234616	7.979658226375718e-33	4455.47069465357	0.15680120221338711	-0.15543483464932706	0.3122360368627142	179.58278333887944
18	7.0	ltm	352	diff_vonmises	0.11200234189133144	6.41726148595459	1.4032439834226271	127.960605794971	1.3831703523768324	128.60172760783695	0.19456841689183335	-0.21846071182538296	0.4130291287172163	73.19672456301967
19	7.0	perception	352	diff_vonmises	-0.2512679191345775	-14.396591293445752	1.1586033398390314	7.573931890247033	0.7193360234818557	7.757838119169502	0.5772689299684983	-0.2666744296210338	0.8439433595895321	95.9630251751586
20	7.0	wm	352	diff_vonmises	0.20963009570615704	12.010919742886319	0.7651980026536853	26.855754376998192	0.7241262716864714	26.78229566519142	0.23177856671864916	-0.09333889443026244	0.3251174611489116	109.6309954497064
0	1.0	ltm	353	diff_vonmises	-0.027004662102661937	-1.5472531656594084	2.472133440162115	0.5426814898659935	3.313677326027863e-34	2.9001126768711942	-0.1438574740857076	-0.45930351098884437	0.3154460369031368	87.48640100870963
1	1.0	perception	353	diff_vonmises	-0.11668449253701299	-6.685528956996596	12.374263358648252	0.69531908183446	0.11884867276314184	3.1416173511486543	0.40424471766936343	-0.5284615273524993	0.9327062450218627	37.80695445383148
2	1.0	wm	353	diff_vonmises	-0.08593389701719033	-4.92364961619686	2.5255934256954613	0.8554589358124612	0.1311800790427487	2.859714289092394	-0.009513459930837631	-0.4170159363316705	0.40750247640083287	78.09268403766657
3	2.0	ltm	353	diff_vonmises	0.016060135864697893	0.9201780034538762	3.1157901052619326	0.4617575744621153	3.510247599802122e-32	1.7971577550462217	0.0229830268442503	-0.285418918003329	0.3084019448475793	77.81468567473843
4	2.0	perception	353	diff_vonmises	0.009258800956241755	0.5304902181443434	6.127940069625607	1.3773247234938062	0.4161910885523913	2.5936389576873493	0.7301058488719836	-0.4334963269608786	1.163602175832862	51.50725565585273
5	2.0	wm	353	diff_vonmises	0.3519443898985927	20.164928164496047	3.5051226114612963	0.5530445168554928	0.03677198644855061	1.489217848444816	0.14956212407112626	-0.2305946164836106	0.38015674055473686	71.68485786170785
6	3.0	ltm	353	diff_vonmises	-0.24892221329975783	-14.262192249131372	2.4795430578712443	0.970217139508268	0.4860383404682058	1.906993652641015	0.10348306267983276	-0.2395622517706359	0.34304531445046865	71.46434849747573
7	3.0	perception	353	diff_vonmises	-0.07405568390352354	-4.243078136626805	4.345684865795339	1.851225377862596	0.2433174149214421	2.8045000254433003	0.927843418746875	-0.4212336129998313	1.3490770317467065	62.35092787774295
8	3.0	wm	353	diff_vonmises	0.1683332989357299	9.644787580531355	1.1603831177039066	3.2671883598134204	0.5746188509169263	3.5649183180091946	0.28513488561673017	-0.18113820851518972	0.46627309413191986	98.03529301002189
9	4.0	ltm	353	diff_vonmises	-0.2950776802411844	-16.906705706330712	6.192897396716086	0.38932618564020544	4.411644471494945e-33	1.9630929671408113	0.06559277317230139	-0.31243437022408177	0.37802714339638316	54.73935065203656
10	4.0	perception	353	diff_vonmises	-0.07149182747009498	-4.096179983713884	1.5032442538905533	6.573055195686055	0.6522003281611672	8.16543917769986	0.6016221942832787	-0.5599538677074215	1.1615760619907003	85.4955821425985
11	4.0	wm	353	diff_vonmises	-0.33108089375099414	-18.969537889351194	0.8205046427758487	179.04703540364773	0.8089169461033247	180.48926308335245	-0.0442153570221393	-0.3049866991628605	0.2607713421407212	86.58636550818625
12	5.0	ltm	353	diff_vonmises	-0.2283953897899479	-13.086091895209348	0.9528088893229429	117.41414882877822	0.9302133763772825	118.47703188384128	0.15497880516631568	-0.29173283499302727	0.44671164015934295	87.32665664926407
13	5.0	perception	353	diff_vonmises	-0.058818882109535515	-3.370073700553929	0.9617651099455602	286.5486784218547	0.9443909032278678	287.7736093277398	0.5395548896928233	-0.4702147167971482	1.0097696064899715	90.70459639444101
14	5.0	wm	353	diff_vonmises	-0.1244542954743143	-7.130705872952311	0.4662242612570586	136.51983843331476	0.45159643954600237	137.1794479189354	0.2138708596206058	-0.29687849387108756	0.5107493534916934	127.58175705151558
15	6.0	ltm	353	diff_vonmises	-0.4374394863288249	-25.06343635901234	0.7335929448173114	140.36458379226607	0.7143423098258371	141.74124887904895	0.11998741243552047	-0.3571477271423191	0.4771351395778396	98.46807285264413
16	6.0	perception	353	diff_vonmises	0.022881535947483177	1.3110154385676633	0.7093258386990653	238.5853178303004	0.6945401581656175	239.95959742644104	0.28278475101498657	-0.4338612164915219	0.7166459675065084	103.11801395517887
17	6.0	wm	353	diff_vonmises	0.26223424442366317	15.024915449277943	0.0005337192857744755	2184.0543593958105	1.343903337038789e-27	2185.350251771869	-0.02070049496609272	-0.39174535132957544	0.3710448563634827	177.7439970071713
18	7.0	ltm	353	diff_vonmises	-0.14705214592309807	-8.425467329735435	0.9802659169253825	192.99508557807857	0.9647038514315096	194.79667222579272	-0.03416186646421693	-0.39685868553400994	0.362696819069793	79.73721527521707
19	7.0	perception	353	diff_vonmises	-0.21588238850215902	-12.36914973237728	0.529850150637606	201.81985202924062	0.5115065782895429	203.66772750812885	0.23412750948409666	-0.575321306593775	0.8094488160778717	118.21266492700887
20	7.0	wm	353	diff_vonmises	0.4728555508645268	27.09262738387101	1.129653524663124	90.12154162332212	1.0971583309918052	91.33812173085445	0.1094148188704267	-0.3155969445784397	0.4250117634488664	78.59552749180338
0	1.0	ltm	354	diff_vonmises	-0.07099547328378056	-4.067740983694417	6.732206070270765	0.2779893902114137	0.0713936997701715	3.35608218939544	-0.290949832747324	-0.5440158566432116	0.2530660238958876	49.565833183205456
1	1.0	perception	354	diff_vonmises	-0.08114392650857061	-4.649204522060818	15.873640564693975	0.5768139277041012	0.006357305373058953	3.804030373211653	0.299830898460376	-0.6070377629484527	0.9068686614088287	33.94960847216805
2	1.0	wm	354	diff_vonmises	-0.13438974589696348	-7.699965249731579	4.308677600222538	0.4904445290235388	0.10111869855181524	3.438557251364888	-0.2113472522848378	-0.5445290318217408	0.33318177953690303	60.65835593388084
3	2.0	ltm	354	diff_vonmises	-0.11251815990398766	-6.446815681076616	4.23173197408972	0.41784217344668567	1.1262673098585753e-32	1.9966308456452453	0.013439671701241884	-0.3177037514352771	0.331143423136519	66.51558756224532
4	2.0	perception	354	diff_vonmises	0.007013557828942916	0.4018472629693657	7.129406394363407	1.5556754212252888	0.43063492660759495	3.3292696864741544	0.847111600723221	-0.5824959292957662	1.4296075300189872	47.786147841121846
5	2.0	wm	354	diff_vonmises	0.012659535508912982	0.7253379552567146	3.386784357302636	0.7337154707226001	0.18247749694284388	2.4727777511411277	0.0461447255389576	-0.3732719917851906	0.4194167173241482	67.52598454245648
6	3.0	ltm	354	diff_vonmises	-0.20198160578745097	-11.572693550896103	1.2562575570574694	121.28165181930716	1.2308320194686486	122.61301609199502	0.05343673122305859	-0.3359705542299807	0.38940728545303926	72.66794396513228
7	3.0	perception	354	diff_vonmises	-0.023318803693829215	-1.3360690349504885	3.599218853432983	3.4696741682832495	0.8588306068676335	4.651799763770292	1.052381503224119	-0.6006652623887353	1.6530467656128542	61.17141057275947
8	3.0	wm	354	diff_vonmises	0.06717036945749007	3.84857867824863	2.0410423010494374	2.275087413190973	0.6748319783000514	3.5252096864689837	0.20193830475358832	-0.34854824015271313	0.5504865449063014	74.02544212623832
9	4.0	ltm	354	diff_vonmises	-0.415011641284388	-23.778415494392707	0.6346209519845387	156.93302992782742	0.6186852158470214	159.49540730639472	-0.21505806899817514	-0.4879927007696381	0.27293463177146293	92.87213346840645
10	4.0	perception	354	diff_vonmises	-0.06471715870745434	-3.7080200560154597	1.8484053896617445	4.957083942902315	0.5753798630962859	6.826247316397618	0.6569352573095777	-0.6280314399304481	1.2849666972400258	80.96181089255526
11	4.0	wm	354	diff_vonmises	0.10090694529141747	5.781542088755716	3.0716836379814048	0.39161850978558127	9.750590753284144e-21	3.076833507175233	-0.22973646587334123	-0.4891349328992287	0.2593984670258875	78.38268459003254
12	5.0	ltm	354	diff_vonmises	0.014553934127116768	0.8338790007952066	1.136907236706733	8.869421016869342	0.7818282861106737	10.267847354349032	0.17674091298827221	-0.3733198176404696	0.5500607306287418	86.26431101984983
13	5.0	perception	354	diff_vonmises	-0.08928743614660639	-5.115793254744377	1.0068370328118492	389.93661472360014	0.9923878718093736	391.4079525815749	0.5652321195636887	-0.5294817163523291	1.0947138359160178	88.0278997031256
14	5.0	wm	354	diff_vonmises	0.06469280284116351	3.7066245676706098	1.1303068133231042	1.5276624303698276	4.937381449466931e-14	2.855013557567342	0.10503090738084003	-0.3960478085249168	0.5010787159057568	123.30425753424923
15	6.0	ltm	354	diff_vonmises	-0.4247126319812181	-24.334241318416748	0.8277725310978195	186.01174716324218	0.8153480582430039	187.16256182242734	0.08843241724342477	-0.288538733898168	0.37697115114159274	91.78528627548707
16	6.0	perception	354	diff_vonmises	-0.026860243276248016	-1.5389785764236583	0.49854652864566723	146.50586343812148	0.47886083026537113	147.811085877766	0.22114838409127202	-0.4501015317510504	0.6712499158423224	122.68470266587525
17	6.0	wm	354	diff_vonmises	0.13596179965608945	7.790037295297173	0.6186143961978381	2.525860949471298	1.4058009216273214e-15	3.8824663862035926	0.06174785240950609	-0.42068294038750836	0.48243079279701445	145.80220774266405
18	7.0	ltm	354	diff_vonmises	-0.23491867230234684	-13.459848451741303	1.179565622953311	169.79175510851178	1.163242678026709	171.41970340260306	-0.09208338280309647	-0.3626259261565181	0.27054254335342165	70.19003759531486
19	7.0	perception	354	diff_vonmises	-0.012708102266861164	-0.7281206255117789	0.4170111725861759	117.43055482491498	0.3942526361949156	119.38811119902579	0.046209855355762386	-0.5284219667622221	0.5746318221179845	128.53319948753145
20	7.0	wm	354	diff_vonmises	0.3289053786266406	18.84489005445886	0.7775447784625262	130.37370204235617	0.7620349391526283	132.16157855329496	-0.14379349878317527	-0.34784914553230806	0.2040556467491328	84.00269418386301
0	1.0	ltm	355	diff_vonmises	-0.41607829248862815	-23.839530106608215	1.0003429546337992	0.8230582853590548	1.4533218512174484e-17	2.995733498604442	-0.19548585151636433	-0.43874179199159047	0.24325594047522614	127.22587827553185
1	1.0	perception	355	diff_vonmises	-0.06716920997846595	-3.8485122449941143	9.462132753495005	0.792555368088175	1.335452975713663e-18	3.262861241990944	0.4397441157514115	-0.5193004894893516	0.9590446052407631	44.137453675881034
2	1.0	wm	355	diff_vonmises	-0.05337379048950059	-3.058092931663876	3.479191352297025	0.6352608928146244	0.12262010522232902	2.743458505469109	-0.03946254770183616	-0.421119673833337	0.3816571261315008	67.56026225695297
3	2.0	ltm	355	diff_vonmises	0.06936447205670475	3.9742914970023153	2.496505472786532	0.35174847662524783	5.834936323524477e-10	1.240305345307882	0.009735874712712117	-0.19599526176675214	0.20573113647946425	87.05069432359772
4	2.0	perception	355	diff_vonmises	0.037924504618456006	2.1729140547619274	5.650894902121289	1.8753725934475447	0.6662494058413958	2.607708167661806	1.0099400331925499	-0.4278385827837942	1.4377786159763442	52.53791865616327
5	2.0	wm	355	diff_vonmises	0.2534108743964736	14.51937358563775	2.576148745886024	0.7533227438053689	0.23331921270028122	1.603912233801532	0.13380890050570093	-0.21985522282669082	0.3536641233323917	76.64141674505782
6	3.0	ltm	355	diff_vonmises	-0.1796982046799197	-10.295948714237417	1.464961505672402	105.50921239028256	1.4490092715183571	106.12617390887277	0.035328355129060185	-0.16884850984032163	0.2041768649693818	67.36218567874405
7	3.0	perception	355	diff_vonmises	-0.026051877325891558	-1.4926626191661514	5.829223947880339	1.620663753220838	0.40863438194481766	1.9944190756053302	1.0657285925885505	-0.3185860575291962	1.3843146501177466	53.758919045958606
8	3.0	wm	355	diff_vonmises	0.2624868729732735	15.039389998955127	0.9503897724882873	109.03576158297564	0.9350199959087969	109.33641631524422	0.21937752969131452	-0.14928711574069453	0.36866464543200905	92.82629436348361
9	4.0	ltm	355	diff_vonmises	-0.6276146985286043	-35.959673386064544	0.8664157950751277	149.2680733574905	0.8492476504659384	150.79719698322845	0.010200637739110618	-0.3438680466426334	0.354068684381744	86.67222099595236
10	4.0	perception	355	diff_vonmises	0.017571754933242506	1.0067873963129792	2.5618874057574383	2.4819717682360354	0.2889219143846838	3.390876517259032	0.778248174460489	-0.4316319134902809	1.2098800879507698	78.32232854584257
11	4.0	wm	355	diff_vonmises	-0.10268595472096594	-5.883471820782819	0.6855122527682597	170.2233877990602	0.6713152615978607	171.98904852543706	-0.032656440938680475	-0.38162979219486104	0.34897335125618056	96.37043520364264
12	5.0	ltm	355	diff_vonmises	-0.10386939821730755	-5.951278138415399	1.0781478510201723	130.1611187050413	1.0600155154493125	130.9147375402553	0.17739483464621486	-0.23050574491104925	0.4079005795572641	83.28943219833656
13	5.0	perception	355	diff_vonmises	-0.10864923950730693	-6.2251428710747305	1.0807849803066587	228.20249963049378	1.0606075722214041	228.7575489734146	0.6689666405849835	-0.3630526990840046	1.032019339668988	88.27026051158629
14	5.0	wm	355	diff_vonmises	0.20331067503721365	11.648843609588123	0.8258011590352671	2.1028824645663518	1.0744388610362027e-12	2.577108538545492	0.2387193203097014	-0.2857380895903482	0.5244574099000496	135.70799726108086
15	6.0	ltm	355	diff_vonmises	-0.5678851544997732	-32.537422600971695	0.7259997298113324	116.71251759738921	0.7124307898286574	117.04246283389995	0.20738677017075702	-0.1687024068083982	0.3760891769791552	105.89437391179275
16	6.0	perception	355	diff_vonmises	-0.05752728911084656	-3.2960708728804065	0.6047015684435807	158.46015342618864	0.5882517662959311	158.88148818208356	0.3822250659941133	-0.30348834388241563	0.685713409876529	116.95081158879388
17	6.0	wm	355	diff_vonmises	0.1797804429757862	10.300660621504916	0.194431280523196	8.535825944467335	6.09510796030234e-16	9.016172516961547	0.19962649225422702	-0.3269892313609266	0.5266157236151536	168.01025708279343
18	7.0	ltm	355	diff_vonmises	0.07181119778159678	4.114478554664716	1.0874543447522071	81.4132516985342	1.0616096856396608	82.74705091184909	-0.07617431027901134	-0.2879655717690568	0.21179126149004546	73.22342478153314
19	7.0	perception	355	diff_vonmises	-0.0968198865893419	-5.54737087450457	2.4270169211274792	1.4621777688486715	1.0583958185262027e-21	2.7468287067352506	0.4096112504935804	-0.4305681186091104	0.8401793691026908	88.28770851172393
20	7.0	wm	355	diff_vonmises	-0.25462863050195866	-14.589145870958331	0.0005408368390235012	1746.6093469959667	2.3230020520259807e-20	1747.9243189071717	-0.0589251811786653	-0.35960272697496976	0.30067754579630446	178.12393159187266
0	1.0	ltm	356	diff_vonmises	-0.19314889402092716	-11.066616445018747	0.000234643789471881	3417.6845777682943	2.1627230354489333e-31	3419.447232507231	-0.152895344446506	-0.40816011084291404	0.25526476639640805	178.9213564572184
1	1.0	perception	356	diff_vonmises	-0.05603826629874642	-3.2107561501483666	11.076389769534693	0.9245767500546275	0.08523183972061357	2.920195325187865	0.7078383379228941	-0.47946759272375183	1.1873059306466458	40.25889796770403
2	1.0	wm	356	diff_vonmises	0.005371778080502908	0.3077802124937032	3.724558598292798	0.416139815403378	1.5484900348583777e-14	2.014284289051357	-0.012926085585817315	-0.3204042394537862	0.3074781538679689	71.01694417728612
3	2.0	ltm	356	diff_vonmises	-0.09967697148292914	-5.711069780617702	6.882913127380891	0.2448272264579837	6.249426261281287e-32	1.0666953894118423	0.0814424999347381	-0.1697695799430991	0.2512120798778372	51.875685615206464
4	2.0	perception	356	diff_vonmises	-0.016750376682441226	-0.9597258891582279	7.91228188898474	1.3780744299550505	0.3750614660221913	2.0312346697919885	1.0661425859224134	-0.35013145217157254	1.416274038093986	46.550688285789874
5	2.0	wm	356	diff_vonmises	0.0756894701863996	4.33668719526197	2.8512006000056176	0.6887959276292209	0.23252534612053719	1.5003473033510215	0.1408963709989705	-0.2111420176317262	0.3520383886306967	73.47533787527061
6	3.0	ltm	356	diff_vonmises	-0.20843903171154743	-11.942676802865195	1.4823383701666588	66.50143795621486	1.4642580437597257	66.82893233964093	0.07169888106672673	-0.10509405441273323	0.17679293547945996	70.04052229048247
7	3.0	perception	356	diff_vonmises	-0.0446170093571183	-2.556366330658581	4.43199344056926	1.9955857660298308	0.653781000046356	1.9240739642735367	1.0913261037538795	-0.26769021985091385	1.3590163236047934	59.87035680213279
8	3.0	wm	356	diff_vonmises	0.0009977982700906977	0.057169629681651575	1.4261234722016214	116.94974366693731	1.4100233220194922	117.13046677047873	0.2594762495989045	-0.12838980510982267	0.38786605470872715	76.74975117920874
9	4.0	ltm	356	diff_vonmises	-0.36282225352316433	-20.788183840302878	20.294911566558557	0.19176917686881678	1.942729332916923e-20	1.1979567122313692	0.15177395472967323	-0.1906607323617376	0.34243468709141084	30.04268150345098
10	4.0	perception	356	diff_vonmises	-0.07758650641101442	-4.44537936451583	3.688099044585258	1.8218558028569571	0.029281864118226114	2.4594587349188712	0.9365754143678175	-0.3809238083093022	1.3174992226771198	70.70988574294185
11	4.0	wm	356	diff_vonmises	-0.20615767154930342	-11.811964494019334	0.7996377406766157	146.1634131201558	0.7867062545738026	147.21149437248235	0.045373267303197906	-0.24981520608833918	0.2951884733915371	92.1685861234256
12	5.0	ltm	356	diff_vonmises	0.04634191812435002	2.6551963230660722	1.108112012405811	51.04120684589747	1.069494794110534	51.791612156671135	0.103245946955564	-0.205316121013694	0.308562067969258	80.72468952984934
13	5.0	perception	356	diff_vonmises	-0.06577470381833894	-3.768612927513842	1.939000746140281	2.794125016688175	0.3467235212581527	3.3383690852842123	0.6852357543802639	-0.3564392156484265	1.0416749700286903	87.36769438374898
14	5.0	wm	356	diff_vonmises	0.06453050816316122	3.6973257675836444	1.0827473418837912	1.278781042688219	4.07362570115048e-13	1.978930681746509	0.1419476652796683	-0.2625512117601552	0.4044988770398235	125.17011138703609
15	6.0	ltm	356	diff_vonmises	-0.4509436484671591	-25.83716785539925	0.5244867225242049	110.36104875124961	0.5094332428220624	111.03477047199021	0.1438740859423575	-0.24502588461014874	0.38889997055250625	119.81700929234788
16	6.0	perception	356	diff_vonmises	0.15964659142852228	9.147075902503751	0.3504692829661875	149.11075135267262	0.33407371876892544	149.5474114071976	0.34801481462762496	-0.362070959607955	0.71008577423558	141.08105588030224
17	6.0	wm	356	diff_vonmises	0.06868053022329265	3.9351045165153624	0.2435758522400483	6.017816392873435	1.6640421142976111e-12	6.6913968896805445	0.13902640275201406	-0.32526546889651586	0.4642918716485299	165.98351464025478
18	7.0	ltm	356	diff_vonmises	-0.08553015288471177	-4.9005167814026676	0.962649452436039	97.29908989710987	0.9454712487731848	98.16140687798979	0.0315754882514554	-0.204257273138154	0.2358327613896094	83.35776097523245
19	7.0	perception	356	diff_vonmises	-0.09857235873626681	-5.647780132237597	1.6708998973166522	1.4765475168152786	1.0615829186352419e-21	2.3519775381415657	0.30856174690611177	-0.35017127570259643	0.6587330226087083	105.38266369165005
20	7.0	wm	356	diff_vonmises	0.20676935140978273	11.847011168437948	0.5443489601592133	94.58546423563416	0.529979168361235	95.3205365686192	0.06989900777303149	-0.21257944030665854	0.28247844807969	115.51399453411966
0	1.0	ltm	357	diff_vonmises	-0.40641563542393355	-23.285900637918946	0.0003281594755502346	2847.7956419209863	4.2806668304002945e-26	2848.6473511756576	0.01319185854066518	-0.28427493123194836	0.29746678977261354	175.31490290411966
1	1.0	perception	357	diff_vonmises	-0.14073362083911645	-8.063442509675744	12.19829567052693	0.8610062394930369	0.3022553759609669	1.8686239747038933	0.7935732699978129	-0.33950161314672767	1.1330748831445405	37.84337646666867
2	1.0	wm	357	diff_vonmises	-0.0730369416151957	-4.184708503094119	2.6796198013034465	0.5745217233437573	0.12682245054905555	1.0705772194987062	0.15995290726448255	-0.15305672780874377	0.3130096350732263	79.22905914115438
3	2.0	ltm	357	diff_vonmises	-0.08272685857905275	-4.739899848955349	7.758292055977796	0.2732305771766364	1.7402340331933953e-17	0.723971371233634	0.18315078608706817	-0.11522356793054175	0.2983743540176099	48.81321709042581
4	2.0	perception	357	diff_vonmises	-0.004705889847772762	-0.2696276271308407	6.529381878957547	1.2895399138531467	0.5014722688172285	1.6773967859953691	0.8728994678190747	-0.2811677892725791	1.1540672570916537	50.44078804712123
5	2.0	wm	357	diff_vonmises	0.6486785282458684	37.166541929246016	3.980851275790129	0.44917106926122485	3.1701037240965356e-21	0.5451863802829018	0.2576697850650727	-0.0866490459551891	0.34431883102026184	68.6061514619937
6	3.0	ltm	357	diff_vonmises	-0.17562229433288562	-10.062416253678661	1.9841450320965532	26.049138554609062	1.9234018847526302	26.26616323803137	0.1401232771894687	-0.10843442977405404	0.24855770696352275	62.97764509944196
7	3.0	perception	357	diff_vonmises	-0.08829020412567878	-5.058656068749923	4.802254102906494	1.4913275301660944	0.16090013053416888	1.6967341772104099	0.9504695746900418	-0.25801387584136365	1.2084834505314055	60.76646177207303
8	3.0	wm	357	diff_vonmises	0.3212977933700168	18.409007526968367	1.138044181872257	39.64471455602523	1.1205219799668042	39.09661381629882	0.3292822940825548	-0.01835854696463235	0.3476408410471872	101.75638959416983
9	4.0	ltm	357	diff_vonmises	-0.30017207804097573	-17.198593199419484	6.670087916371243	0.5743786412759778	0.8168046480386699	1.1739429770822833	0.21957253882586314	-0.22066107264025395	0.44023361146611706	46.61367210700678
10	4.0	perception	357	diff_vonmises	-0.11398088056132161	-6.530623401348453	2.2673219210645246	2.5041245019579805	0.3646902565415652	3.4269141423317038	0.632877393208254	-0.40001034089878607	1.0328877341070402	80.58876701603273
11	4.0	wm	357	diff_vonmises	-0.6511216707641856	-37.30652368429456	1.6326687408939557	98.92075484242511	1.612470912809289	99.4368189369894	0.10680656182709214	-0.17055511197716378	0.2773616738042559	66.35233579914895
12	5.0	ltm	357	diff_vonmises	-0.2861009554819187	-16.392377263774197	1.4789267580204228	109.53453053332194	1.4628980434917844	109.78722436721301	0.20114835526464958	-0.12698043289324268	0.32812878815789226	73.95546860164906
13	5.0	perception	357	diff_vonmises	-0.1039901851679685	-5.958198720908527	2.7571801169195553	1.542274801645571	4.068516755926358e-12	1.8005380214746032	0.6757793116287507	-0.2826877148296795	0.9584670264584303	82.80782662757414
14	5.0	wm	357	diff_vonmises	-0.14839904501925788	-8.502638963375377	0.6148001950048018	59.28554920763124	0.5938900843696944	59.07833661110463	0.2894974287529628	-0.11040678717727559	0.3999042159302384	121.08708035745202
15	6.0	ltm	357	diff_vonmises	-0.4099240109243897	-23.48691574704218	1.693929346722095	0.8313881089387227	3.6973919089071385e-24	1.3964840257403406	0.1654591451286505	-0.20915830808220692	0.37461745321085743	104.34766082150634
16	6.0	perception	357	diff_vonmises	0.1752657130517348	10.041985651215352	0.4916117070226017	101.57805039956713	0.4724124532890315	102.05798122128452	0.24750141902035594	-0.2684884373365737	0.5159898563569296	126.20483412052248
17	6.0	wm	357	diff_vonmises	0.5261162667054771	30.14424161540303	0.00012744201402219962	4569.7075632302785	3.376961002163184e-30	4570.142675833476	0.023439837144792364	-0.1619345742793712	0.18537441142416355	171.72842065003732
18	7.0	ltm	357	diff_vonmises	0.04016115149608979	2.301064481111457	1.2049539926771016	153.35001615969955	1.1861363380279697	154.35514482858719	0.15487765745668014	-0.28459551523353	0.43947317269021013	77.16689019093477
19	7.0	perception	357	diff_vonmises	-0.38710541148190347	-22.17950630458815	0.9177188765570607	167.8882523271577	0.8944003782107267	168.5954738378193	0.5179080681498078	-0.35658716289395187	0.8744952310437597	94.71702956233385
20	7.0	wm	357	diff_vonmises	0.6685691080789581	38.30618820575009	19.290028127965936	0.39008347594711645	0.12557307737392365	0.19562341863481153	0.6436091238467623	-0.03314960769794128	0.6767587315447036	30.766145044241995
0	1.0	ltm	358	diff_vonmises	2.381618034358532	136.45666178098696	1.0112723477548158e-31	2065.7398975555025	0.0002876883263290071	2067.009723171128	-0.10746662240575233	-0.2967450367776223	0.18927841437186999	164.19874136867838
1	1.0	perception	358	diff_vonmises	-0.08747784022495798	-5.012111045809837	13.03082308551527	0.8004953407924676	0.005591268193735772	2.361715098285661	0.7633545286254506	-0.3763865262458079	1.1397410548712585	37.51478241157565
2	1.0	wm	358	diff_vonmises	-0.031576898075677644	-1.8092229898510999	5.27743285384289	0.29683477136332415	0.04434824005060541	1.410153063901219	0.030393912317225796	-0.22306405157170814	0.25345796388893393	57.942715081032134
3	2.0	ltm	358	diff_vonmises	-0.16105882612855	-9.227990990497263	112.13818622602463	0.2867661179509104	1.5142800264564159e-46	0.6852533593689539	1.099984518506488	-0.10906145941389597	1.209045977920384	12.767305557622876
4	2.0	perception	358	diff_vonmises	-0.0009985252825105164	-0.05721128442496078	7.7795484380174535	1.5550720515147787	0.6431566658555539	1.9213418470269032	1.1747696004782862	-0.34670555912049467	1.5214751595987808	46.11109282197407
5	2.0	wm	358	diff_vonmises	0.14432219318678835	8.269052559674698	3.2321534742593063	0.3861410047247041	0.01087123446849484	1.0430898157515778	0.09598244747777065	-0.16382399443871803	0.2598064419164887	75.76174187656054
6	3.0	ltm	358	diff_vonmises	-0.14481693118667824	-8.297398959033131	2.129841140171918	64.2700268620402	2.109094715172901	64.52014224155646	0.06874630633846834	-0.10100325832302204	0.16974956466149038	58.10907945532742
7	3.0	perception	358	diff_vonmises	-0.027092940260585858	-1.5523111315316385	4.489391845145323	2.4718364855141988	1.2560342695667968	2.302250857751126	1.1263774294735907	-0.28698482567069483	1.4133622551442855	56.14351715235574
8	3.0	wm	358	diff_vonmises	0.13042037578649524	7.472537095076372	1.6662526185500606	101.01771557889549	1.6498482831888743	101.14356795272488	0.22228107662422047	-0.10448387348427701	0.3267649501084975	71.05984735362446
9	4.0	ltm	358	diff_vonmises	-0.44764169007039334	-25.64797957513679	15.759526292278032	0.23305129865913074	0.21027855222758157	1.142477338966912	0.14404458866747297	-0.20515242378448748	0.34919701245196044	33.25353151284895
10	4.0	perception	358	diff_vonmises	-0.06045301702079963	-3.4637027341243485	3.7069189038059656	1.7236989503651692	0.12668989418025833	2.2816141213535053	0.8604088991617753	-0.33804904082081144	1.1984579399825868	68.96779923516118
11	4.0	wm	358	diff_vonmises	-0.23157064551861406	-13.268020647336657	0.9029241386610047	130.68155483364012	0.8895902885451193	131.71917597070052	-0.0008821352643266778	-0.23154391790840734	0.23066178264408066	84.28909607470362
12	5.0	ltm	358	diff_vonmises	0.04310597476391041	2.469790425769502	1.5830426435507778	95.09973517610914	1.5585315228735286	95.57506019153648	0.19090594461668786	-0.18274969578505207	0.37365564040173993	69.48295108381797
13	5.0	perception	358	diff_vonmises	-0.11041989222937401	-6.326593799032525	1.8567905359629122	3.1207465057913693	0.5313515214769675	3.3360162805444387	0.6962964464618526	-0.2861423712373316	0.9824388176991843	85.86369490783582
14	5.0	wm	358	diff_vonmises	0.22502311026282829	12.89287451096702	1.259688572946192	1.1087404202098439	1.4888582384189766e-15	1.463236756378272	0.19965115773999534	-0.19805812990066082	0.39770928764065616	118.21521211429797
15	6.0	ltm	358	diff_vonmises	-0.4728652467093454	-27.09318291485793	0.6821695402017143	71.72759982177826	0.6658630579265427	71.92773562315554	0.16699117575826605	-0.12675897388369606	0.2937501496419621	110.12727749750437
16	6.0	perception	358	diff_vonmises	0.15434214365220492	8.843153432273212	0.2520424237910046	108.89736189124882	0.2353290201357583	109.04901345937765	0.2900036448006631	-0.26955738602122636	0.5595610308218895	152.01308429250633
17	6.0	wm	358	diff_vonmises	0.14400038907888357	8.250614542461781	0.000495534396622987	2447.77752437947	1.1485448400480377e-29	2448.0588343961163	0.14829843910524687	-0.23779436929294206	0.38609280839818894	179.22734630897514
18	7.0	ltm	358	diff_vonmises	0.09189235033344391	5.265043843643919	1.421075367764425	99.29552023664873	1.401955999116997	100.03405803612955	0.03097105627435326	-0.19626822438384295	0.2272392806581962	68.05228687569127
19	7.0	perception	358	diff_vonmises	-0.167754832939215	-9.611643920339223	2.628091826721665	0.9876862724733924	5.36106824363531e-17	1.6726224049196288	0.3331334542187752	-0.2630800886554028	0.5962135428741779	84.82998877729833
20	7.0	wm	358	diff_vonmises	0.28091360814831906	16.095164154690494	0.6131679125832725	46.497871157500995	0.5904285041795702	47.11507642404913	0.03737042163189663	-0.15978699638706395	0.19715741801896058	107.49454728667052
0	1.0	ltm	359	diff_vonmises	-0.2660940427174601	-15.246065601284304	1.3040517145086574	0.6624408784380282	6.666993077789832e-33	2.8815794582063416	-0.19483591822298718	-0.439183257732822	0.24434733950983484	116.60591995179611
1	1.0	perception	359	diff_vonmises	-0.041351178238207706	-2.3692479909425166	10.172494859067267	0.7838019707542387	2.3974615763214475e-18	3.3164529869906394	0.45642448462128427	-0.5278298849740534	0.9842543695953376	42.55602403224154
2	1.0	wm	359	diff_vonmises	-0.021701629365494392	-1.2434117711999992	3.714257217496055	0.5230438573538174	0.042956296864737606	2.713942103284904	-0.06457735220637695	-0.4235914973267308	0.35901414512035384	68.36579178433331
3	2.0	ltm	359	diff_vonmises	0.1348884936841577	7.728541392979297	2.1499279388613366	0.3748638575217038	3.803930778766005e-42	1.2160247603535903	0.008451787238991204	-0.19079513624189887	0.19924692348089007	93.68620166537073
4	2.0	perception	359	diff_vonmises	0.022458459027506403	1.2867749166436002	6.449022151886437	1.6797219608538452	0.5906270162287748	2.3430832325433943	1.0478151987946696	-0.39922676122775985	1.4470419600224294	50.070636729081286
5	2.0	wm	359	diff_vonmises	0.07627588738125515	4.370286425561093	2.3524683675221136	1.1714733132878257	0.5073791736159022	2.048992918170559	0.1576527382722417	-0.24279211001743073	0.4004448482896724	73.56819052080462
6	3.0	ltm	359	diff_vonmises	-0.21609410047439961	-12.381279934859059	1.5645740510840804	108.94133023915316	1.5507212571457851	109.42866491622163	0.04538742001447105	-0.14245573197937134	0.18784315199384238	65.87554564128368
7	3.0	perception	359	diff_vonmises	-0.021256768481799863	-1.2179231200938425	5.463179228834751	1.7935041912661462	0.5926147492977638	1.9456698750525323	1.1161130830285082	-0.3038774066037628	1.419990489632271	54.59124733392537
8	3.0	wm	359	diff_vonmises	0.11845815867310082	6.787152540859705	1.2039963147033566	46.35168172328559	1.1626457028436639	46.717025354593865	0.2189159766940172	-0.15725296186606297	0.37616893856008016	82.052018305064
9	4.0	ltm	359	diff_vonmises	-0.574672086898975	-32.92628518328655	0.5509506872842449	55.11406977823524	0.5191680264717995	56.42844877120075	2.9585370254991972e-05	-0.3087069714056607	0.3087365567759157	110.99399595991247
10	4.0	perception	359	diff_vonmises	-0.0017859849136561327	-0.10232939782653315	3.01180753281252	2.2877984835806644	0.21065054594035984	3.0160689530705946	0.9157031357837704	-0.4157561470816508	1.3314592828654213	74.5849141319089
11	4.0	wm	359	diff_vonmises	-0.02346983033620435	-1.344722224152615	0.6850381679176037	190.66397064587923	0.6722730010477068	192.1887323580914	0.03756864434112828	-0.3579658565765165	0.39553450091764475	99.14896441533202
12	5.0	ltm	359	diff_vonmises	0.025328736873535526	1.4512297232509697	1.0642910576312565	105.14589979361183	1.0416288631145834	106.02305186654895	0.14183173957382422	-0.24619242925611573	0.38802416882993995	82.67891085358514
13	5.0	perception	359	diff_vonmises	-0.07343565172874619	-4.207552909849745	1.009751626321798	285.4050587261441	0.993800756153551	286.07883736299004	0.6316113494979874	-0.3815125045233394	1.0131238540213268	90.68550410033106
14	5.0	wm	359	diff_vonmises	0.26646546075034644	15.267346287003742	0.35036769921291067	98.22425333930583	0.33063070689420737	98.9797007316602	0.18780701889712859	-0.33314047486927656	0.5209474937664051	139.32307870709946
15	6.0	ltm	359	diff_vonmises	-0.5715180954485204	-32.74557478455516	0.707151751520972	165.54550765497103	0.6954847188870017	166.02388986529598	0.23243347650323898	-0.2149488522134959	0.4473823287167349	106.39287456385489
16	6.0	perception	359	diff_vonmises	-0.04414194307130605	-2.5291470374925833	0.704200842013996	184.40686461825197	0.6870368235575398	184.86763544019695	0.4731491427853598	-0.32974882692255214	0.8028979697079119	109.02948999446816
17	6.0	wm	359	diff_vonmises	0.08440445684263	4.836019149176801	0.4514440012719973	4.705636139210262	1.063385873210482e-11	5.287517893248191	0.27698977091428334	-0.38808630374587266	0.6650760746601561	154.58956998916995
18	7.0	ltm	359	diff_vonmises	0.09667726281858983	5.539199134382235	1.1292906105684575	114.66049623787566	1.1114308453206176	115.95987649997765	-0.08883181199415446	-0.28130179069371763	0.19246997869956317	70.8530303445327
19	7.0	perception	359	diff_vonmises	-0.01740759960420355	-0.9973819887744658	1.8381129396459133	1.5583081220606478	2.985219656438107e-20	2.7905888617495416	0.31966478504398904	-0.42479783608575067	0.7444626211297397	100.93856175324885
20	7.0	wm	359	diff_vonmises	0.12423072033466477	7.1178959610463455	0.43076576265893735	107.03346635823733	0.41752312553745397	108.26426997845067	-0.02349338984059912	-0.29405683706841224	0.2705634472278131	123.62728434992162
0	1.0	ltm	360	diff_vonmises	-0.049592670371888706	-2.8414507070927058	0.5678890089393469	1.7228432270794447	6.238521578193696e-18	4.296707948533505	-0.23678549217795636	-0.540259487206574	0.30347399502861766	148.65157383273987
1	1.0	perception	360	diff_vonmises	-0.03317237302835721	-1.9006369709584736	9.752990137130855	0.9684920870195578	0.06155995268823524	3.69752856386584	0.5651130480008683	-0.5991769387680905	1.1642899867689587	42.915746352019966
2	1.0	wm	360	diff_vonmises	-0.05137032022294025	-2.943302541010018	4.270012828761696	0.43781759728733227	4.982574176798268e-19	2.972330080189589	-0.12427174347258657	-0.4729928413199056	0.34872109784731903	66.20172708748447
3	2.0	ltm	360	diff_vonmises	0.025921027858794143	1.4851654969499335	2.886883714939894	0.41999151210138813	6.691358012420195e-15	1.7236579556831866	-0.005260154636262171	-0.27349223869672734	0.26823208406046517	80.90627230681488
4	2.0	perception	360	diff_vonmises	-0.0135353557322885	-0.7755187576683368	6.849934123494842	1.4718194643660838	0.2925227877735166	2.6040056375718104	0.9629007252954125	-0.43197939393826884	1.3948801192336813	49.93183441251128
5	2.0	wm	360	diff_vonmises	0.02796122463183232	1.602060161421231	2.3943052000725085	1.1626172898676317	0.33890968332468857	2.465874551138322	0.132642198328486	-0.32095890286892126	0.45360110119740726	75.54750188806764
6	3.0	ltm	360	diff_vonmises	-0.19227328780850844	-11.016447904531718	1.033250820952851	58.404120404618396	1.003991330591719	59.13159369106736	0.07359697398755216	-0.18895123605207775	0.2625482100396299	82.68736087204093
7	3.0	perception	360	diff_vonmises	-0.04504957920243666	-2.58115075713995	3.6550886064604176	2.416209917883155	0.49679358049593525	2.771865206191966	1.0855351197214458	-0.37078427864011154	1.4563193983615572	65.5685137893849
8	3.0	wm	360	diff_vonmises	-0.0561116722013755	-3.2149619985603612	1.134210720969852	75.46492537995137	1.0999680235950868	76.02812903588465	0.27973366998673654	-0.22307989226384617	0.5028135622505827	83.94651410041305
9	4.0	ltm	360	diff_vonmises	-0.2049153687158336	-11.74078578478437	3.2811296886490737	0.4638290461987609	8.336757203276622e-20	2.107271740830686	-0.01581031558762902	-0.334931226843453	0.319120911255824	75.78104994374968
10	4.0	perception	360	diff_vonmises	-0.07727758195613593	-4.427679297062913	3.056359885704133	2.2173027542914587	0.04479419677692581	3.243355733560926	0.928007363374419	-0.4919213271576531	1.419928690532072	77.23066681830653
11	4.0	wm	360	diff_vonmises	-0.18956988093166413	-10.861554100181896	0.6733499637131837	215.6333158405862	0.6616917396326012	217.34321919668628	0.004249582412576558	-0.385636325444743	0.3898859078573196	98.70398781879916
12	5.0	ltm	360	diff_vonmises	-0.01781290361345537	-1.0206041979243263	0.7667959538568915	70.26128245315334	0.7382061905674431	71.22281668527252	0.10286692012322263	-0.25576953390148205	0.3586364540247047	97.1256388616321
13	5.0	perception	360	diff_vonmises	-0.06402176096385216	-3.668176700224134	1.7341872276094783	3.825800158203555	0.4384894282335722	4.621052627242869	0.7225829107772408	-0.42933035909376904	1.15191326987101	88.48549682080844
14	5.0	wm	360	diff_vonmises	-0.004599704466525268	-0.2635436529393717	0.3675563179625748	122.21150134381523	0.35226228115831215	123.2763392068587	0.10600699392008295	-0.3521406171356105	0.45814761105569346	136.28232612305248
15	6.0	ltm	360	diff_vonmises	-0.45785752766559884	-26.23330395353314	0.5106955460130651	161.54407456467771	0.49975660863033233	162.46816874720875	0.10257552636931422	-0.2822924609408801	0.38486798731019434	119.06593662523986
16	6.0	perception	360	diff_vonmises	0.08850311112656592	5.070854741329544	0.30344998930384687	229.81861531143602	0.29210391787251655	230.48031494973023	0.3281653956874919	-0.4227775331637531	0.750942928851245	145.66120066110346
17	6.0	wm	360	diff_vonmises	0.05101467501634566	2.9229255716680904	0.3592816417532488	4.476077624176808	4.49207389847417e-09	5.434610789009257	0.12326214724516593	-0.38324113569830515	0.506503282943471	159.6485234782793
18	7.0	ltm	360	diff_vonmises	-0.3866828777336411	-22.15529690411087	1.9905241810389855	0.529014586321883	2.169890718819367e-10	1.5529197141057336	0.02497160458173933	-0.24207524560671337	0.2670468501884527	97.01780369996901
19	7.0	perception	360	diff_vonmises	-0.018064121293103388	-1.0349979107072271	0.6213810977078222	264.416432232173	0.6087595857406434	265.63815777558284	0.3060836506757738	-0.43543116274312865	0.7415148134189025	111.20329887217487
20	7.0	wm	360	diff_vonmises	0.18396562158882102	10.540453692540225	0.6508034204821225	123.9904593284071	0.6360379092471925	125.10117934605661	0.04523456190501207	-0.27169992416765965	0.3169344860726717	102.84179146217178
0	1.0	ltm	361	diff_vonmises	-0.3473744189496886	-19.903088116626446	18.098585593103735	0.16355739795209814	3.733465447211238e-30	3.0170005125724724	-0.2045549887594469	-0.48017054488669086	0.275615556127244	31.819070943897913
1	1.0	perception	361	diff_vonmises	-0.03137073770120544	-1.7974108704910057	7.517800353299222	0.860682522161954	1.153203669181608e-22	4.094182300695021	0.27306769119908614	-0.6516090780813553	0.9246767692804414	49.59781386413243
2	1.0	wm	361	diff_vonmises	-0.10010992596159514	-5.735876244966551	5.092909423398063	0.5294710962438486	0.14533407355138067	3.5870538648228996	-0.19310359572391766	-0.5806040407376316	0.38750044501371395	55.3239675310557
3	2.0	ltm	361	diff_vonmises	0.0041719860877804035	0.2390371950171129	1.379273200676803	1.1789958549616215	0.34242217768612504	2.3054917015160026	-0.016471211971593458	-0.24081061189831432	0.22433939992672086	89.29437214460734
4	2.0	perception	361	diff_vonmises	0.042929618177406606	2.4596859376735	5.768877510299554	2.103249371807667	0.6172361351232527	3.367352640852753	1.0618882514810917	-0.5635272273698683	1.62541547885096	51.90234070753854
5	2.0	wm	361	diff_vonmises	0.0727213796880554	4.166628136493965	2.003459673336101	1.2846065110125653	0.35925672044848606	2.731483765732133	0.060365759037951716	-0.33294958264216434	0.39331534168011606	79.16608756798954
6	3.0	ltm	361	diff_vonmises	-0.15653253156233973	-8.968653415020418	1.2999599987129569	145.16696144565216	1.2833388889401847	146.2685393682307	0.004720319535458373	-0.27139328804723917	0.27611360758269754	69.92309082556665
7	3.0	perception	361	diff_vonmises	-0.00013634110962685195	-0.007811770155749095	4.641547843767077	2.5104610606652438	0.7383178345729964	3.296856064512424	1.129747707448724	-0.4934115115380704	1.6231592189867945	56.7051775856622
8	3.0	wm	361	diff_vonmises	0.19073511566462795	10.928317132522777	0.988895854970456	130.25107874972366	0.9690263184336375	131.21064490345802	0.1681727802739914	-0.2732496477012525	0.4414224279752439	86.17564515369048
9	4.0	ltm	361	diff_vonmises	-0.8253798220564977	-47.29078029909622	0.9609055140810316	264.8775734675114	0.945422946391463	267.48867889266927	-0.0866085714710465	-0.5622322054085274	0.47562363393748086	79.63101155610849
10	4.0	perception	361	diff_vonmises	0.035926003348659016	2.0584083666510242	2.045019049254112	3.898012869519779	0.48494543290101255	5.194611181919408	0.77102776342886	-0.5331086367173115	1.3041364001461715	81.14024830265126
11	4.0	wm	361	diff_vonmises	0.1768451560303827	10.132481067873448	1.3493289593866378	1.1072346882560256	4.2910813110233404e-20	4.277974630356827	-0.2308899862806671	-0.6505794580634499	0.41968947178278276	115.20998998578145
12	5.0	ltm	361	diff_vonmises	-0.03190663514564051	-1.828115532308982	1.0244115238827578	57.62440349467775	0.9770249663985644	58.52674758098751	0.21209458460982944	-0.27596830912892933	0.4880628937387588	86.22242543074901
13	5.0	perception	361	diff_vonmises	-0.13233808163386782	-7.58241354647838	1.115309696086738	253.06108934625362	1.0946798900574273	253.76942215965306	0.7220889180366612	-0.4124294113372571	1.1345183293739183	86.48766842491119
14	5.0	wm	361	diff_vonmises	0.2843040229963905	16.289420616283476	0.3377996410797211	95.89363657205955	0.3165430986843698	96.7694809810842	0.18082787224470565	-0.36359551644018673	0.5444233886848924	140.42434899756609
15	6.0	ltm	361	diff_vonmises	-0.5804313817471073	-33.256268471055975	0.7782958534835415	87.54016557153616	0.7643485970022896	87.82177238920976	0.1495529621398468	-0.12674401479350372	0.27629697693335054	101.6943741559532
16	6.0	perception	361	diff_vonmises	-0.10941281732634048	-6.268892657435157	0.4145525606291466	110.12355646160557	0.3943182897919177	110.57197472140814	0.3073082256172128	-0.31861970323628697	0.6259279288534998	134.64070487273563
17	6.0	wm	361	diff_vonmises	0.14296519615778738	8.19130235710115	0.455605913272167	3.773524972311545	2.617133511130822e-16	4.355117240336147	0.20673587294014462	-0.331354074284425	0.5380899472245696	154.11031062339464
18	7.0	ltm	361	diff_vonmises	0.0683035971020956	3.9135078395120786	1.1333398271571258	55.080926164948075	1.1005977585077018	56.364166992821474	-0.1258498553993519	-0.2701051051928989	0.14425524979354698	68.1804006061545
19	7.0	perception	361	diff_vonmises	-0.005544045810585235	-0.31765042637371943	2.452060808036919	1.3105690939380426	1.0372927583334156e-19	2.862500093282291	0.3080393802556796	-0.44991763850880234	0.757957018764482	87.84078479425543
20	7.0	wm	361	diff_vonmises	0.12618316940372185	7.229763052417562	0.6622287933886012	145.6810872617647	0.6499660679874883	147.42346116756426	-0.13953717120319453	-0.33468462728479054	0.195147456081596	91.27721932888628
0	1.0	ltm	362	diff_vonmises	-0.45619840425991387	-26.13824318469602	0.27456992648298234	2.7440779888360867	3.379658257103667e-10	4.962921542449241	-0.2258288674262483	-0.46416749916692523	0.23833863174067693	160.03348319060797
1	1.0	perception	362	diff_vonmises	-0.10318842496786025	-5.91226124526076	10.997407577910188	0.7848890791013826	0.05538267519459907	3.1887672372739826	0.49006151279169363	-0.5175009254052032	1.0075624381968968	40.47535067359604
2	1.0	wm	362	diff_vonmises	-0.09790614401162194	-5.609608840265976	3.460813583109247	0.6090357822299909	0.13016015758651864	2.6096074634870314	-0.03876769025363319	-0.4001442629852701	0.3613765727316369	67.47078518206584
3	2.0	ltm	362	diff_vonmises	-0.060856269503233404	-3.486807399445977	3.163853035278945	0.4060316010470405	4.1061738757430876e-17	1.6327388436576349	0.014192088783799683	-0.2593688570432038	0.27356094582700347	77.21453434454094
4	2.0	perception	362	diff_vonmises	0.017769107185376526	1.0180948474376603	5.9245978039788385	1.6391763013261014	0.4786273928693336	2.809390241324535	0.8730236324905928	-0.46740118417745347	1.3404248166680461	52.06631754977951
5	2.0	wm	362	diff_vonmises	0.37397428519892983	21.42714818832045	3.405619718184486	0.5112259810307299	1.800981805843696e-14	1.5750130222549679	0.10895887388670322	-0.250274962731116	0.3592338366178192	74.34017472764168
6	3.0	ltm	362	diff_vonmises	-0.16271759673198902	-9.323031545254688	1.1900157762149697	104.68964706407579	1.1697034414662808	105.58544148100611	0.05934554493962452	-0.22906163359256126	0.2884071785321858	75.55176269304744
7	3.0	perception	362	diff_vonmises	-0.05487267570937987	-3.1439727287374972	4.3051276842157815	1.9790123875976087	0.3758539529785337	2.7640416349025965	0.9650032118501577	-0.4086677536437758	1.3736709654939334	61.4776433328673
8	3.0	wm	362	diff_vonmises	0.23082775583284762	13.225456203698439	0.876610660514431	124.7854050996998	0.8615397314544903	125.13272776163818	0.2490946354751813	-0.1757133441453398	0.4248079796205211	96.66706800242207
9	4.0	ltm	362	diff_vonmises	-0.4129312903564965	-23.659220166318402	3.5515342812289137	0.6719640225848225	0.2646382205635579	2.488027572643534	-0.023141141069416837	-0.38214839966494835	0.3590072585955315	63.43072371780163
10	4.0	perception	362	diff_vonmises	-0.05352751725839927	-3.0669008267199533	2.053476002802814	3.0429171205447747	0.3571971963969603	4.425415718200513	0.6196556706890058	-0.5026139597576886	1.1222696304466946	83.24614330094025
11	4.0	wm	362	diff_vonmises	-0.4248125999252196	-24.33996905969463	0.8955417328207154	202.27583856010614	0.882633522144986	204.15302451333247	-0.10207309930223118	-0.38766217347139786	0.2855890741691667	80.82105350474214
12	5.0	ltm	362	diff_vonmises	-0.20130515922521144	-11.533936017813645	0.9848805793998349	145.8169513218106	0.9683320246548534	146.61767058639163	0.18852185131061816	-0.24532250772471365	0.4338443590353318	87.33519260240529
13	5.0	perception	362	diff_vonmises	-0.11410817742333813	-6.53791697428726	1.66730953457095	4.549992549903272	0.6115628217618522	5.3006095606672385	0.6823436245904804	-0.40040608311947895	1.0827497077099593	85.7445080790545
14	5.0	wm	362	diff_vonmises	-0.011926467677945151	-0.6833362624454483	0.45116969095554943	58.69475322450421	0.4210808717552204	59.19209437702268	0.21097684826467322	-0.2600421699109656	0.47101901817563885	130.64356596607513
15	6.0	ltm	362	diff_vonmises	-0.45256845703719034	-25.930262528978727	0.6909905298625973	154.4941449679212	0.680772318865962	155.15830800512038	0.11413434801353617	-0.20066840493897153	0.3148027529525077	103.66673823838678
16	6.0	perception	362	diff_vonmises	0.07262393894950997	4.161045193422675	0.29258429377312045	161.68666400366772	0.27994804724383054	162.40894078256088	0.21494994244643806	-0.358407812941536	0.5733577553879741	146.47782912992562
17	6.0	wm	362	diff_vonmises	0.2826347787945939	16.193779968543847	0.00029714704531815347	3454.8734951802417	1.7683833276235938e-32	3455.645852835478	0.04047599518582956	-0.28630079774438855	0.3267767929302181	177.42324670660764
18	7.0	ltm	362	diff_vonmises	-0.2794725183238383	-16.012595789848497	1.6676533022315747	1.0534638523125615	0.27887397820814475	2.3520290235502443	0.0013983723425299854	-0.28202277449407914	0.28342114683660913	86.43103562022245
19	7.0	perception	362	diff_vonmises	-0.19498644969784615	-11.17190062992651	0.7477441978987449	115.72362451940892	0.7140119941503561	117.16104812319361	0.33197658850411216	-0.46420835653938575	0.7961849450434979	101.42743672258105
20	7.0	wm	362	diff_vonmises	0.33569653596688587	19.233994708064202	0.9635224611778728	72.3436547122204	0.9307160879629046	73.52309256674545	0.06325855316750761	-0.285828187156401	0.34908674032390863	84.35546999635486
0	1.0	ltm	363	diff_vonmises	0.06372199563518734	3.651001412047288	6.946463253514365	0.35206405144913616	1.3249320691165154e-31	3.557076367434613	-0.20315946965739995	-0.5661259508184565	0.36296648116105656	51.63524439111552
1	1.0	perception	363	diff_vonmises	-0.13521155435235818	-7.747051405793861	12.752817849670594	0.6296301160081011	0.11990704480889904	3.695664184941256	0.22704461482676175	-0.6244083931416898	0.8514530079684516	37.089872506701255
2	1.0	wm	363	diff_vonmises	-0.12066787774809017	-6.913760117766147	2.232818435530387	1.1829057974807922	0.2174477459097246	3.864639706718284	-0.10352225470776766	-0.5389111656495738	0.4353889109418061	77.46306398322744
3	2.0	ltm	363	diff_vonmises	-0.04880892326273459	-2.7965453055325957	1.340891030114059	0.8844758855755716	3.5519742380273074e-33	2.8177847443342854	-0.09036836657824004	-0.423955479239229	0.33358711266098895	115.65064180342182
4	2.0	perception	363	diff_vonmises	0.014172949643364338	0.8120501978162219	6.03638533613888	1.3891540166206495	0.39372734364694484	3.1770590511817205	0.6094129557066009	-0.5340583940829758	1.1434713497895768	51.463394358556855
5	2.0	wm	363	diff_vonmises	0.4084011595813304	23.399662792259054	3.8019295672317686	0.5570552167227093	0.013860835206887648	1.9141495163242102	0.10762462547292273	-0.30116992817373384	0.40879455364665657	69.52391655225475
6	3.0	ltm	363	diff_vonmises	-0.2844732285063694	-16.299115377875626	3.6119280616389995	0.6129235715694686	0.05759804113517618	2.16379879036714	0.08102865075196175	-0.3343267349727935	0.4153553857247553	69.45932306120062
7	3.0	perception	363	diff_vonmises	-0.09566134471714197	-5.480991314838328	3.884591457322922	2.043296130563685	0.2566164189711613	3.7010196531794564	0.7968667715885513	-0.5483314315394395	1.3451982031279908	64.84059328032512
8	3.0	wm	363	diff_vonmises	0.23341037627437516	13.373429455082182	1.1481756191774435	2.9540273847205336	0.4136598999912323	3.5800895423104464	0.2655757181991515	-0.2541511946876599	0.5197269128868114	101.70145149657529
9	4.0	ltm	363	diff_vonmises	-0.28554968511048706	-16.36079179812055	2.512926121673874	0.8845066900505115	0.19765505220341026	3.3046270029693288	-0.11182371593739848	-0.47850329155210575	0.36667957561470726	74.13995741416876
10	4.0	perception	363	diff_vonmises	-0.07813042400610197	-4.476543547117252	0.9679171717390821	434.27179059593254	0.9539937562664181	436.4807046084848	0.4117637560059393	-0.6381793802270295	1.0499431362329688	87.23874419638193
11	4.0	wm	363	diff_vonmises	-0.4410886744703225	-25.272519438169343	0.7832191208911682	171.01199906439234	0.7695757894549975	173.1897622279556	-0.20306436233142477	-0.4165517394947216	0.2134873771632968	81.7704478823289
12	5.0	ltm	363	diff_vonmises	-0.3434342733532396	-19.67733440328286	2.9948016337548604	0.9210884747075961	0.02289678443691988	2.448479907457736	0.20398831747154372	-0.3798224123134599	0.5838107297850037	78.0982939647061
13	5.0	perception	363	diff_vonmises	-0.08427714850272662	-4.828724918603521	0.9957427663768296	332.1737611946071	0.978415960545058	333.9341298363409	0.49562111106814655	-0.5683214269221608	1.0639425379903074	87.49113674799813
14	5.0	wm	363	diff_vonmises	-0.1970227895745307	-11.288574310514726	0.4590069639295908	183.10005452407984	0.4468953293552535	183.99055552664052	0.20026227496496318	-0.34670279741166254	0.5469650723766257	127.17678820948726
15	6.0	ltm	363	diff_vonmises	-0.3919108263034221	-22.454836292670777	0.8145302318240241	215.1607174209753	0.7999350760240578	216.97811548152416	0.0478208410173977	-0.42111457478920045	0.46893541580659814	90.53509829836231
16	6.0	perception	363	diff_vonmises	0.0351043711924976	2.0113323117907416	0.5879839644576957	183.75152903247968	0.5693378485049732	185.74065562226588	0.1303618323460043	-0.5267320961782325	0.6570939285242368	109.97495053736351
17	6.0	wm	363	diff_vonmises	0.42791823935496925	24.517909091708706	0.00029870678282279496	3154.313585153251	5.45420832075884e-27	3156.1158227653523	-0.13687098424179567	-0.4367766713549486	0.2999056871131529	174.3949563983977
18	7.0	ltm	363	diff_vonmises	-0.3528523156058651	-20.216948475634183	0.8767655444579303	176.4924999712844	0.8579732632809762	178.75511316122763	-0.079534391267444	-0.47830768126054934	0.39877328999310535	83.46520365096607
19	7.0	perception	363	diff_vonmises	-0.28856134991292176	-16.53334748060816	0.49344404571183503	237.68177254182766	0.4768498404581781	240.2748528758476	0.10677806109408294	-0.6928236734653659	0.7996017345594488	119.26598118244387
20	7.0	wm	363	diff_vonmises	0.49124327441308735	28.146166338056847	1.2119560455460123	124.44926872806042	1.1810235327679175	126.27912343269908	0.024108992970518273	-0.44245915943030667	0.46656815240082494	73.12701374231807
0	1.0	ltm	364	diff_vonmises	-0.5742388712520677	-32.90146375509974	0.0005140757895491247	1031.1025821345957	1.389154339247512e-29	1033.4269717764682	-0.2855649408235479	-0.4542895773116129	0.16872463648806502	170.77499157108542
1	1.0	perception	364	diff_vonmises	-0.07798398543234789	-4.4681532348832285	13.852127069742478	0.7221210880412452	0.044343947018736486	3.271852660720084	0.5176335661681793	-0.5312772028297251	1.0489107689979045	36.1620647281558
2	1.0	wm	364	diff_vonmises	-0.11093107108046275	-6.355882189776257	5.008686024666219	0.36395839711183536	0.04395669909475511	2.546374506617998	-0.10741158747501295	-0.4033746489225547	0.29596306144754175	58.86955651273877
3	2.0	ltm	364	diff_vonmises	-0.12489140861257655	-7.155750610944457	6.174726638352673	0.3392986312625667	1.9024831898295607e-29	1.5839365008594795	0.07684903012161548	-0.2520898985810004	0.3289389287026159	54.82189280405677
4	2.0	perception	364	diff_vonmises	-0.007909565639030195	-0.45318472889812617	7.512067814487509	1.460091393491933	0.3948796788132611	2.791808645770498	0.9332446885261378	-0.4855102579164585	1.4187549464425964	47.14573824516765
5	2.0	wm	364	diff_vonmises	0.02501178121739215	1.4330695018611543	3.307022340729058	0.6194325978733264	0.13487366227547606	2.0015317767033567	0.06574591887848952	-0.30167925148121694	0.36742517035970645	69.87537672101789
6	3.0	ltm	364	diff_vonmises	-0.192910235836957	-11.052942338331	1.3489379516284088	106.3585919603898	1.326671621098454	107.20671217076955	0.08641233923731306	-0.23438907320365487	0.32080141244096794	71.61283723821933
7	3.0	perception	364	diff_vonmises	-0.035546271359118184	-2.0366513263042285	3.5976029740018634	3.1364695134319636	0.8593357367426244	3.772850004460749	1.086603849221012	-0.4706973534470119	1.557301202668024	62.1010760744355
8	3.0	wm	364	diff_vonmises	0.028009727769961832	1.6048391865291922	1.3133265222372503	157.53383676750516	1.2945171833655624	158.2949159651166	0.2364692174376799	-0.2570816215487213	0.4935508389864012	75.90077153039175
9	4.0	ltm	364	diff_vonmises	-0.4282482130216878	-24.536815190162134	15.52893470834883	0.2104164244145485	6.917391476605735e-29	2.033438886187142	0.004254489192346944	-0.323631850211951	0.32788633940429796	34.384224873801884
10	4.0	perception	364	diff_vonmises	-0.09051255341997534	-5.185987303916993	2.5290627272895136	2.80728446841649	0.3259500644629112	4.190128057145317	0.7659466720400566	-0.5284501464326273	1.294396818472684	77.36530772154373
11	4.0	wm	364	diff_vonmises	-0.15124409528360044	-8.665648336024786	0.6737853111109997	186.80839022844248	0.6625920135768543	188.69545225563098	-0.12565290533589035	-0.3719350321768715	0.24628212684098116	92.31353725587904
12	5.0	ltm	364	diff_vonmises	0.01992297692164964	1.1415024929470654	1.0798259689085872	38.473904524075635	1.009552705165245	39.46670076624257	0.1682372304084474	-0.2810726828504615	0.4493099132589089	83.18006531427869
13	5.0	perception	364	diff_vonmises	-0.08334380665402823	-4.775248369830165	1.024765475048473	202.93443157486544	0.9995481771988217	203.92518444177756	0.6285561166941278	-0.4472646964904854	1.0758208131846132	89.12001804402118
14	5.0	wm	364	diff_vonmises	0.03361513909759461	1.9260055980373738	1.2446158567032384	1.2526835952942244	2.786214916338633e-13	2.256130092019668	0.12615305302272384	-0.31881307263860065	0.4449661256613245	119.04346117573195
15	6.0	ltm	364	diff_vonmises	-0.4231721755101967	-24.245979664103604	0.7299060706982392	140.29848839790014	0.7167058084782958	141.17734888298733	0.10041234658785925	-0.2385205465823823	0.33893289317024156	99.37979215414776
16	6.0	perception	364	diff_vonmises	0.05699272663793653	3.265442699296585	0.5143258013261601	8.397070341416638	0.2439915264488878	9.25725359878093	0.24158838425719265	-0.38864026149967446	0.6302286457568671	136.35072149834724
17	6.0	wm	364	diff_vonmises	0.09576034079223741	5.486663372129658	0.2610107314037411	4.992112800049097	7.196503992712574e-15	5.981244436327829	0.06217797812940595	-0.3502341085392642	0.41241208666867013	164.8976608944533
18	7.0	ltm	364	diff_vonmises	-0.18386583305038837	-10.534736230444256	1.1267627190216023	138.85274971045422	1.1105564739314058	140.02495786562653	-0.00462088063786581	-0.27221580109030796	0.26759492045244215	74.9505444925183
19	7.0	perception	364	diff_vonmises	-0.10336544415070587	-5.922403697330668	0.5687777852977934	135.18890297350185	0.5480812366210988	136.57738147938647	0.17206023235566192	-0.41811751743186854	0.5901777497875305	114.14809555280351
20	7.0	wm	364	diff_vonmises	0.3390916901877854	19.428522715717772	0.7740893032928294	90.28307482486204	0.7553192931495398	91.4791613885156	-0.02941687041720442	-0.25470737570384827	0.22529050528664385	89.994997196546
0	1.0	ltm	365	diff_vonmises	-0.17400434719601188	-9.96971471126052	2.0002085762710973	0.5461776231941025	2.0590763010109006e-26	2.97514106584787	-0.19172565639741374	-0.4683495255250313	0.27662386912761755	96.97386659941792
1	1.0	perception	365	diff_vonmises	-0.07502901573264927	-4.298845942501457	11.282308062143542	0.7111338074779293	4.833757548268896e-16	3.3470653902339413	0.40906991351777755	-0.5327020015581214	0.941771915075899	40.384649614560914
2	1.0	wm	365	diff_vonmises	-0.08215602889814522	-4.707193717418548	3.4294440215871007	0.6283827935988083	0.0852593692691466	2.9468557382550835	-0.06602923110093434	-0.45406030403070435	0.38803107292977	69.15876248366453
3	2.0	ltm	365	diff_vonmises	0.053554183635426376	3.0684286975785113	2.6098065964234674	0.43001551467195887	4.9424408661459946e-21	1.567740818117386	0.010379716327529515	-0.24810782251672303	0.2584875388442526	85.13684626192551
4	2.0	perception	365	diff_vonmises	0.0238864167803465	1.3685908692043227	5.936079096220684	1.6458460885685418	0.5084673248373227	2.6600284683734605	0.902195337537327	-0.44256857803635713	1.3447639155736841	51.9947775692506
5	2.0	wm	365	diff_vonmises	0.17922909446571575	10.269070678837053	2.618316458394792	0.8743759486752183	0.28195774451259825	1.9076085860826542	0.13483357192483736	-0.25970563188950474	0.3945392038143421	74.56454566321983
6	3.0	ltm	365	diff_vonmises	-0.2068231792601155	-11.850095277082278	1.3072890871299128	140.30796039454478	1.2919550594252964	141.14334359648223	0.060291997978232814	-0.2215401363874001	0.2818321343656329	71.96159406161027
7	3.0	perception	365	diff_vonmises	-0.03461325214094529	-1.9831932628983258	4.831855804866467	1.9131387240857767	0.39195243208842906	2.5471962351738333	1.0513880486229963	-0.3879415628830119	1.4393296115060081	58.42084182685181
8	3.0	wm	365	diff_vonmises	0.15527156906171974	8.896405585610628	0.948983834702217	78.08555350607715	0.9217087388634398	78.58628434845112	0.2411744908247364	-0.20093668229071415	0.44211117311545056	91.88691441862852
9	4.0	ltm	365	diff_vonmises	-0.45645308935934764	-26.152835565998444	0.6711676518577809	48.34458316808504	0.6250403763543053	50.02620783468432	-0.030781720807523172	-0.36522871347069863	0.33444699266317546	98.77989270147827
10	4.0	perception	365	diff_vonmises	-0.018231236026774435	-1.044572879641031	2.206005695239845	3.157514315561097	0.35604154500441115	4.384170897545447	0.7625181510606465	-0.5094704606554271	1.2719886117160737	81.51162245495735
11	4.0	wm	365	diff_vonmises	-0.13434305894094298	-7.697290284193292	0.6748707774731897	201.65335580308715	0.6628428402748264	203.45311636974643	-0.03785460758108172	-0.3875408383675705	0.34968623078648875	96.90281689692053
12	5.0	ltm	365	diff_vonmises	-0.08969027873310065	-5.138874434758631	0.9540079257249863	139.4711373375396	0.9361143819064018	140.40096209136277	0.167623604307515	-0.266775099551424	0.434398703858939	87.88117283019713
13	5.0	perception	365	diff_vonmises	-0.07965079804213734	-4.56365456266335	1.005609513189989	299.0837096830307	0.989322611201105	299.94655096928597	0.6285286089194102	-0.4212342180433346	1.0497628269627448	90.20245463278755
14	5.0	wm	365	diff_vonmises	0.1008802355241716	5.780011731820751	0.8228924940258061	2.117347520362761	1.4608934471785752e-15	2.8510954248858438	0.19840673673719383	-0.3279856600315513	0.5263923967687452	136.18620438353867
15	6.0	ltm	365	diff_vonmises	-0.5177622121418025	-29.665589547082472	0.7115845137610728	154.106529131486	0.6983463127510298	154.86400508471513	0.17361045763084348	-0.2470743627956402	0.4206848204264837	103.30546836675732
16	6.0	perception	365	diff_vonmises	-0.04369277295554953	-2.5034114855763323	0.6375210069760413	200.6800674802431	0.6223026481301865	201.46432485600258	0.36795835409520805	-0.36651741763865253	0.7344757717338606	112.20160208786109
17	6.0	wm	365	diff_vonmises	0.12798050369570274	7.332742721722202	0.37996721122452815	4.412553981981496	1.1325683961776175e-15	5.259802909615468	0.15368307018334515	-0.37372027621190845	0.5274033463952537	158.2190390930125
18	7.0	ltm	365	diff_vonmises	-0.0773156025085711	-4.429857714252204	1.0153531034810213	103.52372167965169	0.9927084999094439	105.03355420169636	-0.0705495545043604	-0.3234153938812714	0.252865839376911	76.57562786938442
19	7.0	perception	365	diff_vonmises	-0.0659347877882332	-3.777785063356482	1.5759806454045	1.8944104058315727	1.3646598459230811e-14	3.4444331723775843	0.29733953119844025	-0.5120355965002372	0.8093751276986775	108.13606366681128
20	7.0	wm	365	diff_vonmises	0.261617030170065	14.98955167749145	0.7124569755592679	115.96781365336454	0.6946509360300013	117.40589430738609	-0.014111709549048612	-0.31511437169091927	0.30100266214187066	95.1586542907502
0	1.0	ltm	366	diff_vonmises	-0.20486243425554604	-11.73775286361909	0.0002693500945220191	3770.313170621385	5.214013698024824e-29	3771.825679540221	-0.07908679254489925	-0.4023379830110798	0.32325119046618056	178.7873229602487
1	1.0	perception	366	diff_vonmises	-0.07501577358255346	-4.298087223189288	9.664953809190463	1.0286998692732043	0.13890026785524584	2.707647854382507	0.765567176212455	-0.4503519729880759	1.2159191492005308	42.83620496907872
2	1.0	wm	366	diff_vonmises	-0.017079467046601522	-0.9785813781030361	3.4329950754457697	0.4818179965214285	9.829905239531443e-09	1.7806192540304864	0.05709815983247768	-0.2830393387124279	0.3401374985449056	74.0458445332797
3	2.0	ltm	366	diff_vonmises	-0.025926287050160063	-1.4854668264188524	3.985227694926513	0.30951854633080295	4.812709210624173e-14	1.0897400086240252	0.06402382522143976	-0.17335543755898192	0.23737926278042168	68.59734971801515
4	2.0	perception	366	diff_vonmises	-0.010735139267011253	-0.6150781724849089	6.755970806125385	1.4177682911615963	0.36183350418883575	1.9445362899929208	1.0103791261445547	-0.3222057136439988	1.3325848397885536	50.27975532077954
5	2.0	wm	366	diff_vonmises	0.30919000256160595	17.715282214419133	2.9308040677195377	0.5278347695883143	4.063693100626744e-14	1.1200306469079742	0.1628615231079838	-0.17728729036637705	0.3401488134743609	80.25663649559257
6	3.0	ltm	366	diff_vonmises	-0.17938901620070172	-10.278233519304159	1.3146308067429477	57.77228898477577	1.2932259639467067	58.12861456521402	0.08343401364763281	-0.11179528861527466	0.19522930226290747	74.97754939385464
7	3.0	perception	366	diff_vonmises	-0.0557487227646994	-3.19416652766217	4.307901351421506	1.7795745071430773	0.3152149734699007	1.792334696787047	1.0430412680392733	-0.25916520842959995	1.3022064764688732	62.93128491677339
8	3.0	wm	366	diff_vonmises	0.048700146367249335	2.790312848512755	1.1236263739919918	93.70011125516521	1.1080505933584193	93.66885966544466	0.2840252148209146	-0.09621027133303262	0.3802354861539472	89.63247958853793
9	4.0	ltm	366	diff_vonmises	-0.3109227476537547	-17.814561195171265	14.222338958536783	0.24923775233755555	4.211204559788768e-12	1.1797740376185495	0.18378098144628222	-0.18776686981752042	0.37154785126380263	35.92850444070572
10	4.0	perception	366	diff_vonmises	-0.08065492675178079	-4.6211868998138375	3.2705527081492707	1.846210189889293	2.255408407897649e-20	2.523164317630133	0.868087886687047	-0.39974182558640636	1.2678297122734534	75.91411726557385
11	4.0	wm	366	diff_vonmises	-0.3790830671198673	-21.719859830842903	0.9722742163264206	151.38580990633605	0.9584170549064994	152.31808218530142	0.08671758405255758	-0.23866513913663567	0.32538272318919326	84.82110316281087
12	5.0	ltm	366	diff_vonmises	-0.129570545004204	-7.423845377950783	1.0118560331027469	92.10819907129702	0.9942456016858059	92.63588992199551	0.12700866132881572	-0.1624384148440079	0.2894470761728236	86.20271466839174
13	5.0	perception	366	diff_vonmises	-0.08436664684153793	-4.833852795690841	2.5371198380946334	1.918627038382067	0.07948481510411573	2.1865487297420936	0.7643797689501829	-0.3143155504219004	1.0786953193720832	84.0963098613208
14	5.0	wm	366	diff_vonmises	-0.0329462588154233	-1.887681580869438	0.4538102403499271	55.60245637008362	0.426768393029946	55.92985170304715	0.201798050314407	-0.21095348256055058	0.4127515328749576	130.90424754960753
15	6.0	ltm	366	diff_vonmises	-0.4197550508825635	-24.050192844870008	0.42306392843308566	93.15672996319296	0.40792023215620604	93.68746542989389	0.13777204228982143	-0.22478454985625795	0.3625565921460794	130.59620810605452
16	6.0	perception	366	diff_vonmises	0.16299819095372564	9.339108409915953	0.27601735513431164	193.9288219972175	0.2650136119412191	194.22364737027516	0.31839788022573856	-0.32393243664409965	0.6423303168698382	148.8892639221743
17	6.0	wm	366	diff_vonmises	0.17212094106678444	9.861803488946718	0.00033574737306403323	3391.2225441027076	3.7912351348258386e-32	3391.7105209342676	0.10356362951074516	-0.2588610587064295	0.36242468821717466	178.95474463083997
18	7.0	ltm	366	diff_vonmises	-0.12446578198226185	-7.131364001379049	0.8073950895266354	63.331222489878726	0.7807090384063226	64.15292775981065	0.0762712676218591	-0.21192490959284793	0.28819617721470703	93.98522354070678
19	7.0	perception	366	diff_vonmises	-0.1551682720826183	-8.890487104671665	1.2876045632999824	3.3497102068398794	0.3340668700425135	4.1045043011959175	0.436411649457184	-0.35607775387307894	0.792489403330263	101.47585516377711
20	7.0	wm	366	diff_vonmises	0.11558107818434965	6.622307971534827	1.1303044539262217	1.2648023366650385	0.050766117080756644	1.8201066718506327	0.15858970969461678	-0.22685945115031955	0.3854491608449363	120.10805495975649
0	1.0	ltm	367	diff_vonmises	-0.22041958376876306	-12.629111871980427	0.4783737189367553	1.918656978163032	9.625129788890185e-14	4.404609034384325	-0.23535562740298432	-0.5221330698079534	0.28677744240496905	152.54464580284832
1	1.0	perception	367	diff_vonmises	-0.05391781439763265	-3.089263205554056	8.84501889539357	0.9715482016039896	0.06356429097426176	3.619271832268849	0.5222832650458564	-0.5848171203051109	1.1071003853509673	45.013385281292756
2	1.0	wm	367	diff_vonmises	-0.07596301563009057	-4.352360194690496	4.212857748217168	0.5036595910659315	0.04615893836159512	2.9121539659542193	-0.08682864598003198	-0.4573996872026967	0.3705710412226647	64.09918700329041
3	2.0	ltm	367	diff_vonmises	0.011889284383406614	0.6812058165999982	2.7274697753068744	0.42769558960181586	8.555043098303374e-14	1.7210703165619161	-0.008723683021326645	-0.2727830159193495	0.26405933289802286	83.26768953614285
4	2.0	perception	367	diff_vonmises	0.004552155981016323	0.2608193253974702	6.0433785824129576	1.6220739204237533	0.3799076684862044	2.7567991091178476	0.935842012364943	-0.45294738374031507	1.388789396105258	52.346019073382024
5	2.0	wm	367	diff_vonmises	0.1957985226326616	11.218428981748238	2.4905285684251797	0.8354541755904337	0.16430641351999245	2.054615649630097	0.10847005533134935	-0.289932010764908	0.39840206609625733	79.05770231874826
6	3.0	ltm	367	diff_vonmises	-0.15796097584051616	-9.050497243429538	1.0218426551645239	92.26190782155453	1.0020816980566425	93.09121107244661	0.06082390786330194	-0.20768303173425906	0.268506939597561	82.13973723820712
7	3.0	perception	367	diff_vonmises	-0.04784309262318124	-2.741207286161768	3.838591139066404	2.192258212935361	0.39350558616880904	2.7346571410080447	1.0270724203355974	-0.38421711886599474	1.4112895392015923	64.8846191749688
8	3.0	wm	367	diff_vonmises	0.06003299826151438	3.439637431900982	0.9373741375429574	129.5289372443814	0.9206894500492229	129.99670621947726	0.25813462478739524	-0.20080278332237533	0.4589374081097706	92.66030946774936
9	4.0	ltm	367	diff_vonmises	-0.2994056538689618	-17.15468032904628	4.867012465303551	0.3913053154726484	7.159118089001874e-18	2.194597936604202	-0.014818996200988033	-0.34926129767781916	0.3344423014768311	61.90684393617326
10	4.0	perception	367	diff_vonmises	-0.058515039611795966	-3.35266480779674	2.632024549752054	2.3307370426543654	0.11898873049904775	3.4866875372077133	0.7927320600732017	-0.4939960533642598	1.2867281134374615	80.88987434188272
11	4.0	wm	367	diff_vonmises	-0.26384003044103044	-15.116920210874207	0.7319424376151596	220.8178321710156	0.7199374251643534	222.7248942575464	-0.04415943994854388	-0.4071811860325347	0.36302174608399085	92.60878027123736
12	5.0	ltm	367	diff_vonmises	-0.14608387700787218	-8.36998960745928	0.8140440870828534	129.82875799604193	0.7980835791534818	130.66604198313968	0.1417520722409762	-0.24145932787327595	0.38321140011425214	95.25921597529566
13	5.0	perception	367	diff_vonmises	-0.09454449672064086	-5.4170006382811735	1.8297664864096153	3.6556419018534863	0.46677725668179265	4.324814665302404	0.746464607774429	-0.4032995978124474	1.1497642055868764	86.39476891977432
14	5.0	wm	367	diff_vonmises	-0.0012747994054458135	-0.07304062565783177	0.36979209560805054	147.28537682862176	0.3574139870475899	148.03443684412272	0.16656198277443934	-0.31090598975759853	0.4774679725320379	137.29403069299596
15	6.0	ltm	367	diff_vonmises	-0.4730607736880577	-27.10438578551909	0.5598958409794935	146.58395741818134	0.5494688662873873	147.28061555233273	0.10949111414628021	-0.2235784159233134	0.3330695300695936	115.12678280581501
16	6.0	perception	367	diff_vonmises	0.07903617603415881	4.528439315610325	0.2226651886364055	206.0056911533146	0.21188898608615786	206.58746350883897	0.27387319227292295	-0.38540952806907214	0.6592827203419951	154.71580812328364
17	6.0	wm	367	diff_vonmises	0.14030240969376315	8.038735930967997	0.19506832877138103	6.733458564703187	3.1767922852069146e-11	7.519580321856878	0.09341194842227196	-0.32336543682395547	0.4167773852462274	168.2986369087728
18	7.0	ltm	367	diff_vonmises	-0.7325752154601765	-41.973468021755046	0.0004126749585209941	2121.3924928052265	1.1946024940018887e-31	2122.478952901343	-0.033569648918842176	-0.3122325913242321	0.2786629424053899	165.24177489846423
19	7.0	perception	367	diff_vonmises	-0.07752763414115307	-4.44200623192242	0.7047085226469696	229.8612754943096	0.6883008438404604	231.1350278755087	0.3590863183867725	-0.4492327959750071	0.8083191143617796	104.75790839603192
20	7.0	wm	367	diff_vonmises	0.16587992410090965	9.50421955693255	0.7091771434389635	116.46709806731806	0.6913238591156798	117.65844800939769	0.05926500289722725	-0.2914170044787081	0.35068200737593536	98.74045457836993
0	1.0	ltm	368	diff_vonmises	-0.28600089630267084	-16.38664429510175	0.00023891216961953167	2305.00803185592	7.513935656038543e-35	2308.2409533751884	-0.42688645500641087	-0.6021739569688407	0.17528750196242981	177.66056886857106
1	1.0	perception	368	diff_vonmises	-0.10678307924730704	-6.118219764281701	9.75363940870081	0.8529645912047765	0.20005822639983442	4.046371495748146	0.26958449862945866	-0.698848231921734	0.9684327305511926	41.67015265044216
2	1.0	wm	368	diff_vonmises	-0.05742995231749998	-3.29049388543031	2.347396783550214	0.9465973369849907	0.1686067541383169	3.600371344422869	-0.13594892517239743	-0.5188106721120006	0.3828617469396032	77.24010953638233
3	2.0	ltm	368	diff_vonmises	-0.21075857242042745	-12.075576695892805	0.0004368743374511287	1962.8490231101382	9.089702424418992e-30	1964.7385265355385	-0.16423073831163038	-0.4371870701455691	0.27295633183393875	178.7076940486159
4	2.0	perception	368	diff_vonmises	-0.014345570457173867	-0.8219406419036215	7.744634752587955	1.2765587421571782	0.3388599160390477	3.1536527125185976	0.7082459818731738	-0.5491519766092267	1.2573979584824004	46.34798072204538
5	2.0	wm	368	diff_vonmises	0.4367802268922336	25.02566357569149	4.132570235783315	0.49358372216954893	1.6892281104583775e-16	1.9084740388785755	0.08255354547164723	-0.3036436701863376	0.3861972156579848	67.31778356370867
6	3.0	ltm	368	diff_vonmises	-0.3234822353778404	-18.534166834607742	3.1933281451837816	0.41807917609692	3.825172527510019e-21	1.475945021785219	0.04876187012355432	-0.23442618671327947	0.2831880568368338	76.83151644645397
7	3.0	perception	368	diff_vonmises	-0.10619062072758664	-6.084274391565154	3.8774151544515645	1.9653482422804038	0.3746223444929621	3.0519863027973915	0.8032286891302531	-0.44174548325518914	1.2449741723854424	63.91616907880862
8	3.0	wm	368	diff_vonmises	0.1499755054003966	8.592963489784212	1.0877535888691514	149.04081107544278	1.074215583898948	149.39226447605918	0.25356940724618227	-0.1677969324865316	0.42136633973271387	86.54270761207252
9	4.0	ltm	368	diff_vonmises	-0.28552543123703	-16.35940215353462	4.039420846468605	0.5667698266499288	0.2691596287007231	2.7533739977782923	-0.12524143287906309	-0.44118289827114565	0.31594146539208257	58.67033360807321
10	4.0	perception	368	diff_vonmises	-0.10667161126726359	-6.111833119474363	1.934325680745705	3.3616032839071432	0.49987654080644767	5.080942390828078	0.44595589906623845	-0.5217262198227693	0.9676821188890078	80.41868440966255
11	4.0	wm	368	diff_vonmises	-0.5412850029212457	-31.013346181113814	0.868490923908458	142.30804061324653	0.8535511185325075	144.26722013788049	-0.20936720647294038	-0.37665165075055285	0.16728444427761247	75.61938568028121
12	5.0	ltm	368	diff_vonmises	-0.36247707763285947	-20.76840671859874	2.816108649033219	0.8195716202109002	0.09033253792985832	2.492921284758491	0.08427738207260704	-0.37209332901401154	0.4563707110866186	76.90667840428023
13	5.0	perception	368	diff_vonmises	-0.10293181729779555	-5.8975587087753665	1.9514078947709093	3.586788103388708	0.4675684455397858	5.379507195239729	0.5282253112992823	-0.5635042519898374	1.0917295632891197	81.23747788418879
14	5.0	wm	368	diff_vonmises	-0.25492523357596825	-14.606139975289688	0.48461959445659825	180.1124368445559	0.47323934350954366	181.06368576654464	0.1518232802857966	-0.3246853640025016	0.4765086442882982	123.3461117203102
15	6.0	ltm	368	diff_vonmises	-0.34762055905157646	-19.91719090563354	0.7767296188975521	47.400083286990494	0.7198896258133658	49.18889844091552	-0.0015251606566604181	-0.39697045159820465	0.39544529094154424	92.69763859477811
16	6.0	perception	368	diff_vonmises	0.35724529890239937	20.468647877997064	0.1328252287268138	15.26763449780965	8.261578724955201e-11	17.15437904071657	0.03267445146889658	-0.6118667638297546	0.6445412152986512	168.93758605477942
17	6.0	wm	368	diff_vonmises	0.5740024086957694	32.88791544861097	0.00020134896468608054	3653.5450140903367	1.2493632303497879e-26	3655.3970629598325	-0.177676717986742	-0.4118369599560765	0.2341602419693345	170.24569912420276
18	7.0	ltm	368	diff_vonmises	-0.4554026355814523	-26.092648997951468	0.6910057384682713	131.67623825513633	0.6722414005513911	133.4286981472551	-0.018888829841564814	-0.3843007321390459	0.3654119022974811	96.70707000370197
19	7.0	perception	368	diff_vonmises	-0.3435277747311494	-19.68269163761575	0.4767651657326928	206.3540368608419	0.46063241855445525	208.47107316786958	0.1121707056943535	-0.5874732712303192	0.6996439769246727	121.5624565341338
20	7.0	wm	368	diff_vonmises	0.44155861151057885	25.2994448472129	1.2823144551528465	7.425235559307578	0.8596614944216391	8.930076942988935	0.11407494717271227	-0.3791854016315893	0.4932603488043016	80.10270343053242
0	1.0	ltm	369	diff_vonmises	-0.8461392485100909	-48.48020781999934	0.0005809628896904365	835.7225331922738	4.196833628321565e-30	837.8672612531225	-0.2640620577361119	-0.4186036438417773	0.15454158610566537	160.56990218811947
1	1.0	perception	369	diff_vonmises	-0.07527392052845233	-4.312877953683486	12.029565488979227	0.8611046583076502	0.10342761096506534	3.2718667795794576	0.6024695536857235	-0.5445175416679564	1.1469870953536798	38.50069366576844
2	1.0	wm	369	diff_vonmises	-0.05126543342433808	-2.9372929701234756	6.067833103889676	0.289542372389199	0.04349180841532191	2.2567458633059836	-0.0968148772440563	-0.36000988195755385	0.26319500471349755	53.6452658651599
3	2.0	ltm	369	diff_vonmises	-0.11524117637639898	-6.602833032490388	20.87413219894958	0.2181049991642798	5.705580358663542e-47	1.3820748417464548	0.17494380416391567	-0.21996404278689727	0.39490784695081294	29.62975747655159
4	2.0	perception	369	diff_vonmises	-0.02186266617834275	-1.2526385009224483	8.640733649864064	1.4144773149915242	0.3730568681778606	2.7237881695347275	1.0250442806661062	-0.48296105476315165	1.508005335429258	44.32548269315774
5	2.0	wm	369	diff_vonmises	0.045118203579141945	2.5850826442968784	3.471536092586315	0.43486574180608867	5.799925757425813e-18	1.8078224564123653	0.02147818098931603	-0.2874253532456237	0.3089035342349397	73.63020841013173
6	3.0	ltm	369	diff_vonmises	-0.16906985649575842	-9.686989220089444	1.375007131132008	57.56022480242019	1.3439097665885087	58.17978541175195	0.07073420508427475	-0.17439570589400155	0.2451299109782763	71.28377824402699
7	3.0	perception	369	diff_vonmises	-0.044301475862151864	-2.538287593101992	3.365949313698014	3.5232747812590235	1.0987961616995938	3.874865971243469	1.0661839198927143	-0.4151501440456591	1.4813340639383734	62.21982881554027
8	3.0	wm	369	diff_vonmises	0.028935075706391346	1.6578577178677434	1.4798917704993484	183.33783980324426	1.4656168393200353	183.87064144119867	0.23281656527559846	-0.2066340789549237	0.43945064423052216	72.18375440307
9	4.0	ltm	369	diff_vonmises	-0.4063440425311357	-23.281798667318498	10.177962421138227	0.2610489535881512	0.19514345206046763	1.942319368956094	-0.044260003652063395	-0.3387335588269413	0.2944735551748779	40.23182296653948
10	4.0	perception	369	diff_vonmises	-0.1075133793034659	-6.16006287527777	3.148941969679669	2.078644614425409	0.22524849442111938	3.2229040221357628	0.7649260659528678	-0.4523217777211856	1.2172478436740535	72.24893223119409
11	4.0	wm	369	diff_vonmises	-0.2495786315385784	-14.299802243811202	0.7486892640740639	151.1576074444924	0.7361827773127126	152.90780723705004	-0.1492853608588547	-0.3364861868601601	0.1872008260013054	84.86473645144653
12	5.0	ltm	369	diff_vonmises	0.026652785594612306	1.5270921268383635	1.694690515209728	2.3374881056852383	0.7246054687196237	3.2843608067257364	0.14040674310092915	-0.2600663203114351	0.40047306341236427	77.71929485848202
13	5.0	perception	369	diff_vonmises	-0.10334032348900454	-5.920964389436606	2.066991915913476	2.965121617777659	0.40745533008356144	3.8376084915155753	0.6793438205213891	-0.4126071532053642	1.0919509737267532	82.99686567593042
14	5.0	wm	369	diff_vonmises	0.0022402055707832352	0.12835432444757497	1.5412937400822133	0.9301460270744668	4.754364099545817e-17	1.8437169840848253	0.11614731105124937	-0.27466099528869575	0.3908083063399451	109.18987257220343
15	6.0	ltm	369	diff_vonmises	-0.3826756383611356	-21.925699000567654	0.6818029298713181	131.62353384558497	0.6705913143675736	132.36556869105647	0.0739449824826579	-0.1998246168642268	0.2737695993468847	102.49485175617818
16	6.0	perception	369	diff_vonmises	0.20929534669303837	11.99174003723845	0.07299512962514963	24.59684421197	4.030501269363026e-09	25.303526224703422	0.1783666158731707	-0.39288923284075983	0.5712558487139305	174.4588784628461
17	6.0	wm	369	diff_vonmises	0.12388384508311406	7.098021473114951	0.18208591669112423	5.639116296822029	7.15805912951591e-21	6.527039540012264	0.02905750830922149	-0.2968855593666022	0.3259430676758237	169.13991045378953
18	7.0	ltm	369	diff_vonmises	-0.2485984175935376	-14.243640121740496	1.0060885220651048	95.84184189870803	0.9884868687074809	96.69956071841192	0.02797737221737151	-0.2032210072318037	0.2311983794491752	81.27662544975678
19	7.0	perception	369	diff_vonmises	-0.16951474065443858	-9.712479204754045	0.6593099505161654	157.688236595618	0.6433350527675405	158.777653201925	0.1805565222872474	-0.3319248126830665	0.5124813349703139	106.35920673107873
20	7.0	wm	369	diff_vonmises	0.3319839825013883	19.02128106327452	0.7460061593803219	50.65531169075718	0.7180295369523602	51.56230264302532	0.009211945609937544	-0.20549974808660654	0.21471169369654408	94.44700799920815
0	1.0	ltm	370	diff_vonmises	-0.05934041998035595	-3.3999556194081793	0.6132287958830186	1.6650747907155334	5.9800613406053736e-15	4.301224697644174	-0.23822552795530078	-0.5536336996460598	0.315408171690759	146.3439361341126
1	1.0	perception	370	diff_vonmises	-0.05463217540265471	-3.130193076190544	9.05915206467918	0.9633895130856469	0.09996714450669564	3.7111163325612555	0.48881170345037483	-0.608531299920533	1.097343003370908	44.167574778787014
2	1.0	wm	370	diff_vonmises	-0.05544555449996536	-3.1767962656106046	3.5036453030984025	0.5676885853204786	0.03318902600738546	3.0670340181686258	-0.09872088759196401	-0.4789080954704353	0.38018720787847127	70.73057932621126
3	2.0	ltm	370	diff_vonmises	0.034101488257625955	1.9538713522769027	2.6666435147170398	0.45539868884913326	3.8579810501621624e-17	1.859814239150473	-0.017288308934469587	-0.2946529652696694	0.2773646563351998	84.21756063260673
4	2.0	perception	370	diff_vonmises	-0.005854246910781739	-0.3354236402152938	6.379299648264219	1.475829378116197	0.3204378698669138	2.7035047255678593	0.8774413828749144	-0.4462029269519366	1.3236443098268509	51.339398970215086
5	2.0	wm	370	diff_vonmises	0.1700556783081309	9.743472649290323	2.631147762101217	0.868517785917953	0.19669071495326723	2.105238727978371	0.12342901305937615	-0.2966530476908582	0.42008206075023435	76.27928805592998
6	3.0	ltm	370	diff_vonmises	-0.1936161836189984	-11.093390166798594	1.3484655776256271	2.3206097476608076	0.6517067904224666	3.1624554620695022	0.07188849011796838	-0.21163370322495265	0.28352219334292106	84.00552789491383
7	3.0	perception	370	diff_vonmises	-0.058086430197466246	-3.328107297296073	3.6769751759340865	2.2252915710448486	0.36657409453008427	2.8050917265750437	1.0105342408508748	-0.39052439258614935	1.401058633437024	66.37015647709529
8	3.0	wm	370	diff_vonmises	0.006258817980599896	0.3586038550289668	0.9809673062958164	109.56364956633813	0.9599520538265796	110.03457390079508	0.27925029092300946	-0.2072890390503055	0.48653932997331495	90.8464485377649
9	4.0	ltm	370	diff_vonmises	-0.21405464759644555	-12.264427892436482	4.298937201264568	0.4294281654595796	1.0216373267562153e-15	2.1621349662242646	-0.0007709557393700828	-0.3440511156709696	0.3432801599315995	65.97551480483023
10	4.0	perception	370	diff_vonmises	-0.0738425905573953	-4.230868787251335	2.612492151700946	2.427589378989712	0.14344761341033793	3.6613225495270054	0.7988902241492123	-0.5104451445204848	1.3093353686696971	80.48823507819719
11	4.0	wm	370	diff_vonmises	-0.2560809304554453	-14.67235652888016	0.7170195793412887	210.1550553848226	0.7052559836950303	211.89611676050697	-0.02576903416068177	-0.37774880129517996	0.3519797671344982	94.26280617917816
12	5.0	ltm	370	diff_vonmises	-0.1411259732959935	-8.085922649536387	0.7412878927230919	141.69368294363898	0.7264548382146191	142.6963265956478	0.11070885826188714	-0.26954706630708536	0.3802559245689725	98.51304634133638
13	5.0	perception	370	diff_vonmises	-0.07198020222411564	-4.124161795940007	1.7119281751213447	3.9997942011565697	0.46894400219769433	4.913350244712886	0.6935852804293947	-0.4431579743639948	1.1367432547933896	87.7926037974434
14	5.0	wm	370	diff_vonmises	-0.08045676071547306	-4.609832822290568	0.38989674182841877	142.97946459353884	0.3764926570430676	143.89040457262908	0.1463020859500901	-0.3342848867396011	0.4805869726896912	134.37310730880364
15	6.0	ltm	370	diff_vonmises	-0.4506904158404953	-25.822658694656404	0.5452727309273186	170.47987563187712	0.5341716641348453	171.51997973450793	0.09244181198683776	-0.2964910466552535	0.38893285864209126	114.87002616275547
16	6.0	perception	370	diff_vonmises	0.09634781133824845	5.520322955004336	0.3257317186506515	236.51109951639444	0.3147111140680869	237.35724789635674	0.28895657394397034	-0.43591916879894654	0.7248757427429169	142.73342039294482
17	6.0	wm	370	diff_vonmises	0.10220586967607195	5.8559649739030455	0.36233708838792755	3.8639259127897594	1.5129193754692368e-15	4.921985669767929	0.07184674402541258	-0.3690255853517552	0.4408723293771678	159.29937777879599
18	7.0	ltm	370	diff_vonmises	-0.3856020817741996	-22.09337185712008	1.8616316912698851	0.6445700295853034	6.451786768287884e-14	1.860598708318705	0.022260366793013908	-0.2884328778271565	0.3106932446201704	100.06794075010633
19	7.0	perception	370	diff_vonmises	-0.0761363958483466	-4.362294149447623	0.6080750377774123	289.17946117310237	0.5955094609743736	290.592679909898	0.3137633979212353	-0.48720108535169615	0.8009644832729315	111.98797446983203
20	7.0	wm	370	diff_vonmises	0.19562238956703185	11.208337300454952	0.7176560572711397	87.05420819397725	0.6923398738437783	88.27456740909967	0.07466479996446296	-0.30428205556685306	0.378946855531316	98.87388176228345
0	1.0	ltm	371	diff_vonmises	-0.37221998583253213	-21.326634238623388	0.5435839388156276	1.42762329807038	5.053402883476268e-25	3.4762532404227215	-0.18934998711306456	-0.4305601885856033	0.24121020147253874	147.85369006306095
1	1.0	perception	371	diff_vonmises	-0.08561282773152491	-4.905253701196951	10.975412355594656	0.734509544072533	1.028992922723736e-15	3.0570120624060726	0.47267357719140257	-0.48653858054241134	0.959212157733814	40.948602240285
2	1.0	wm	371	diff_vonmises	-0.050734766158726415	-2.9068879754781793	3.2556042389738162	0.641195388120586	0.118245282591404	2.5455957999454677	-0.014554682048234124	-0.3869393333448755	0.3723846512966414	70.02117753944057
3	2.0	ltm	371	diff_vonmises	0.015711934270798287	0.9002275217037006	3.0261584334427	0.3327118039162904	6.380111051930062e-26	1.221615077834608	0.024565383237322852	-0.19391091675230582	0.21847629998962867	78.98500001601252
4	2.0	perception	371	diff_vonmises	0.030227096541002817	1.7318850587339507	5.925476294929237	1.7299563421493847	0.6275202136145507	2.4736138816371236	0.9713657946659573	-0.41276913559494555	1.384134930260903	51.63999298769994
5	2.0	wm	371	diff_vonmises	0.28410814924857347	16.27819787721615	2.8773668630287816	0.6318506395844277	0.16218051890191595	1.4221324559341237	0.1396090407857597	-0.20490181516124775	0.3445108559470075	74.96175224906708
6	3.0	ltm	371	diff_vonmises	-0.184939952974224	-10.59627876877095	1.5129495705140645	104.39722781290745	1.496489904268553	104.98089639475758	0.04782462508843821	-0.16604379046819595	0.21386841555663416	66.84179881266184
7	3.0	perception	371	diff_vonmises	-0.03381649915196022	-1.9375426793150483	5.657289169919131	1.6248227795038415	0.40745300195609785	2.001121493243813	1.0449106292486463	-0.31702017019685497	1.3619307994455012	54.494314847784494
8	3.0	wm	371	diff_vonmises	0.24662233682227544	14.130419033570217	1.0142910857843161	106.64796331935696	0.9988151546148635	106.87988422256387	0.23284761987199687	-0.13694493743868819	0.36979255731068505	90.63866133412299
9	4.0	ltm	371	diff_vonmises	-0.5530824404220576	-31.6892895589797	0.8826666114443862	92.50610194883883	0.8573036715474389	93.89676788346033	0.00992476702745293	-0.3132262554000498	0.3231510224275027	86.06266893377381
10	4.0	perception	371	diff_vonmises	-0.002198513632840641	-0.125965552363743	2.6098019563498673	2.380938066006432	0.2782322933452504	3.3321546669195112	0.751894786948283	-0.4302589292177602	1.1821537161660434	77.79207340433484
11	4.0	wm	371	diff_vonmises	-0.16079753577203795	-9.213020155841654	0.7468545430604814	180.7796905464761	0.7345162798552256	182.32157941461415	-0.023189171700380484	-0.33386221036341723	0.31067303866303675	92.23180707919757
12	5.0	ltm	371	diff_vonmises	-0.1149622959442352	-6.586854360738618	1.1108872462302513	134.02888100343495	1.0930446569570087	134.79854539996353	0.17111067543366687	-0.23237503014379435	0.4034857055774612	81.78154205685169
13	5.0	perception	371	diff_vonmises	-0.09926378989309928	-5.687396219347946	1.0600531491096312	223.3720930378808	1.0396316309338636	224.00570538629134	0.6375601651961205	-0.3702667408858602	1.0078269060819807	88.73457033809393
14	5.0	wm	371	diff_vonmises	0.1541761920220975	8.833645104264741	0.9048577035299479	1.8703185542949796	3.3137106801780505e-17	2.3220512696079476	0.2357564331492727	-0.2704734749331866	0.5062299080824593	132.39504067812507
15	6.0	ltm	371	diff_vonmises	-0.5355247445936415	-30.683307690037008	0.7231543591403261	127.73979870722836	0.709487721940079	128.20439921970225	0.19990883889393274	-0.19438092204712198	0.3942897609410547	104.83594062918031
16	6.0	perception	371	diff_vonmises	-0.03327137907277717	-1.906309599450022	0.6357900102818953	164.08867967506177	0.6192524935250375	164.6316830899501	0.3686964859743611	-0.31450548756287056	0.6832019735372317	113.5502632736965
17	6.0	wm	371	diff_vonmises	0.20810660932486985	11.923630403092904	0.04928220966174762	31.238979425970065	2.683730912704059e-13	31.81372172253254	0.15651803644243323	-0.3334287090640924	0.4899467455065256	175.79626202955302
18	7.0	ltm	371	diff_vonmises	0.05127636419078332	2.9379192569076307	1.1131573213558466	102.62487011510753	1.0907183562345466	103.99525941148869	-0.06065363251114775	-0.3025166473558052	0.24186301484465744	73.21427668005757
19	7.0	perception	371	diff_vonmises	-0.12824431864193533	-7.3478582047138	2.1744163047105256	1.5121915795797483	4.295282381637093e-18	2.8075584761531984	0.3735175550955575	-0.4362354320694461	0.8097529871650035	93.18072917340301
20	7.0	wm	371	diff_vonmises	-0.2520480586529868	-14.441289995281972	0.00025199917534147396	3852.510457861043	2.92442844251617e-26	3853.713124166636	-0.036892830785632214	-0.34590827788770184	0.30901544710206963	178.1772325838115
0	1.0	ltm	372	diff_vonmises	-0.29116377503536234	-16.682455456622822	0.23443333909353514	4.788241353020082	6.8336246885565564e-12	5.687960269927219	0.04503356069632547	-0.31064920294438236	0.35568276364070783	164.78387942695298
1	1.0	perception	372	diff_vonmises	-0.12025041942618213	-6.889841517798202	12.715461524134232	0.7826753210304546	0.06636770752633363	1.8616018744583145	0.7857672805995157	-0.30406003615341237	1.089827316752928	37.76373035142473
2	1.0	wm	372	diff_vonmises	-0.09407896997699094	-5.390327920619565	3.250007279903296	0.5412309933499889	0.030599400771630293	1.1740648913157832	0.17827415516901718	-0.18139628421177506	0.35967043938079224	74.8948264129699
3	2.0	ltm	372	diff_vonmises	0.013781000276439897	0.7895931533086269	3.9224889413345005	0.37617701340595977	0.027432049689607222	0.8045673218182329	0.15455446943172316	-0.12549055660433275	0.2800450260360559	68.30164762054497
4	2.0	perception	372	diff_vonmises	0.021800059339696053	1.2490513932993361	4.976497927829997	1.6378282755200508	0.6563592825855509	1.8117997959599028	0.9160853370352876	-0.2726885210530408	1.1887738580883285	56.404771592804394
5	2.0	wm	372	diff_vonmises	0.4930170361399722	28.247795398869187	2.580317588643074	0.5602789513678178	5.6583505362230885e-21	0.6774321482975925	0.2285582421165348	-0.10588644446752167	0.33444468658405646	85.48172442326933
6	3.0	ltm	372	diff_vonmises	-0.17996212019358573	-10.311069959318509	1.8035243499810112	129.96794841772262	1.7891278056825093	130.2951782374453	0.14849284479932834	-0.13812225310092074	0.2866150979002491	64.95935126361906
7	3.0	perception	372	diff_vonmises	-0.049289077856549644	-2.8240561372720165	4.863834032609577	1.6105337352675646	0.09005706297746	1.8124105412775249	1.0610930247578223	-0.2788867062984984	1.3399797310563206	60.99322473706587
8	3.0	wm	372	diff_vonmises	0.30592256216643027	17.52807166996501	0.6128293006197936	93.70735175051149	0.5996042361557121	93.3832125114776	0.3207350504021882	-0.10090680773992222	0.4216418581421104	121.73853206404553
9	4.0	ltm	372	diff_vonmises	-0.3317010222546135	-19.00506863536435	13.481439716175677	0.32486584501634713	1.5448098639243467e-20	0.9393448467204509	0.3217937814082754	-0.1495013756225392	0.4712951570308146	36.911020736971835
10	4.0	perception	372	diff_vonmises	-0.06412954702182717	-3.6743523864364547	2.1253441872578183	2.960780802009876	0.2930274193897067	3.782443718333682	0.7944554168535001	-0.44380415340337326	1.2382595702568733	84.98101663263535
11	4.0	wm	372	diff_vonmises	-0.439973838476707	-25.2086440408859	1.1850559532310927	148.28937890102483	1.1708353405452336	148.89545124395656	0.16426878110355148	-0.19388717274720157	0.35815595385075305	79.62128238298189
12	5.0	ltm	372	diff_vonmises	-0.18004287925343598	-10.315697112605372	1.29621325440996	105.75869756250911	1.280760682163042	105.92402054153155	0.23250310942672314	-0.11616271719323379	0.34866582661995693	80.61703422227728
13	5.0	perception	372	diff_vonmises	-0.06816553971671205	-3.9055977339989894	1.3412261565999257	5.358336122194511	0.6440877705764018	5.3599419814936935	0.701579519536488	-0.270119287417519	0.971698806954007	94.61096043609771
14	5.0	wm	372	diff_vonmises	0.016249956144755866	0.9310539043671894	0.4970142691185248	27.397760974196803	0.4444272502197814	27.228271109407746	0.30804336248789976	-0.15018587022783114	0.4582292327157309	131.38989194671868
15	6.0	ltm	372	diff_vonmises	-0.46454598738259745	-26.616524466760428	0.5913704147912091	76.90615622949969	0.5711144574009277	77.20668932421329	0.21610019330350383	-0.1881891365815056	0.40428932988500943	117.25496719095109
16	6.0	perception	372	diff_vonmises	-0.032459355262024446	-1.8597840622297612	0.776848790154624	165.25437995415743	0.7625770475859969	165.43335312204456	0.3972927140353093	-0.21742237762625827	0.6147150916615676	105.14053691652295
17	6.0	wm	372	diff_vonmises	0.21180392414317664	12.135470937713063	0.00020332731831981032	5366.424549932788	3.993995314267245e-31	5366.593602386502	0.1467632457460013	-0.20055665828851943	0.34731990403452073	178.4896210177156
18	7.0	ltm	372	diff_vonmises	0.09010132521362853	5.1624256632765855	1.2845750564804954	149.1121961139076	1.2647124130931628	150.17901145328187	0.12352732752638929	-0.29448844424378606	0.41801577177017535	73.7951711886576
19	7.0	perception	372	diff_vonmises	-0.2355878345282032	-13.498188623092453	1.7955346796056562	2.4953634294160407	0.2145646654898618	3.12770439496405	0.5958287745130997	-0.3669287523401468	0.9627575268532464	93.59333641802624
20	7.0	wm	372	diff_vonmises	0.3456190499590822	19.802512881976558	1.1533828421420127	50.7862780136183	1.1203280798475181	50.9747656249851	0.2441677062159897	-0.12759777823465956	0.3717654844506493	85.77918473181174
0	1.0	ltm	373	diff_vonmises	0.04367175904119123	2.502207476972552	0.0002930509739827272	3479.7248337225133	9.88827424477934e-30	3482.3813205826928	-0.26049110835833744	-0.5850711448223365	0.324580036463999	179.87840055085942
1	1.0	perception	373	diff_vonmises	-0.05140637108212142	-2.94536810308892	8.134979547888726	1.1759642415340739	0.21694226170990427	3.911829524847628	0.5518249967040044	-0.6637230654994639	1.2155480622034682	45.68038664818579
2	1.0	wm	373	diff_vonmises	0.03366244009481114	1.928715745544641	2.6840447684287314	0.664947977542169	0.04141509376987682	3.0771871491202223	-0.10174164816442571	-0.4722175622078964	0.3704759140434707	79.89635112721805
3	2.0	ltm	373	diff_vonmises	-0.001547024271457007	-0.08863796155878749	2.9163419252731795	0.3916489556601284	1.7250710641036148e-28	1.8609377222458323	-0.043776875438691965	-0.2954378474397683	0.25166097200107634	80.48568466378694
4	2.0	perception	373	diff_vonmises	-0.03251628170800957	-1.863045707327388	7.918692151201396	1.264777208788672	0.21155057949524192	2.562751297407414	0.8976072477978053	-0.42690380643242465	1.3245110542302299	46.94212401927933
5	2.0	wm	373	diff_vonmises	0.21032204585521902	12.05056556606102	3.058906190920935	0.6628515599158664	0.07664727791103748	1.8852232710909664	0.11550122978937899	-0.2846127696234643	0.4001139994128433	74.85748660531291
6	3.0	ltm	373	diff_vonmises	-0.22468689479925935	-12.873610783897487	2.458774619482504	0.4063555504630789	0.025514257281337202	1.0195112936852215	0.07073129628226493	-0.15641163740381875	0.22714293368608368	86.0327623992465
7	3.0	perception	373	diff_vonmises	-0.0809033686077241	-4.6354215696137855	3.36228705222465	2.2313220516948906	0.42217115570319996	2.5799831981539163	0.9592092546926135	-0.339135553518624	1.2983448082112377	68.7255928895161
8	3.0	wm	373	diff_vonmises	-0.05339864674497726	-3.0595170901971884	1.154589367762851	111.3190078740529	1.1360238390192006	111.57270677514032	0.29154515847562834	-0.15835288476825937	0.4498980432438877	85.19521521251588
9	4.0	ltm	373	diff_vonmises	-0.10683628628402443	-6.121268302926005	4.63271093262291	0.45095854526058243	0.15049262119889859	1.9545773062862932	0.015836484965739583	-0.3096231937818127	0.3254596787475523	59.048678790146624
10	4.0	perception	373	diff_vonmises	-0.10600351361355095	-6.073553943614036	3.2287826374875563	1.9141907953636743	0.049005777604162554	2.984240414539395	0.808504926277708	-0.4534730367829651	1.2619779630606731	74.97405473422563
11	4.0	wm	373	diff_vonmises	-0.3264849133217981	-18.706207608033537	0.7773626879169329	168.61502020147242	0.7648779736716126	170.02742664874432	-0.017417713315808214	-0.3071332004327125	0.2897154871169043	90.47877627488865
12	5.0	ltm	373	diff_vonmises	-0.19022310536038645	-10.89898110302253	0.647273233365796	121.00178291213211	0.6323285097080211	122.15845763301009	0.029191523218791815	-0.2747818251136547	0.3039733483324465	102.34137629298509
13	5.0	perception	373	diff_vonmises	-0.0644525770909272	-3.6928606460517055	2.6509841889388226	2.06622393874406	0.10836846344781499	3.138772770433695	0.7050887552312765	-0.448628984888869	1.1537177401201455	80.86090613973664
14	5.0	wm	373	diff_vonmises	-0.24294462949435877	-13.919701925396257	0.45451240874635385	113.21474840999454	0.4378143687758891	114.21905458735651	0.11389339998142489	-0.321658745698711	0.4355521456801359	126.07250841733085
15	6.0	ltm	373	diff_vonmises	-0.37365096027706224	-21.40862303488604	0.41396688166359213	78.79365518612909	0.39061545785419544	80.14962430383463	0.030589559913703823	-0.3658643619263229	0.3964539218400267	128.17788039443593
16	6.0	perception	373	diff_vonmises	0.2486972976954397	14.249305534257308	0.18877140049635152	210.96228833634606	0.17662104771061538	211.97658794197963	0.2503601376364628	-0.5019191249687296	0.7522792626051924	157.28694915850352
17	6.0	wm	373	diff_vonmises	0.07460510453980952	4.2745576202633835	0.23942333490245443	46.28740195984398	0.208141375983188	47.59607678630456	-0.0007128261122115731	-0.36951349978262815	0.3688006736704166	151.77796472828766
18	7.0	ltm	373	diff_vonmises	-0.33562380404399494	-19.229827475846683	0.5402646463818073	53.670902357572395	0.5087049728446825	54.716811156994716	0.05795427396190789	-0.2808572446760582	0.3388115186379661	115.36385885965456
19	7.0	perception	373	diff_vonmises	-0.1319279090897066	-7.5589123908258	0.5716249593636071	241.65680470626808	0.5582160621405683	242.92941603988058	0.2830676077933134	-0.45211332485757083	0.7351809326508842	115.61791371422049
20	7.0	wm	373	diff_vonmises	0.2011992051828906	11.527865298366311	1.459965840265397	1.298898050368974	0.11432832655878589	2.271633992772014	0.14945073392900765	-0.2915775467844466	0.44102828071345423	104.04879436893458
0	1.0	ltm	374	diff_vonmises	-0.48261764980042443	-27.651954452087097	0.00042764046375991336	1331.928707053176	3.919123711581612e-24	1334.2308061390665	-0.2757299074708044	-0.4570316086299897	0.1813017011591853	173.4313925404732
1	1.0	perception	374	diff_vonmises	-0.08064824381012042	-4.620803995461966	11.207498792942792	0.7710623983420952	0.04739169613808814	3.340412769735483	0.4604372579057878	-0.5406605814002143	1.0010978393060022	40.13980949136504
2	1.0	wm	374	diff_vonmises	-0.040934090157096044	-2.3453506042096084	3.790578427358603	0.5003358798676132	0.07887637845733848	2.6110740014653153	-0.07547805094730003	-0.40648708476092915	0.3310090338136291	66.09653395669798
3	2.0	ltm	374	diff_vonmises	-0.11104224665733245	-6.362252081115822	4.932812043081	0.2785526859734904	7.222106114653396e-22	1.3489424808033539	0.025091943832917213	-0.21467840951660938	0.2397703533495266	61.48749814050382
4	2.0	perception	374	diff_vonmises	0.007087203082687232	0.406066825190085	7.1353891715383755	1.5508291569388608	0.5028763766476576	2.627617151263558	0.9715505864668077	-0.46083707136672947	1.4323876578335373	47.88829714311558
5	2.0	wm	374	diff_vonmises	0.234951677840893	13.461739529800555	3.21350539869776	0.5408310745175039	0.09321704961846766	1.5931380240870632	0.09053514151749537	-0.2405649574090458	0.33110009892654113	72.4973702174326
6	3.0	ltm	374	diff_vonmises	-0.18174343221324174	-10.413131620040723	1.4129218991107655	82.47257969035891	1.3932810803264175	83.06523960639619	0.04338864368762785	-0.16204849065915106	0.2054371343467789	69.14005989725118
7	3.0	perception	374	diff_vonmises	-0.042697351954832374	-2.4463780633965504	4.8703871534058125	1.9147258074952327	0.6186083893873134	2.3129901754068034	1.0146050294957574	-0.3495924084165528	1.3641974379123103	56.848560270673374
8	3.0	wm	374	diff_vonmises	0.14701413113953965	8.423289243078434	1.2688455845377442	138.64133412870157	1.2551348453000457	138.96570081802165	0.2214491885389549	-0.1487432996156013	0.3701924881545562	79.72543163181479
9	4.0	ltm	374	diff_vonmises	-0.4490730238450118	-25.729988959496957	14.278831371080583	0.215419226887076	1.4657589863840742e-14	1.7984046857006364	0.03553052000707174	-0.2862249954087511	0.32175551541582287	35.85998171525466
10	4.0	perception	374	diff_vonmises	-0.04184919656342602	-2.3977823390976996	2.97976053073204	2.0381825537573137	0.23323464875057187	3.0940739223072184	0.7162682328112403	-0.42644755010516067	1.142715782916401	73.96470929652062
11	4.0	wm	374	diff_vonmises	-0.16125876773138118	-9.23944680048857	0.7237351317276266	168.96717476081997	0.7118770796145478	170.66129071250978	-0.10375133620215848	-0.3378951853537622	0.2341438491516037	89.54129313290163
12	5.0	ltm	374	diff_vonmises	-0.07790285527638088	-4.463504819355081	1.0837827486051292	112.49487400505491	1.0610349655772893	113.49809048826	0.12624303911634627	-0.27015482653813017	0.39639786565447643	81.10156067360961
13	5.0	perception	374	diff_vonmises	-0.10298479937749333	-5.900594358331875	1.0846220482419062	150.66850692084287	1.0515734899562554	151.58251005116574	0.6144489519532428	-0.4210023444761113	1.035451296429354	86.86795090335761
14	5.0	wm	374	diff_vonmises	0.0853825947569302	4.892062323447932	1.1046152150383524	1.4249679108846927	1.0148757963135706e-18	2.139643429948495	0.1744466819305961	-0.2839973083746592	0.4584439903052553	124.2795985803152
15	6.0	ltm	374	diff_vonmises	-0.47204458704878377	-27.04616257989111	0.7128206653887103	139.2016794778036	0.6999645089964965	139.93238564733554	0.13327098299902218	-0.2222501430960957	0.3555211260951179	102.31517084892836
16	6.0	perception	374	diff_vonmises	0.13768969562698669	7.889038441867244	0.30951076297690544	131.05442033182564	0.29178963200085917	131.84678025980253	0.25030303250460406	-0.3995606272329564	0.6498636597375604	144.71191481279988
17	6.0	wm	374	diff_vonmises	0.18146853983940997	10.397381447199828	0.30525171807449525	4.391823037912221	7.381278093394485e-18	5.280971204840802	0.08627843809270497	-0.3371768408319422	0.4234552789246472	161.90583263877858
18	7.0	ltm	374	diff_vonmises	-0.11938769710895752	-6.840411170129486	0.9902100731765068	90.84053156486337	0.9684810377595646	92.08407010322404	-0.04346550571047558	-0.2686773078363096	0.22521180212583403	78.40472279135082
19	7.0	perception	374	diff_vonmises	-0.14655061435624495	-8.396731687662168	1.8518135410291097	1.386996163852137	1.657081248210263e-13	2.731380817086549	0.24816463163452307	-0.41788925325397475	0.6660538848884978	100.55648708414154
20	7.0	wm	374	diff_vonmises	0.3087965265947177	17.692737702176604	0.7058512940916533	75.66113917569923	0.6813657833647582	76.86997062902863	0.013306278608862243	-0.2757725369982147	0.28907881560707693	97.23912986303924
0	1.0	ltm	375	diff_vonmises	-0.6906091112727889	-39.56898736921145	0.5326969126355489	1.2902318954653997	1.5141172542337091e-16	2.699399183761877	-0.10337387807799842	-0.31719655351505294	0.21382267543705452	143.15157602692284
1	1.0	perception	375	diff_vonmises	-0.11522240208702621	-6.60175734494597	14.560114374200303	0.6847491782576448	4.785552128250321e-20	2.371350809805001	0.6553597240753146	-0.37741220318520174	1.0327719272605163	35.51403896801381
2	1.0	wm	375	diff_vonmises	-0.10171375357681176	-5.827768798384994	4.2467670620172	0.40496508816281457	0.08577246305304864	1.624174152462547	0.04053057963139539	-0.25345653879425806	0.29398711842565345	63.282078581015384
3	2.0	ltm	375	diff_vonmises	-0.14216007913349754	-8.14517254959521	6.892667561697003	0.278750222641165	4.027521848478337e-15	0.9643679653973434	0.13276624210387017	-0.15348363361986725	0.2862498757237374	51.83439314100113
4	2.0	perception	375	diff_vonmises	0.01630829195408415	0.93439630003618	6.51840908018498	1.6151692340070087	0.6385474158899731	2.222807437234966	1.004450778079812	-0.38232358929162447	1.3867743673714363	49.612567165373264
5	2.0	wm	375	diff_vonmises	0.2913103458294901	16.690853344526225	3.341324792347349	0.4102192721976712	1.4585209170378307e-10	1.095638128063075	0.11115231661835487	-0.17401857743438578	0.28517089405274065	75.07271418046946
6	3.0	ltm	375	diff_vonmises	-0.1553981638168152	-8.903658930786092	1.887717477431464	107.4363739431183	1.8682660734072216	107.92454235020504	0.09386633670596467	-0.17198001766272952	0.2658463543686942	61.14278694808007
7	3.0	perception	375	diff_vonmises	-0.030024106754287717	-1.7202546006709147	4.770110167196225	2.1169553318375725	0.7284174397622583	2.422998097562193	1.0873960276803658	-0.35847616071259497	1.4458721883929608	56.80753891336195
8	3.0	wm	375	diff_vonmises	0.22496395327915034	12.88948506547355	1.289229531199283	104.33484750953498	1.2725664131048549	104.51909201930617	0.24473982281185158	-0.12463770074886504	0.3693775235607166	80.74714063141954
9	4.0	ltm	375	diff_vonmises	-0.44634311358750794	-25.573576623292514	9.693519551974784	0.33234008289803324	0.16997000907033188	1.4831649058067575	0.12931455548705173	-0.2521773552929609	0.38149191078001266	42.1085767430545
10	4.0	perception	375	diff_vonmises	-0.05237729663789648	-3.000998039656225	2.574216185169843	2.454763493497473	0.31881378052940823	3.4388069873782987	0.7377229001799236	-0.43386959452853213	1.1715924947084557	77.39877210359575
11	4.0	wm	375	diff_vonmises	-0.33190387458435633	-19.016691217723007	0.9459912849944764	158.78103028496568	0.9331083752225645	160.0252310299776	-0.020638520838396346	-0.2732438229814065	0.25260530214301014	81.31908910981919
12	5.0	ltm	375	diff_vonmises	-0.054833902219935796	-3.1417511714353568	1.4011901756588232	122.12738043467311	1.381580726946769	122.60871406022738	0.22973661691485603	-0.19035358554149795	0.420090202456354	74.67730452445906
13	5.0	perception	375	diff_vonmises	-0.10560313275417665	-6.050613810174068	1.083675134861332	113.59083930145127	1.0466427694060716	113.97513206278309	0.6559987589524425	-0.32247289663154	0.9784716555839825	89.18627561367265
14	5.0	wm	375	diff_vonmises	0.14100980633510643	8.079266772958697	1.1996771993404183	1.2886902324989469	1.9421777233297975e-13	1.5705369011296848	0.23855410908535815	-0.20561310581779377	0.4441672149031519	120.56997501202416
15	6.0	ltm	375	diff_vonmises	-0.4707158145554538	-26.97002952409023	0.7665138555782195	103.41302755672092	0.7528053438665762	103.7437260787116	0.17323809800241818	-0.14877726474326458	0.32201536274568276	102.43295969656883
16	6.0	perception	375	diff_vonmises	-0.013014123672919268	-0.7456543605195675	0.5826519899168202	103.2183477195097	0.5622480141651922	103.59937450285015	0.29898975704766784	-0.2544942709537903	0.5534840280014581	118.76299372331138
17	6.0	wm	375	diff_vonmises	0.19525633942769693	11.187364172380887	0.00035787829643526273	3171.3912215469036	7.426427558617737e-30	3171.7917173321757	0.11691072746964437	-0.24436017306175017	0.36127090053139455	178.68889434171564
18	7.0	ltm	375	diff_vonmises	0.07681300183951822	4.401060817135023	1.4277555897490486	143.07242834751645	1.4090093640924954	144.16495823748676	0.021284732222554226	-0.28466217330408483	0.30594690552663906	67.1658863641297
19	7.0	perception	375	diff_vonmises	-0.20980568476233166	-12.02098025473381	2.3741153489427615	1.2674193286647393	1.2946597239796467e-09	2.269100701208567	0.36340865645268117	-0.3548589277403771	0.7182675841930583	89.2284694922739
20	7.0	wm	375	diff_vonmises	0.677678375765005	38.82811079861548	18.284381051064212	0.23586681255324385	0.040772538738001636	1.0730003106060122	0.22170236587039702	-0.17468829300774658	0.3963906588781436	31.51112690552216
0	1.0	ltm	376	diff_vonmises	-0.28647961480487877	-16.414072844853088	20.485149057448965	0.13027330637997211	2.0664209995923747e-31	3.1810811627083377	-0.2726516594326495	-0.5062847914215458	0.2336331319888963	29.91276090679372
1	1.0	perception	376	diff_vonmises	-0.06277942077801528	-3.5969958508561826	12.08970176838777	0.6469478991655956	7.400032764036948e-19	3.9664214889813003	0.25621288973061973	-0.6312755863292714	0.8874884760598911	39.00182212965481
2	1.0	wm	376	diff_vonmises	-0.0832531666337621	-4.770055079213935	4.410521132946535	0.5003046190233652	0.10338366405896626	3.51472434325223	-0.2130634494464856	-0.5577302195318666	0.34466677008538105	59.97351599026297
3	2.0	ltm	376	diff_vonmises	-0.10235071501323761	-5.864264000404787	3.8669639411744887	0.3392189793897807	1.1995777491227796e-30	1.647814449190168	-0.0062316636601542075	-0.26214574432474086	0.25591408066458665	69.65881953360915
4	2.0	perception	376	diff_vonmises	0.01911961569752898	1.095473285380488	6.909849487962534	1.7068367956093524	0.518914105117939	3.212351274436733	0.9510780981772314	-0.5656097786297797	1.5166878768070111	48.19299182847763
5	2.0	wm	376	diff_vonmises	0.05271358451695015	3.020265915827406	2.941455124478205	0.8009609425036107	0.23584161505246748	2.306121853326863	0.0604684284741987	-0.3346476792222267	0.3951161076964254	70.6819666032882
6	3.0	ltm	376	diff_vonmises	-0.18937482210210801	-10.85037805249157	1.3433242230872713	130.51304448209396	1.3249987311593392	131.53107434143283	0.02288988073676279	-0.2589506900155705	0.28184057075233326	69.4416665755351
7	3.0	perception	376	diff_vonmises	-0.01664433400070508	-0.9536500910464976	4.308716090486163	2.72372049143843	0.8556602121494992	3.530341903204739	1.0710096189460359	-0.5038211890087144	1.5748308079547502	57.49960621197195
8	3.0	wm	376	diff_vonmises	0.11958776766634148	6.851874368672417	1.2492512020743909	64.89202646265672	1.2046464341647316	65.79400402246844	0.1897302620657655	-0.272629706793043	0.4623599688588085	77.08902093562733
9	4.0	ltm	376	diff_vonmises	-0.627247152459205	-35.93861454751134	0.7293270261573163	156.38808019302186	0.712031387768595	158.7629010250807	-0.16526345509404194	-0.4669982727115958	0.30173481761755383	88.34751104654426
10	4.0	perception	376	diff_vonmises	-0.015271421847183027	-0.8749880190074671	2.3735996531419827	3.1122228455752325	0.4272283397286297	4.561054588429045	0.7151979878451413	-0.534754965095718	1.2499529529408593	77.19752657809369
11	4.0	wm	376	diff_vonmises	0.16438595496160385	9.418621430527535	2.5574917304010247	0.5163475322409659	4.192228598287724e-14	3.1768827786870957	-0.19723753398151483	-0.5037641965160136	0.30652666253449873	85.99688284624781
12	5.0	ltm	376	diff_vonmises	0.008831294010807051	0.5059958744584053	1.0177383235787916	65.57746956094563	0.9689924480065837	66.90713421359551	0.15844407482968847	-0.35277465035881406	0.5112187251885025	84.27666399804991
13	5.0	perception	376	diff_vonmises	-0.10522193741780658	-6.028772926229992	1.0493861508022542	345.89504795299496	1.0335833272383181	347.166282517527	0.5875733245951835	-0.4911005470803431	1.0786738716755266	86.80755984381312
14	5.0	wm	376	diff_vonmises	0.18402616639457814	10.543922654381548	0.9173063405332927	1.8797198175604848	6.3108123325983414e-18	3.0565571291450273	0.126337628458071	-0.3886108357179503	0.5149484641760214	131.7625134341696
15	6.0	ltm	376	diff_vonmises	-0.4871152226952722	-27.90964639701431	0.8020716005232509	159.114352405872	0.789500375341266	159.96087892587326	0.12664732564653747	-0.23784560005397104	0.3644929257005085	95.44902864303825
16	6.0	perception	376	diff_vonmises	-0.027021287962651266	-1.5482057572675725	0.492181632984207	136.4113434289366	0.4714558706401843	137.45709236953098	0.27438810107354783	-0.42226541206651547	0.6966535131400633	124.70176682205783
17	6.0	wm	376	diff_vonmises	0.14107220614123966	8.082842018492565	0.6604617777489926	2.73677589547404	2.9541107894887953e-16	3.876675129030992	0.14117527934974805	-0.4146454468493334	0.5558207261990815	143.7205304797896
18	7.0	ltm	376	diff_vonmises	-0.09918502543359986	-5.682883348243	1.1429280686976921	107.71630005745297	1.1218520456852423	109.24891637950391	-0.1355078667154217	-0.32698565482427	0.1914777881088483	68.7261869306189
19	7.0	perception	376	diff_vonmises	-0.012113244340413477	-0.6940377769164229	1.530969233828253	1.4429059543311222	3.0567511902735024e-16	3.2132477786439053	0.12137267493104997	-0.4817909796996722	0.6031636546307222	109.50606005267127
20	7.0	wm	376	diff_vonmises	0.3153258677136359	18.066841391291845	0.6681537467173655	125.93482589300227	0.6537343001986146	127.66355149321993	-0.13130751089880732	-0.3347022139386766	0.20339470303986928	91.54701738101963
0	1.0	ltm	377	diff_vonmises	-0.5656361915401434	-32.40856651510366	0.00039761554994184237	1694.6579012706404	4.079634092588045e-25	1696.7636599122566	-0.2278918104124159	-0.44237066472533115	0.21447885431291525	171.04893173699838
1	1.0	perception	377	diff_vonmises	-0.14758132559237822	-8.455787091389317	14.903327807891836	0.6301485685056903	0.08993435465257991	2.8760042351620174	0.4618552201980266	-0.47968899620197614	0.9415442164000027	34.6768926017761
2	1.0	wm	377	diff_vonmises	-0.11631529895406811	-6.664375722870542	2.664484363144895	0.7797453031785352	0.2083265862653147	2.481364466220873	-0.004185981463427246	-0.35757259824509996	0.3533866167816727	73.53685670652408
3	2.0	ltm	377	diff_vonmises	-0.09079877402862466	-5.202386536802264	3.852210732519242	0.4017412126581361	4.376777283891465e-24	1.6650171352396463	0.03758021285328994	-0.2648592907157953	0.3024395035690852	69.79684587139604
4	2.0	perception	377	diff_vonmises	0.019748118038128495	1.131483816910934	6.0905274929700965	1.5079619852739234	0.5120274340904972	2.7937200415521937	0.7558305986716978	-0.47446169419824513	1.230292292869943	50.972244579916065
5	2.0	wm	377	diff_vonmises	0.4952745840230546	28.3771433646185	3.9490706177595243	0.46315847822123757	1.9040498383045043e-15	1.3983000842543478	0.1310417748119298	-0.22241501344728323	0.353456788259213	68.90286627716534
6	3.0	ltm	377	diff_vonmises	-0.17765263646074864	-10.178746288572823	1.6798177867925344	3.4008613441760693	1.0192053140072883	4.36156028193922	0.07179578342982218	-0.2550213896347694	0.32681717306459157	71.04268523009034
7	3.0	perception	377	diff_vonmises	-0.07248241049316236	-4.152936210192955	4.61681281115129	1.812339965745357	0.33682450616270965	2.8916724331996475	0.8792483081984401	-0.4412357935484482	1.3204841017468882	59.56774402163609
8	3.0	wm	377	diff_vonmises	0.3465671993941689	19.85683784295474	0.9475066209093914	77.68847761205753	0.9243669495658529	77.89928979163292	0.2726883665009936	-0.15165472983356842	0.424343096334562	94.59495389492997
9	4.0	ltm	377	diff_vonmises	-0.4113497725936252	-23.568605873280905	4.684812574184407	0.6289233476473389	0.331244813926884	2.3860619747721494	0.011969993178737925	-0.39027854075287033	0.40224853393160825	55.699685870037484
10	4.0	perception	377	diff_vonmises	-0.07225477560142243	-4.13989369162634	1.0504377635836568	133.75061321157327	1.0093856043975733	135.40621608962846	0.4671560255149956	-0.533446102856276	1.0006021283712716	85.58365714240196
11	4.0	wm	377	diff_vonmises	-0.5660779712715466	-32.43387862918748	1.0576154021064776	183.03088847107873	1.0441956778966488	184.70645483648698	-0.124157252254264	-0.35272525757168083	0.22856800531741683	72.60592531645786
12	5.0	ltm	377	diff_vonmises	-0.2619863412860695	-15.010711645765776	1.133073849836408	120.89913546231185	1.1088856351902763	121.80549838730305	0.21780979482124252	-0.2794221454739354	0.4972319402951779	81.31055112413006
13	5.0	perception	377	diff_vonmises	-0.11142106188569462	-6.383956594916259	1.1492704124843656	26.401301852578502	0.963162670767058	27.463351567730598	0.5685070423561509	-0.43736877994669676	1.0058758223028477	86.70222699248157
14	5.0	wm	377	diff_vonmises	-0.08197939593932284	-4.697073394355118	0.5238371174956473	57.89819222591103	0.4930421113953311	58.29610094291477	0.23599806994697303	-0.23603292233679518	0.4720309922837682	124.0761029845108
15	6.0	ltm	377	diff_vonmises	-0.4074307215315289	-23.344060787726523	0.8270005232745481	138.4127000560091	0.8116127767579372	139.37015016076728	0.11380431830291116	-0.25589144838602706	0.3696957666889382	93.22541948342881
16	6.0	perception	377	diff_vonmises	0.043110603373649206	2.470055625572548	0.5257035129617263	111.11784828127807	0.5038856307135267	112.26811417573043	0.16945610536770062	-0.37378939124796773	0.5432454966156683	119.41437570008077
17	6.0	wm	377	diff_vonmises	0.4644462269640621	26.610808615815895	0.00022499938074589472	3600.873353944673	6.195600379216486e-32	3601.8926086133074	-0.0332687178905644	-0.29115561458093	0.2578868966903656	173.46108971820445
18	7.0	ltm	377	diff_vonmises	-0.11720055723957813	-6.715097286409253	1.0749984235023675	164.71170492378351	1.0565184710848508	166.39149934155296	-0.019805863540497626	-0.38130295808893777	0.36149709454844015	76.44285821191394
19	7.0	perception	377	diff_vonmises	-0.35336629968279004	-20.24639759397891	0.7378689907071356	224.82035966172754	0.7196392670829623	226.5912066448873	0.2714353043601818	-0.5104075189051898	0.7818428232653716	100.02546148351055
20	7.0	wm	377	diff_vonmises	0.7042857294902654	40.352599871084585	16.413610535038117	0.41077820081254823	0.3049103879564477	1.5069312102330088	0.3406165271131785	-0.2853523665709616	0.6259688936841401	32.52047916080187
0	1.0	ltm	378	diff_vonmises	-0.35296888419227396	-20.22362736365922	0.00034158362598741556	2489.804359874306	6.551634100345979e-30	2492.024714258325	-0.2180123260760638	-0.4887253079365337	0.2707129818604699	176.44916669668186
1	1.0	perception	378	diff_vonmises	-0.14246585324784364	-8.162692115831593	11.678802957591843	0.7608186460060921	0.1455961672670491	3.0640352180245047	0.4645481758905433	-0.5202917138779282	0.9848398897684715	38.79722902387272
2	1.0	wm	378	diff_vonmises	-0.06980682794912231	-3.9996366226805846	1.959652701480897	1.335197146226155	0.32992239041673604	3.0947997988136478	0.013565507888498751	-0.3850542746861248	0.39861978257462355	79.62096522383175
3	2.0	ltm	378	diff_vonmises	-0.04877675754081521	-2.7947023454216238	2.5500457228707893	0.45497313443792636	2.7790559967003064e-24	1.8151329389183948	-0.017612464213614953	-0.2872335822804057	0.26962111806679073	86.13402262025787
4	2.0	perception	378	diff_vonmises	0.020766650371527178	1.1898414209122903	5.592805363365759	1.5185946863710509	0.47829172977501355	2.777118456496543	0.7234802261659371	-0.45743515808549123	1.1809153842514284	53.16475629768715
5	2.0	wm	378	diff_vonmises	0.5810938728508402	33.29422641526484	4.327256845761915	0.5214973271443374	3.5611135811644335e-14	1.3586774793382963	0.20219497189983254	-0.21616727935474422	0.41836225125457677	65.74554828163329
6	3.0	ltm	378	diff_vonmises	-0.20938466205720058	-11.996857430650618	2.7147353124469857	0.6103749737094184	0.27548071712108224	1.5181534006305457	0.06515279611879715	-0.21212532799806674	0.2772781241168639	72.71821881863846
7	3.0	perception	378	diff_vonmises	-0.10155166079140025	-5.818481565891396	4.470523115679956	1.5550710945534345	0.1317630048389566	2.5446913858672007	0.8098836321677557	-0.3889812473295595	1.1988648794973153	62.66235897957486
8	3.0	wm	378	diff_vonmises	0.3822199807827634	21.899591744423777	0.7234338168986971	74.15938652417056	0.7029133051357422	74.11772230844622	0.3020884800161028	-0.13723780705563993	0.4393262870717427	110.96895723111618
9	4.0	ltm	378	diff_vonmises	-0.3460931249579996	-19.829675378587194	5.073425877004961	0.6180018376539633	0.3364822464499044	2.3014767347215157	0.04145886512636465	-0.3817529942208923	0.42321185934725697	54.03082572332505
10	4.0	perception	378	diff_vonmises	-0.0698678877295579	-4.00313509039754	1.3548484535881926	6.750936394313313	0.6688398746175453	8.287314857104713	0.4412037124546906	-0.4953609808781692	0.9365646933328597	87.16234436215254
11	4.0	wm	378	diff_vonmises	-0.6430228598990713	-36.842496002648815	1.20849433367304	183.51948691079164	1.193223363605028	185.07299652357537	-0.06943050630927416	-0.3535757718238486	0.2841452655145744	70.08692919844447
12	5.0	ltm	378	diff_vonmises	-0.4108517971308176	-23.540073980960955	1.0309798550563534	137.14748627541945	1.0109679175904058	138.06557027357906	0.20256116944280222	-0.2759948051230783	0.4785559745658805	85.09923653873592
13	5.0	perception	378	diff_vonmises	-0.1226718482284552	-7.028579168559867	2.254834358137734	2.5170423382863873	0.34552680299266886	3.5371442617174904	0.6234184331458176	-0.4182949157541643	1.041713348899982	80.97149584483682
14	5.0	wm	378	diff_vonmises	-0.183835725779213	-10.533011210873253	0.44039826719833963	124.71047591958514	0.4267167212872555	124.97755557244167	0.2529213499009977	-0.23014688826178187	0.48306823816277955	131.98475267183758
15	6.0	ltm	378	diff_vonmises	-0.40770604834828184	-23.35983585231324	0.7183227498761641	112.2699641038028	0.7003083384099877	113.30442970028065	0.09119843714823617	-0.26997290976266264	0.3611713469108988	99.5709453962938
16	6.0	perception	378	diff_vonmises	0.2038533868783214	11.679938707575372	0.26088201325875804	149.4293906523545	0.24708338500318164	150.5833678715259	0.132266911421695	-0.4233467261403767	0.5556136375620717	148.7533480509045
17	6.0	wm	378	diff_vonmises	0.6854280209805507	39.27213276219	0.00012077524797284528	5826.016197959412	6.847356060021487e-31	5827.072007745382	-0.056047674968453975	-0.28002025547789344	0.22397258050943947	166.3828239031164
18	7.0	ltm	378	diff_vonmises	-0.30772242913029085	-17.631196450679244	1.8521347789233733	0.8780834034289596	0.05266256873276266	2.5179835248182396	0.010239666075865739	-0.3692843657925247	0.37952403186839045	95.60866647594275
19	7.0	perception	378	diff_vonmises	-0.34485786921899964	-19.75890043812318	0.7440577768383719	70.13093565064551	0.6810428667049232	71.84114332138104	0.36220248355843765	-0.541981618148542	0.9041841017069796	102.44341498019308
20	7.0	wm	378	diff_vonmises	0.4890273386827973	28.01920257303899	1.4761880110405299	73.26449733583523	1.4305671517202367	74.01132088762536	0.27595594878902574	-0.27283403731094324	0.548789986099969	72.17283022784514
0	1.0	ltm	379	diff_vonmises	-0.009290359470980097	-0.5322983878465517	6.678821525779758	0.24328170253885092	0.035441668603842263	3.4994400392756724	-0.33116386226677397	-0.5605330665363729	0.22936920426959895	50.74306727322215
1	1.0	perception	379	diff_vonmises	-0.06634349646050151	-3.801202345327852	13.100396873453631	0.7651625225295559	0.10102918033365109	4.06525616600405	0.3798791305118392	-0.6799113703518382	1.0597905008636774	36.78601726512059
2	1.0	wm	379	diff_vonmises	-0.12762259422575817	-7.312236019646614	5.169350587204176	0.3822364140654447	0.055578355472671266	3.4252407997138437	-0.2385000241772559	-0.5454405343720989	0.30694051019484303	57.08384587236782
3	2.0	ltm	379	diff_vonmises	-0.1349359627262399	-7.731261168748135	3.889964755166658	0.4887148933818222	2.8802346897694964e-41	2.439952102598797	-0.01828287875771195	-0.3881757295080347	0.36989285075032274	69.44847128240093
4	2.0	perception	379	diff_vonmises	-0.02682944750480652	-1.537214108693211	8.15370193902045	1.3589709339272906	0.27498392175187264	3.4802845973536045	0.8068521820899047	-0.5983565203028072	1.405208702392712	45.63424175962231
5	2.0	wm	379	diff_vonmises	-0.023717813153770164	-1.358930592990899	3.6087803537352916	0.6537513442370784	0.0847494705604246	2.756954332739021	-0.0017729290933238828	-0.4254148864230769	0.423641957329753	68.00559646122636
6	3.0	ltm	379	diff_vonmises	-0.23597823007869523	-13.520556640476332	2.279266359947764	1.0639141787892665	0.2726055826338689	2.468637687367862	0.08704943167107648	-0.327085267912238	0.4141346995833145	78.14352016465634
7	3.0	perception	379	diff_vonmises	-0.05740016503407705	-3.288787199807016	2.686590077957983	4.88176378774941	0.914066001048826	6.103817112814366	1.0144081398616898	-0.6074925701999424	1.6219007100616323	67.61227293217394
8	3.0	wm	379	diff_vonmises	-0.045667898729068464	-2.616577856406479	1.244743270463466	183.4209360012917	1.2229756515788985	184.72341122940293	0.2343419850708699	-0.3817451511963199	0.6160871362671898	76.3630844468203
9	4.0	ltm	379	diff_vonmises	-0.08802904656775695	-5.0436928428930585	0.7675684006900053	168.8762668068703	0.750938737309692	171.54244792843636	-0.24839229672679863	-0.5082441737521037	0.2598518770253051	82.69594131345528
10	4.0	perception	379	diff_vonmises	-0.14086750570105674	-8.071113547205615	1.9790705615606359	4.286520639818141	0.4871029606514961	6.289207921202875	0.6606835982794452	-0.6521997290586655	1.3128833273381106	80.6554307413418
11	4.0	wm	379	diff_vonmises	-0.1657358517254973	-9.495964817876997	0.5573968567878924	155.23925283346708	0.5441009827127783	157.85230770564786	-0.27783282631764905	-0.4746428156645699	0.19680998934692084	94.45184270195467
12	5.0	ltm	379	diff_vonmises	-0.001229042449677822	-0.07041894520895907	1.8653700987799002	1.3792493894753226	0.2050654272232468	2.8725363753745325	0.12672793979215924	-0.36690817848095947	0.4936361182731187	87.96688005775212
13	5.0	perception	379	diff_vonmises	-0.08088874117307916	-4.634583479343528	1.4678809090858143	6.709760626627205	0.6323920385886685	8.31740612509183	0.608663967614484	-0.5676786820296267	1.1763426496441107	86.67229455582358
14	5.0	wm	379	diff_vonmises	-0.14993930691945387	-8.590889469601407	1.5269440087253203	1.0963676713324184	8.117649321077806e-15	2.62785559619328	0.06179312308930024	-0.3955889893737329	0.4573821124630331	109.56012765650622
15	6.0	ltm	379	diff_vonmises	-0.34883200523528324	-19.986601659067166	0.7417451257620078	174.6653086964271	0.729004338725864	176.0967479470339	0.009441303366678255	-0.3221734328419501	0.33161473620862836	94.00403649854472
16	6.0	perception	379	diff_vonmises	0.10595954649697321	6.071034813396771	0.3858410967610794	5.248437682971836	3.7363835401747753e-11	6.644035555717402	0.12670860527163885	-0.5100801420569652	0.636788747328604	158.01039524109427
17	6.0	wm	379	diff_vonmises	0.11010765756049326	6.308704070287994	0.49637823411374676	2.318751722675375	5.360650701494861e-16	3.850391514645304	-0.042257137204347095	-0.4013856580558459	0.3591285208514988	152.132170292446
18	7.0	ltm	379	diff_vonmises	-0.44781092385975985	-25.657675957018498	0.9944826523715143	131.1975981470364	0.9755413576706489	132.5059332075144	0.02966843949051423	-0.3053397536050042	0.33500819309551844	81.37607476661611
19	7.0	perception	379	diff_vonmises	-0.0926355862904183	-5.3076281271609185	0.4456669018036556	203.44656494449166	0.43271358090496737	205.24220190090332	0.06676124681625595	-0.4900597683390835	0.5568210151553394	124.82867648429574
20	7.0	wm	379	diff_vonmises	0.2715462905395685	15.55845639035051	0.8311131527174378	106.2486794603402	0.8114367665450318	107.772832376077	-0.06699138831338303	-0.3159289133150427	0.24893752500165967	85.14278338035817
0	1.0	ltm	380	diff_vonmises	0.012748519779394625	0.7304363783983633	5.237870346238781	0.5239919958065178	0.018233443181954745	3.78903740739141	-0.14836826235957812	-0.6005500611411297	0.4521817987815516	58.622185361323176
1	1.0	perception	380	diff_vonmises	-0.08587768013770604	-4.920428626265014	11.780059459354453	0.66650904787348	0.006215774509437106	3.8560717130228777	0.28499485615613873	-0.6146302331611397	0.8996250893172785	39.43171589447684
2	1.0	wm	380	diff_vonmises	-0.19061658554036057	-10.921525856657095	3.828330852758203	0.739985805475604	0.13199472732833514	3.9360059985239033	-0.15628150844751731	-0.6147436449042483	0.45846213645673095	63.68177338765855
3	2.0	ltm	380	diff_vonmises	0.027984219035064362	1.6033776436788492	2.3353021061044745	0.7154637913723653	2.4645929069078715e-18	2.6622750389348617	-0.01870428901752158	-0.41992023823647473	0.40121594921895315	89.9932158250634
4	2.0	perception	380	diff_vonmises	0.022948139746689165	1.3148315551617031	5.050334221350458	1.7074367428839567	0.37742413879154224	3.482697006824749	0.7079931427834495	-0.5558365122221702	1.2638296550056198	56.090540629518216
5	2.0	wm	380	diff_vonmises	0.1323496824719672	7.58307822554029	2.462906861637696	1.1381895233667076	0.24570289577533175	2.896284836927331	0.08434421284554139	-0.3987786406440617	0.4831228534896031	76.13867960447166
6	3.0	ltm	380	diff_vonmises	-0.15387865865084627	-8.816597697827746	0.9094414170598019	223.86943274341942	0.8922708068443738	225.90120924357478	0.0793698234658251	-0.48076407402695764	0.5601338974927828	86.01509582017371
7	3.0	perception	380	diff_vonmises	-0.04750789780121458	-2.7220020375484393	2.9820697971202526	3.231500579534647	0.39552995006381053	5.12185491977298	0.9445374962961055	-0.6773264472257943	1.6218639435218998	70.75238041385637
8	3.0	wm	380	diff_vonmises	0.10832770825193967	6.206720487160644	1.4749542478854216	1.645854877771994	9.11980245585897e-13	3.1440766322453615	0.20527485907927112	-0.4634566778592701	0.6687315369385411	111.1923433094554
9	4.0	ltm	380	diff_vonmises	-0.2748769621082371	-15.749289814179436	0.512101745956589	167.06899660295414	0.4939856419727725	170.00926267008495	-0.15622571652245654	-0.6127763211926016	0.4565506046701451	109.53858181359641
10	4.0	perception	380	diff_vonmises	-0.05980270208794091	-3.4264424331172103	0.8655787689575786	515.3226278770923	0.8519015605238707	517.7129248065448	0.5950122080919868	-0.7572898354926281	1.352302043584615	93.58726663735447
11	4.0	wm	380	diff_vonmises	-0.23213550853269715	-13.300384914046656	0.5789320369374589	157.09969817570658	0.5595009038730104	160.07889356471983	-0.19247418398477123	-0.5931660885579362	0.40069190457316495	100.8594869069413
12	5.0	ltm	380	diff_vonmises	-0.16667198366706043	-9.549601227195952	0.7277607701758546	104.50149690187536	0.7000382437956331	105.59546619724463	0.2411506254062239	-0.3508209195109071	0.591971544917131	102.48931575129316
13	5.0	perception	380	diff_vonmises	-0.07983995894565142	-4.574492684083588	0.9739915834545619	402.0030020069741	0.9598505142079238	403.2075175516173	0.6757682630140209	-0.5160419020454157	1.1918101650594366	90.84052354521464
14	5.0	wm	380	diff_vonmises	-0.05689000577386441	-3.2595572273173157	0.36556023597071674	195.0966904573131	0.3539036419787329	196.18794783150688	0.17349127957447763	-0.40609198235141974	0.5795832619258974	137.10832072362695
15	6.0	ltm	380	diff_vonmises	-0.46062149394372726	-26.39166755598638	0.7234361653229692	178.59063410591503	0.7113490909737341	179.73155894858075	0.08458097704200895	-0.29002331242233126	0.3746042894643402	98.47473459866156
16	6.0	perception	380	diff_vonmises	-0.11658470809954188	-6.6798117298684145	0.4806607281626761	263.53492258466986	0.4698806542714221	264.68958189052233	0.25042012268006175	-0.4361245400244833	0.6865446627045451	124.8050333090812
17	6.0	wm	380	diff_vonmises	0.12799814268045798	7.333753361103573	0.37282134774136827	3.746599354529086	2.9554227837893467e-19	4.93706023086175	0.050628416895178385	-0.38894652590593043	0.4395749428011088	158.60389483869523
18	7.0	ltm	380	diff_vonmises	-0.5631571678280104	-32.26652891908558	3.3956264870053166	0.5220263109700943	5.588306597694455e-18	2.349736437074662	-0.007325602933097808	-0.3735601892004371	0.3662345862673393	74.42309048905027
19	7.0	perception	380	diff_vonmises	-0.00011802157090140411	-0.006762137904154463	0.48675484371569666	339.16983355463105	0.4745633835220336	341.44678336231397	0.21942993856244186	-0.687531110276197	0.9069610488386388	121.93521937251572
20	7.0	wm	380	diff_vonmises	0.15893707636449556	9.106423683834064	1.0143641787769495	193.35669532074132	0.9976525037208249	195.47133917536559	-0.11070060974275009	-0.4501579527984845	0.3394573430557344	76.06387671829276
0	1.0	ltm	381	diff_vonmises	-0.19987536045906618	-11.452014582960508	3.948891321750533	0.36655654822001893	1.4070960473622917e-21	3.4610288747087044	-0.27101771996936685	-0.5507358554996931	0.2797181355303262	68.9165884810374
1	1.0	perception	381	diff_vonmises	-0.0191917746231721	-1.0996076872740372	7.231247168299415	0.990517692682807	1.5697713835296824e-19	4.315175515421846	0.3561339393616163	-0.6867809674823016	1.0429149068439179	50.58692218564508
2	1.0	wm	381	diff_vonmises	-0.13476755064189203	-7.7216118670960014	5.938970767961142	0.5022480362475603	0.11498573883739739	3.8579813114125883	-0.20953489668573544	-0.6273243198636504	0.417789423177915	52.240465684346844
3	2.0	ltm	381	diff_vonmises	0.01116418560621978	0.6396607169370958	0.7773641228774655	48.589841210621806	0.7338545378876746	50.06754267351496	-0.026430420179776704	-0.31828659965233363	0.29185617947255693	91.07058785655215
4	2.0	perception	381	diff_vonmises	0.02752184750125432	1.5768857062245432	5.371221700103649	2.0326273813634406	0.4569283665634598	3.512479747750006	0.9922038176285689	-0.5673192167205112	1.55952303434908	54.466510533658266
5	2.0	wm	381	diff_vonmises	0.03130011737067383	1.7933646236037255	1.6667034836769108	2.055497211692747	0.4218690989744714	3.8280660252323906	0.060216151388424066	-0.4076562122304274	0.4678723636188515	82.68934782127494
6	3.0	ltm	381	diff_vonmises	-0.09922842792899948	-5.685370128049734	0.9902903346386589	139.15693284011414	0.9710874401100902	140.5676663960507	0.03197107203530436	-0.32901530356544484	0.3609863756007492	81.56294702599038
7	3.0	perception	381	diff_vonmises	-0.012217786695445265	-0.7000276126401026	3.5296266227180904	3.0261832348639865	0.5898001542306078	4.026613765788756	1.1102324479908086	-0.5348755362345661	1.6451079842253746	64.67050598945414
8	3.0	wm	381	diff_vonmises	0.07494939592413298	4.294284063507834	0.847119832164478	165.35233837347636	0.8289220046906816	166.59001962304657	0.19167999693399196	-0.3473988658137319	0.5390788627477239	93.02906299742656
9	4.0	ltm	381	diff_vonmises	-0.638793625971427	-36.60017874802126	0.6938442336074372	228.15824214175151	0.6791300364706032	231.02921911260427	-0.16608977739608122	-0.5753917571746285	0.4093019797785473	92.0661576684359
10	4.0	perception	381	diff_vonmises	-0.015300665806213502	-0.8766635744361668	1.9097307463196906	3.9174579580156825	0.327487763752668	5.423128340871517	0.7991312023420454	-0.6020209902560726	1.401152192598118	86.89682704134444
11	4.0	wm	381	diff_vonmises	-0.016223794772331105	-0.9295549681409806	1.4617930839262978	1.2064099465754548	5.505716571752717e-12	4.535008349555082	-0.20730480547513985	-0.6941213109431749	0.486816505468035	111.6626992497809
12	5.0	ltm	381	diff_vonmises	-0.08060026187181804	-4.618054832904383	0.8190019274679843	74.52968940228507	0.7877268886184469	75.35942731317701	0.19509821132976413	-0.2621551082225375	0.45725331955230164	96.65553809762838
13	5.0	perception	381	diff_vonmises	-0.11714342147241388	-6.7118236480914995	1.088442804072678	253.5438713225611	1.0667142972336159	254.1785597721062	0.8092351051159454	-0.4305733531916083	1.2398084583075537	88.10664146112612
14	5.0	wm	381	diff_vonmises	0.16563425502258367	9.490143755587601	0.29130028759838367	166.17545856610218	0.2792332709063926	167.18332967225362	0.14923259081084694	-0.3873203363121185	0.5365529271229654	145.48300747577758
15	6.0	ltm	381	diff_vonmises	-0.5472757795180985	-31.356592396119225	0.6660727059554693	91.60702335994917	0.6533679665324151	92.01951146746802	0.10762520550629162	-0.14455800891309245	0.25218321441938407	107.41579190128788
16	6.0	perception	381	diff_vonmises	-0.07478043601083993	-4.284603373569246	0.1858844368081621	161.0498257958015	0.1734490775613589	161.47745898994697	0.26420625965682376	-0.3446163563587632	0.608822616015587	159.18585166788301
17	6.0	wm	381	diff_vonmises	0.11025402339667466	6.317090214966091	0.3176098743374452	4.659749610847051	1.670365011211428e-17	5.30041577861148	0.15006077862135292	-0.3171285328736225	0.46718931149497545	161.70078638240687
18	7.0	ltm	381	diff_vonmises	-1.121360962421774	-64.24925045749575	0.0001826631947045994	4654.78811256677	8.461059015518875e-31	4655.9053888636045	-0.04249230890968647	-0.31313542318844156	0.2706431142787551	147.1426413403927
19	7.0	perception	381	diff_vonmises	0.0343791579022922	1.9697806510151756	0.7401100529593851	269.97500533960124	0.7249092640849889	271.4979913985682	0.34249539051967304	-0.48728066878661735	0.8297760593062904	101.20469808381966
20	7.0	wm	381	diff_vonmises	0.047500136294072105	2.721557335946515	0.8065633198127947	184.9232164061405	0.7942974513449474	186.6188649560496	-0.07987180372668234	-0.34886140508262287	0.2689896013559405	86.00186720736906
0	1.0	ltm	382	diff_vonmises	-0.3205952931029335	-18.36875722655768	23.753885326651655	0.1306040237213997	3.623033655704299e-33	3.3589481502625604	-0.28213787591270495	-0.534593201703665	0.25245532579096003	27.76712826497331
1	1.0	perception	382	diff_vonmises	-0.016686818337743232	-0.9560842642541951	8.951420785836238	0.740548727156587	1.1520746602881446e-18	4.280056189927939	0.1896844354268744	-0.681192084721253	0.8708765201481274	45.395653830619636
2	1.0	wm	382	diff_vonmises	-0.032645231967082446	-1.8704340129393826	4.011346123253212	0.5669072257332665	0.08706305612916179	3.8454607445103	-0.22989282898318297	-0.6044998898775179	0.37460706089433493	63.23721093306946
3	2.0	ltm	382	diff_vonmises	0.26376963481836335	15.112886838799188	0.3783575040002295	41.738729588664675	0.3540278226333891	42.875283251500214	-0.06497610452329816	-0.25099006147211167	0.1860139569488135	128.22870488274344
4	2.0	perception	382	diff_vonmises	0.026741379549488697	1.5321681865431531	6.679113318081043	1.7797434311308098	0.5698450162412289	3.0390133149136633	1.007786192646344	-0.5317448801494072	1.5395310727957514	48.87070953751481
5	2.0	wm	382	diff_vonmises	0.07402736545385032	4.241455608978175	2.577372256400269	1.0052532311564721	0.35770122681332495	2.3061912453777604	0.09463592919910746	-0.3099073960638744	0.40454332526298187	72.35009664108424
6	3.0	ltm	382	diff_vonmises	-0.20980130198552654	-12.020729140120329	1.3530812725545804	93.03290116727499	1.335019856347223	93.76337275927833	0.00808643226938699	-0.18424687424696629	0.19233330651635328	68.76171286814949
7	3.0	perception	382	diff_vonmises	-0.017930659561963283	-1.0273511167863896	5.227363631523644	2.0221227223537297	0.7289147951393744	2.5307962303191385	1.0613241344694129	-0.39714742101143585	1.4584715554808487	54.28911874066509
8	3.0	wm	382	diff_vonmises	0.1403741241334983	8.042844865694967	1.2195353082472422	43.77770002775391	1.169138593322142	44.39332635017696	0.17798492534503652	-0.20087960441325858	0.3788645297582951	79.26446943367375
9	4.0	ltm	382	diff_vonmises	-0.6633584107113419	-38.00763723826576	0.6592082102140481	152.81451915806585	0.6428490891143476	154.95543010839037	-0.11075575062703535	-0.4344680769063416	0.32371232627930624	95.39181601661703
10	4.0	perception	382	diff_vonmises	0.022073802344662545	1.2647357121551448	2.6899200283821423	2.635745692285503	0.37043620303724867	3.7329804632803345	0.7895088330370222	-0.46970647743639515	1.2592153104734174	74.96637098163578
11	4.0	wm	382	diff_vonmises	0.17790656556588083	10.193295354592433	2.2878113846234864	0.7173265108056012	1.308392176938879e-14	3.2260219265875683	-0.1122847454410722	-0.5093054039099456	0.3970206584688734	90.87562248918167
12	5.0	ltm	382	diff_vonmises	0.012198154658595417	0.698902779785361	0.9616361493008312	94.83994402545866	0.9302936379330632	96.2137682024332	0.11334601787231335	-0.34640650108146787	0.4597525189537812	85.4083982301953
13	5.0	perception	382	diff_vonmises	-0.10196109748319172	-5.841940560308846	1.0535176421041288	348.55925554481956	1.0381553148230953	349.76729561782	0.5870727192994565	-0.47681691806070603	1.0638896373601625	86.78828606817723
14	5.0	wm	382	diff_vonmises	0.2568546432156419	14.716687004594844	0.765237710201401	2.3680303779103022	1.4932951250907788e-11	3.530917983690926	0.14134971067099444	-0.40974029015328733	0.5510900008242818	138.17440271704703
15	6.0	ltm	382	diff_vonmises	-0.563364588763427	-32.27841326326761	0.7631712867207646	158.41612335551335	0.7501486545565645	159.1661319692816	0.17326904390431963	-0.23958878282598306	0.4128578267303027	99.62488846887045
16	6.0	perception	382	diff_vonmises	-0.03316109684514675	-1.8999908932514982	0.5613246580725233	197.16609882143095	0.5449585678869068	198.10527660587246	0.36794186265264983	-0.42761565706631544	0.7955575197189653	118.70666005262581
17	6.0	wm	382	diff_vonmises	0.1210407832328513	6.93512602820024	0.7260836570700777	3.125016064474768	1.6292145503114544e-16	4.198186542167248	0.23663064965068958	-0.45638392493067387	0.6930145745813634	140.6329619001893
18	7.0	ltm	382	diff_vonmises	0.08257357226203131	4.731117189932917	0.9955521552942416	81.55475920965	0.9739625858252768	83.11648350196666	-0.1924530593778968	-0.3081952233607552	0.11574216398285841	68.53140020534175
19	7.0	perception	382	diff_vonmises	0.020891745353261004	1.1970088354039046	1.8467892625430484	1.3815651213170803	9.930498191130954e-19	3.0865774811312576	0.18786007539245647	-0.47434568273929767	0.6622057581317542	100.71701112254777
20	7.0	wm	382	diff_vonmises	0.21510657190036808	12.32469871541848	0.5214470663969569	150.1759715802438	0.5100709881308315	151.9261836854413	-0.11507997965527039	-0.3514359613084732	0.23635598165320282	106.26641770694408
0	1.0	ltm	383	diff_vonmises	-0.6427958711642359	-36.82949050614573	0.3602405935871332	1.9675061921075405	8.757814928869566e-13	3.3705256995811506	-0.10171669413597395	-0.3249364280046523	0.22321973386867833	151.84185200773726
1	1.0	perception	383	diff_vonmises	-0.1309814653099467	-7.504685156699147	14.2827246572711	0.6805364830986668	0.027710698029238527	2.349035315963498	0.6319348788126515	-0.3782019006029948	1.0101367794156464	35.73602669988381
2	1.0	wm	383	diff_vonmises	-0.07180350389321201	-4.1140377273322235	3.2800410796325745	0.5382240125781718	0.14615926924764272	1.6782209926863396	0.06328193206988814	-0.2519012887059918	0.31518322077587996	69.91114707246496
3	2.0	ltm	383	diff_vonmises	-0.12479213866667109	-7.150062862011582	6.325410453739007	0.26059296898201717	6.641150578372033e-16	0.936323483299783	0.10683247105847915	-0.14901969067419607	0.2558521617326752	54.15091743502077
4	2.0	perception	383	diff_vonmises	0.022274584636891335	1.2762396901008168	6.254662145418811	1.6238325413601338	0.6923786150926959	2.2034942627703016	0.9610239952419675	-0.3755885987049956	1.336612593946963	50.25307228514441
5	2.0	wm	383	diff_vonmises	0.4629555549059726	26.525399398249284	3.601060243553966	0.41603659413957805	7.230846511803807e-13	0.9547143340567054	0.14993550481821022	-0.15172254577037592	0.30165805058858614	72.24146020522014
6	3.0	ltm	383	diff_vonmises	-0.14954004507538113	-8.56801345101543	1.8978291309816506	76.66069339674874	1.8741093479972364	77.09352666383282	0.0766912176282375	-0.15099444474151014	0.22768566236974763	60.81508478620705
7	3.0	perception	383	diff_vonmises	-0.04493064199982316	-2.574336157403104	5.609994341618772	1.6175845777896392	0.4945579740751825	1.9306659590251631	1.0163751509107302	-0.30620822261192915	1.3225833735226593	54.25848263776027
8	3.0	wm	383	diff_vonmises	0.337700190284841	19.348795644086195	1.2323723812093164	79.83200263423046	1.2156830077685468	79.79441008185363	0.25956448318610015	-0.0824479962072937	0.34201247939339385	85.81962128336096
9	4.0	ltm	383	diff_vonmises	-0.4330136126560261	-24.809852476902904	7.649808430779593	0.406897596532788	0.30396370578969545	1.4667021898501849	0.13195379015769332	-0.25599750985295794	0.38795130001065126	46.064942513604365
10	4.0	perception	383	diff_vonmises	-0.03854015474265508	-2.2081882085352396	2.61061234159829	2.193301855467189	0.3134034399731147	3.145159436527334	0.6575089737924456	-0.401088706407836	1.0585976802002817	76.9131773427365
11	4.0	wm	383	diff_vonmises	-0.4415709847409954	-25.30015378109471	1.092078358948198	160.4067969402555	1.079302740811996	161.5228485687384	-0.013730835113683781	-0.25445210260652473	0.24072126749284095	75.68701099426168
12	5.0	ltm	383	diff_vonmises	-0.14861847228370906	-8.51521121953853	1.4030073168012835	131.15939014235514	1.385009334195978	131.67586585623678	0.20855932683389256	-0.1922514493235976	0.40081077615749017	74.08491502552306
13	5.0	perception	383	diff_vonmises	-0.11484263545851892	-6.5799983199325895	1.4160144128730383	6.727948027366982	0.8038637311393717	7.181138360968258	0.628659033556608	-0.3223531163283483	0.9510121498849563	87.22875129934005
14	5.0	wm	383	diff_vonmises	0.09673338703851099	5.542414815312181	1.2394068454269593	1.2610622975276398	3.8650246467276774e-12	1.3860832188957084	0.2666464543234845	-0.1797465747939102	0.4463930291173947	119.18129406456826
15	6.0	ltm	383	diff_vonmises	-0.4720948733306795	-27.049043771611142	0.7697146698757855	90.46626564568449	0.7527840895234451	90.84053226877676	0.18217652825797614	-0.16196385581476402	0.34414038407274017	102.07541993528113
16	6.0	perception	383	diff_vonmises	0.022595457956516903	1.2946243770737142	0.5920011804202249	93.40313488041248	0.568800380006843	93.88038648703177	0.28539397110473885	-0.26699350209014217	0.552387473194881	117.37772077988087
17	6.0	wm	383	diff_vonmises	0.3207144949699879	18.375586990449975	0.00019920232564111254	5165.552676117634	2.0009212651194323e-31	5165.988641440643	0.09438746153330158	-0.2331432237131139	0.3275306852464155	176.74496738789793
18	7.0	ltm	383	diff_vonmises	0.08618502913474053	4.93803842663267	1.3411173662199058	133.34876519134107	1.3202589592510239	134.56262908713856	0.015938872705440588	-0.3054948119086802	0.3214336846141208	69.19389033663438
19	7.0	perception	383	diff_vonmises	-0.25963768619783506	-14.876143621678015	2.4804494568799313	1.3353199288059239	1.2283605056159478e-12	2.3865131207590355	0.40353225510886037	-0.37433660196182306	0.7778688570706834	87.29552230084705
20	7.0	wm	383	diff_vonmises	0.6862245397087454	39.317769923618684	19.69737221965157	0.3171098913527777	0.13225991692856384	1.0361795572964476	0.3702391316100226	-0.17863956637393058	0.5488786979839532	30.222156336751482
0	1.0	ltm	384	diff_vonmises	-0.43269896154257076	-24.791824296082822	0.5218044823398685	1.7525401361229431	5.732540830178323e-14	3.174577571640471	-0.06567836858244741	-0.3504398057197291	0.2847614371372817	148.1616234316037
1	1.0	perception	384	diff_vonmises	-0.07478065504196658	-4.284615923128385	11.62949955793557	0.9538292771052013	0.06473349559803057	2.535402623903569	0.8528923006202946	-0.4128805286239649	1.2657728292442596	39.456064900007306
2	1.0	wm	384	diff_vonmises	-0.1363390952252027	-7.811654739036349	6.576402800264576	0.29275846824312957	3.9744057044823106e-20	1.6062312573562834	0.0377057415787182	-0.2556390752168042	0.2933448167955224	53.09035164386893
3	2.0	ltm	384	diff_vonmises	-0.10747272867391011	-6.157733765769674	3.7237201825756716	0.4869844080610555	0.14545027581453374	1.317551586450107	0.11875612248174278	-0.19991599940506055	0.31867212188680333	66.71114005510393
4	2.0	perception	384	diff_vonmises	-0.023226331802294744	-1.3307707858419715	6.675588861393131	1.4631289034755097	0.29160825430731263	2.1305567890096193	1.0330713356928882	-0.3486838107089958	1.381755146401884	50.843331055529376
5	2.0	wm	384	diff_vonmises	0.01318744821929385	0.7555851255128505	2.140457371566054	0.753525076292247	0.14546072787622824	1.6503987926481751	0.10275514219854037	-0.22662583982701415	0.32938098202555455	85.69485891395067
6	3.0	ltm	384	diff_vonmises	-0.1376748302674112	-7.888186719502625	1.3139434173558777	122.52394299494085	1.2980912123279578	123.06255765646783	0.1387905323717007	-0.1729966238023568	0.3117871561740575	75.221571314371
7	3.0	perception	384	diff_vonmises	-0.039544666859305605	-2.2657425132890676	3.1124403325765164	3.186015999791832	0.7350496905863956	3.353589116193694	1.154025541337609	-0.37517128950682144	1.5291968308444304	68.04855952801486
8	3.0	wm	384	diff_vonmises	-0.07826129845633806	-4.484042100761875	1.2108282913623978	138.8608829691413	1.1939255235177282	139.22710656601765	0.29493085987253664	-0.1834021843659226	0.47833304423845924	82.225766120201
9	4.0	ltm	384	diff_vonmises	-0.2771980803389413	-15.88228009254966	7.896319708140181	0.35803524959992683	0.14000889047651185	1.547874671203876	0.11260917959089811	-0.2559879413566353	0.3685971209475334	46.62985261680308
10	4.0	perception	384	diff_vonmises	-0.12025821999593798	-6.890288457523011	2.803401682668339	2.369321401367065	0.07343288740013357	3.271191720927482	0.9331132280996856	-0.4811649188952268	1.4142781469949124	79.89160973481626
11	4.0	wm	384	diff_vonmises	-0.3924926352070328	-22.488171487330803	0.9322244943012764	165.0528053557021	0.917314392302062	166.2705905341133	0.07104040509908316	-0.2966223907374008	0.367662795836484	85.6021398669458
12	5.0	ltm	384	diff_vonmises	-0.009062664020187766	-0.5192523995018224	1.121500682387051	40.88521137931559	1.0783733884027844	41.26107990123563	0.19610287901655532	-0.15235266542838355	0.34845554444493887	84.78815424525689
13	5.0	perception	384	diff_vonmises	-0.08667195188571136	-4.965937045212198	2.4478047217462158	2.056799354941808	0.05382859856196549	2.125259957239211	0.8405461432410894	-0.3113330703902764	1.1518792136313658	86.46177643220773
14	5.0	wm	384	diff_vonmises	0.006310499667917124	0.36156499759035876	0.47919253117905336	48.56407819868344	0.4476076958545006	49.052388489272616	0.16921011229784355	-0.22581431541048858	0.3950244277083321	127.3558823129174
15	6.0	ltm	384	diff_vonmises	-0.3775988474354195	-21.634820307053804	0.4427470171486559	76.85950991620292	0.4288641762633582	77.24727624538936	0.10664636352627	-0.1655111579849926	0.2721575215112626	128.8670972347166
16	6.0	perception	384	diff_vonmises	0.050000735283538864	2.8648311042976387	0.198539574397369	165.17779227988873	0.18802275265387072	165.35187854656363	0.2672029796933515	-0.27024392503396655	0.537446904727318	157.89628185174223
17	6.0	wm	384	diff_vonmises	0.05694631064824826	3.2627832589855243	0.0002472279683848836	4109.546781159347	4.255300815391952e-32	4109.932208615341	0.1003662182062044	-0.2230316002401196	0.323397818446324	179.82797239436707
18	7.0	ltm	384	diff_vonmises	-0.1568000188869936	-8.983979309796329	1.0083202716864388	83.89765822512693	0.9881098465836695	84.53115067044091	0.10576742325811139	-0.17854194028465997	0.28430936354277137	85.13537416059555
19	7.0	perception	384	diff_vonmises	-0.12302030076879678	-7.048544028482052	0.781703375320132	193.77202486787667	0.765267275376255	194.4643315200128	0.402559182393567	-0.32675894325512367	0.7293181256486907	101.84512360497524
20	7.0	wm	384	diff_vonmises	0.21846962705827014	12.517387582235969	0.8142395956824934	83.9368854593654	0.7973929771304822	84.55881068193152	0.08147796028953636	-0.16964932977158043	0.2511272900611168	94.3707746028359
0	1.0	ltm	385	diff_vonmises	0.006408790009177042	0.36719661931145264	5.552625982833917	0.34651820554446994	0.06014726509478545	3.514889714719175	-0.2759178101033139	-0.5625759989983417	0.28665818889502775	54.82137350347696
1	1.0	perception	385	diff_vonmises	-0.07169455657355421	-4.1077955057265685	13.323090440616179	0.7875656332926195	0.0887958965875471	3.94790628091678	0.45033661452745555	-0.6560169819729507	1.1063535965004063	36.58100028094316
2	1.0	wm	385	diff_vonmises	-0.16604244244293173	-9.513531172023878	5.926574574123551	0.3920555688751306	0.08618016485828367	3.411386998220844	-0.21879647250772127	-0.5506304573878076	0.3318339848800863	52.752873964623774
3	2.0	ltm	385	diff_vonmises	-0.14605175597541842	-8.368149207866077	3.0561198370113964	0.651411606343257	8.44060048125348e-22	2.8126589393873718	-0.01650433513174482	-0.4466932170269224	0.43018888189517757	78.5871398788513
4	2.0	perception	385	diff_vonmises	-0.032765947266398004	-1.8773504901128226	7.365019417500069	1.391346586101763	0.21978910796339235	3.691047045972582	0.7558833359802037	-0.6159734768612308	1.3718568128414346	48.15100006209201
5	2.0	wm	385	diff_vonmises	-0.08085848022837275	-4.632849654927771	2.895831714322451	0.7893935168551838	0.08529764932855104	3.1648276079032565	-0.040902849327811186	-0.47863239815732544	0.43772954882951426	75.0738664387298
6	3.0	ltm	385	diff_vonmises	-0.17832979552173697	-10.217544644826496	1.9097841684965062	1.6229403200135624	0.24686882764163295	3.462123470835889	0.11948377654863573	-0.4360441909543948	0.5555279675030305	85.04211331453742
7	3.0	perception	385	diff_vonmises	-0.06376035743532897	-3.653199381289928	1.8320313419647698	12.852242689230549	1.1187998192623825	14.511784313376568	1.0036795711017934	-0.7222763850409537	1.725955956142747	73.36666376022464
8	3.0	wm	385	diff_vonmises	-0.12071692835364602	-6.916570510447058	1.1080508305645278	198.44733177602137	1.0852188972083834	200.21255275260842	0.21710277797396316	-0.4751185242155067	0.6922213021894699	80.07907322673105
9	4.0	ltm	385	diff_vonmises	-0.08668187858660724	-4.966505803278021	0.9647128474457924	7.694266830775955	0.6011421571122963	10.761565045775727	-0.28235035369912875	-0.585545622192002	0.30319526849287326	82.19188780378545
10	4.0	perception	385	diff_vonmises	-0.1799827612450829	-10.312252604454008	0.9943390852002753	307.6742994786926	0.9697819751554607	310.0710147098731	0.6261342995131827	-0.7564176249260797	1.3825519244392623	87.45430470571145
11	4.0	wm	385	diff_vonmises	-0.3572947441565463	-20.471480882376635	0.5741031091325579	180.64372470788834	0.5606294554500814	183.64874625946786	-0.31659494327389126	-0.547311896133639	0.2307169528597477	93.24644664946034
12	5.0	ltm	385	diff_vonmises	-0.0511802588922971	-2.9324128289155253	2.03504834920615	1.1492146188450376	0.05398663238255389	2.3895812210851	0.19799812797875765	-0.34983343074982276	0.5478315587285805	92.80902673773889
13	5.0	perception	385	diff_vonmises	-0.08619072388017787	-4.938364711511631	1.7898985345139515	4.201545478786366	0.4418804972132739	5.590811639167154	0.7073229952134887	-0.5455737354273922	1.252896730640881	86.05392256843226
14	5.0	wm	385	diff_vonmises	-0.19911016565981635	-11.408172150458133	1.2057706143129923	1.634407406576082	0.10449134184638385	3.103826403426114	0.07448202732676579	-0.38803851707853976	0.46252054440530554	111.81859209625023
15	6.0	ltm	385	diff_vonmises	-0.3264717036114706	-18.705450747383182	0.7127887571204046	119.8149935534056	0.6979002618652782	121.00340707787149	0.002382594068123467	-0.26613603138432396	0.2685186254524474	95.82256946526411
16	6.0	perception	385	diff_vonmises	0.006267763080335933	0.3591163714911653	0.07760904387847863	32.5848517381984	0.022914010100003924	33.70707993355361	0.10784546176443577	-0.4508666783383708	0.5587121401028066	174.16890990524874
17	6.0	wm	385	diff_vonmises	0.04573978992431836	2.620696918478449	0.05913103868865361	15.42259890254373	5.388192190002511e-14	16.65140158970863	-0.04832911958231323	-0.3385222871298499	0.29019316754753666	176.50726817814285
18	7.0	ltm	385	diff_vonmises	-0.4723974148862944	-27.066378125875197	0.9789298256755437	119.30146311387473	0.957455125897051	120.48113968171549	0.09230180138710153	-0.2961265304597678	0.3884283318468693	84.23350484968509
19	7.0	perception	385	diff_vonmises	-0.07653304928834674	-4.385020717488977	0.49327907034938556	225.03714010514494	0.4800590389569088	226.8494623819954	0.11441510972741042	-0.5080568865797694	0.6224719963071799	120.14223253644619
20	7.0	wm	385	diff_vonmises	0.13730278705098484	7.866870213404922	0.996815678357875	129.08069286013583	0.9781709993189825	130.63395996277697	-0.06859243442271179	-0.3323746655118427	0.2637822310891309	77.41400065661483
0	1.0	ltm	386	diff_vonmises	0.001638497765244056	0.09387900669010156	0.607842533342747	1.7696516398215503	2.046299128050722e-18	4.349727614303977	-0.21971159803678586	-0.5521604762225456	0.33244887818575974	146.65543091350588
1	1.0	perception	386	diff_vonmises	-0.06593427925262482	-3.7777559264123903	9.235428176417331	0.9946664643860484	0.15979427229406482	3.64845966319374	0.5116733765277892	-0.613267909916409	1.1249412864441983	43.36070885258178
2	1.0	wm	386	diff_vonmises	-0.0504491871951858	-2.8905255061495816	3.2200135071935194	0.5747961216788917	0.01642833026365905	2.937558133478688	-0.08336779333242961	-0.46064375046740175	0.37727595713497214	74.95170755441234
3	2.0	ltm	386	diff_vonmises	0.014786506894015563	0.8472044387681874	2.910739964149811	0.46063335139115213	8.07647679478662e-21	1.9391634963523725	-0.012098302385055104	-0.3077487576232784	0.2956504552382233	80.5646815323438
4	2.0	perception	386	diff_vonmises	-0.020483141319751288	-1.1735975487917758	6.808972742235122	1.3391788807043254	0.25771808382062256	2.645019842546123	0.8306708642332011	-0.4368191941394619	1.2674900583726632	50.12070474599068
5	2.0	wm	386	diff_vonmises	0.18079155713771247	10.358593195589199	2.9218476579771697	0.7463574071949808	0.13497432044697052	1.9737787079410891	0.1235896822054724	-0.28993623668619856	0.41352591889167095	74.57930167567088
6	3.0	ltm	386	diff_vonmises	-0.2150201698793393	-12.31974824427213	2.168933961129417	0.7519947638675016	0.2148859769279088	1.5947995444370586	0.09627444800051771	-0.21098252561987366	0.3072569736203914	82.59424327107898
7	3.0	perception	386	diff_vonmises	-0.0729530502640875	-4.179901882737969	3.3190352701272428	2.4141756414848223	0.38612692586520153	3.029394622238391	0.9904809155301239	-0.4044885106274532	1.3949694261575771	69.1512114471798
8	3.0	wm	386	diff_vonmises	-0.04070349851433145	-2.3321386762882086	1.0312571822921404	69.21689734805203	0.9968271954058462	69.64091471159013	0.3056022538087966	-0.20493953888079108	0.5105417926895877	89.41595277356558
9	4.0	ltm	386	diff_vonmises	-0.15231748436500775	-8.727149000164848	4.905693576411038	0.4189612140632084	0.018193867427743253	2.0553823861967038	0.026501675417604176	-0.32493175573159844	0.3514334311492026	60.83961215067424
10	4.0	perception	386	diff_vonmises	-0.10344525205843824	-5.926976353615503	2.5391902889836495	2.545993875374602	0.18098562075426897	3.86704338651426	0.7827036742452226	-0.5246306831591352	1.3073343574043577	80.51435181377622
11	4.0	wm	386	diff_vonmises	-0.31551921350678297	-18.077919289225783	0.7567411018624958	192.59352438433203	0.7448631622077664	194.13711194420114	-0.015735496624337486	-0.33698118893776297	0.3212456923134255	91.9090109708119
12	5.0	ltm	386	diff_vonmises	-0.15941487767049412	-9.133799682113622	0.6980644246972842	138.57034185332247	0.6833247053939009	139.63366349457482	0.08993591967674064	-0.27743894236482447	0.3673748620415651	100.84631674989086
13	5.0	perception	386	diff_vonmises	-0.05873685131532046	-3.3653736822553	2.016634398852258	2.871861278012015	0.28590833639217017	3.917568730604295	0.6757704064078904	-0.45732456288281936	1.1330949692907097	86.43130221896439
14	5.0	wm	386	diff_vonmises	-0.19179476678460736	-10.989030669453909	0.4470002640121433	140.4135356477149	0.4329691518624204	141.37698999718387	0.13869394974374671	-0.32882628130300695	0.46752023104675366	127.46646794489104
15	6.0	ltm	386	diff_vonmises	-0.40338443360117276	-23.112225566622392	0.5140608876911239	135.55444970267757	0.4990070270349541	136.86160727446693	0.059496215970817445	-0.34762538003601406	0.4071215960068315	116.86182474938155
16	6.0	perception	386	diff_vonmises	0.1358153726325536	7.7816476448419065	0.35304220530134023	162.614220203988	0.3363380235707048	163.64546719529608	0.2684864128236839	-0.461878853183606	0.7303652660072899	139.49030603806148
17	6.0	wm	386	diff_vonmises	0.09082483259711512	5.20387958279692	0.36153069223505935	3.4643666739905563	7.383278649558052e-10	4.702584893253839	0.017821843704179274	-0.3765985142162948	0.3944203579204741	159.39261102598044
18	7.0	ltm	386	diff_vonmises	-0.3085166665256474	-17.67670290136464	0.694756371169459	81.69415619596609	0.66963470356495	82.91856254260037	0.04948878698035131	-0.2958093109602862	0.3452980979406375	99.6814116534956
19	7.0	perception	386	diff_vonmises	-0.11302585842536482	-6.475904663616561	0.5504148756385565	272.3950103456917	0.5376517630482808	273.83658520041996	0.28796946534883716	-0.501839360568809	0.7898088259176461	117.35124418434279
20	7.0	wm	386	diff_vonmises	0.23293564253433285	13.346229215385296	0.7787078614104994	65.48208633167002	0.7436847483111407	66.59429451467055	0.1121111675160762	-0.2923372509486777	0.4044484184647539	96.35569204050284
0	1.0	ltm	387	diff_vonmises	-0.6656016470379935	-38.13616521223332	0.002638864199760357	253.31353389621395	5.6814582284334675e-15	254.19320637157847	-0.033545683659397696	-0.24632239089439878	0.21277670723500108	167.6251794556918
1	1.0	perception	387	diff_vonmises	-0.09574676644491739	-5.485885619318576	13.749783662184306	0.8911568949116242	0.21280247156999793	1.9493203354090587	0.9257451796108984	-0.3431860617715638	1.2689312413824623	35.98098438326255
2	1.0	wm	387	diff_vonmises	-0.07766271537167259	-4.449745816322622	4.819025512334326	0.2591010571219423	2.8729420848016687e-15	0.8882024574849834	0.07890192662969825	-0.14134744611362454	0.2202493727433228	62.22992126285823
3	2.0	ltm	387	diff_vonmises	-0.15388002433761142	-8.816675945915526	45.84776846214855	0.23340138234187263	1.0839610393787596e-19	0.6355754513330418	0.5274435910820597	-0.10115497478751596	0.6285985658695757	19.960479984172565
4	2.0	perception	387	diff_vonmises	-0.03651525889384016	-2.0921702224445844	9.325052511638727	1.2250347035289448	0.3885319538846418	1.6232289954648405	1.104276523872422	-0.28839365857356986	1.3926701824459917	43.17243606067461
5	2.0	wm	387	diff_vonmises	0.062173769142939074	3.5622945683111187	2.562119480405387	0.3546863427181238	3.7558748401365873e-19	0.8396610777983057	0.07841656762496715	-0.13237415047538614	0.2107907181003533	85.93309871260792
6	3.0	ltm	387	diff_vonmises	-0.1793524897761003	-10.276140709333795	2.312772551615121	54.133906327241576	2.2848050172769696	54.26988205927625	0.1437332905055868	-0.09223644006316167	0.23596973056874848	58.708558642509445
7	3.0	perception	387	diff_vonmises	-0.0492048241732015	-2.8192287568077363	3.301704166831686	3.792905375331943	1.414754712793215	3.55777246479287	1.1349671375998749	-0.2943592537181	1.429326391317975	62.05022981905276
8	3.0	wm	387	diff_vonmises	0.009214440024943286	0.5279485240056713	1.9103989291827967	100.89798461222337	1.892822259460422	100.89816575417639	0.2829880101826703	-0.09359027354124372	0.376578283723914	68.04668122425772
9	4.0	ltm	387	diff_vonmises	-0.34919629878852526	-20.00747414217176	12.8328342233305	0.2994914897258347	0.5718065161118985	0.9585596974678975	0.17424360596046054	-0.20110034753318135	0.3753439534936419	35.59441687588841
10	4.0	perception	387	diff_vonmises	-0.13642596137856444	-7.816631803006513	3.4002449880976853	1.9818763064222773	0.2024747291468091	2.655257975138106	0.8808830772291119	-0.37815502435482595	1.2590381015839378	70.65938490713788
11	4.0	wm	387	diff_vonmises	-0.46949215173252457	-26.89991880878932	1.1941517714954024	86.1379673191591	1.1762339167141127	86.76377936698685	0.05120273212625648	-0.16308414037529495	0.21428687250155143	75.82250081434829
12	5.0	ltm	387	diff_vonmises	0.07862885535525282	4.505101559800608	1.7539018077441662	86.27035379937728	1.7292719267443106	86.60443131548001	0.19448170691306643	-0.15250496750787335	0.3469866744209398	66.75736882240926
13	5.0	perception	387	diff_vonmises	-0.08150323434517956	-4.669791344644486	2.660368766678246	1.6503660836430916	0.00028949966886930985	1.836520725403514	0.7162445127709562	-0.28727501174231246	1.0035195245132686	84.31199251954067
14	5.0	wm	387	diff_vonmises	-0.019749161965601295	-1.1315436295492434	2.2778974006540915	0.6053352044696974	8.03906872953813e-20	0.9301704216325362	0.1896102515084716	-0.14449376205773143	0.334104013566203	91.10122595208611
15	6.0	ltm	387	diff_vonmises	-0.3708434044410022	-21.247761934732477	1.4346669926182052	0.7604050411890667	3.836636039937477e-17	1.2187403081755988	0.12664960787088564	-0.17577723998344658	0.3024268478543322	112.00917650279243
16	6.0	perception	387	diff_vonmises	0.21301869192839085	12.20507200489429	0.5625352895088843	2.998482396358187	6.777850617211762e-12	3.2648707967292205	0.2554211122844441	-0.2680171559172583	0.5234382682017024	148.1853830137932
17	6.0	wm	387	diff_vonmises	0.07872530897064328	4.510627944881259	0.00022985540665774616	3658.9564903794444	7.49057555976959e-32	3659.3752749336686	0.06720540590902147	-0.2004932883850188	0.26769869429404025	179.72418081069628
18	7.0	ltm	387	diff_vonmises	0.015177967341552957	0.8696334702583824	1.3782903898214451	118.69882339763825	1.3617156080905068	119.28964237304558	0.11172282272275424	-0.17974727278713232	0.29147009550988656	72.37209752647979
19	7.0	perception	387	diff_vonmises	-0.2741641314317577	-15.708447624909713	0.8158427948106372	144.73269855127123	0.7989592418839571	145.285491209988	0.2988738412978762	-0.24633736315095867	0.5452112044488349	99.43024644573148
20	7.0	wm	387	diff_vonmises	0.5429596542913278	31.109296636775316	4.003694393044474	0.2984340289617741	1.0660090942650507e-36	0.647618133577984	0.1264955487725015	-0.10299518179536023	0.22949073056786173	68.41350587103454
0	1.0	ltm	388	diff_vonmises	-0.1766541762859277	-10.12153873454369	3.1272379317012757	0.3218088662689287	1.0425396863812373e-29	3.7270018221806334	-0.377368436354638	-0.592756021044885	0.215387584690247	77.6644323731233
1	1.0	perception	388	diff_vonmises	0.01498453907598943	0.8585508470030567	7.696679972603124	0.8974316646009491	3.188831090391746e-14	4.560556687761616	0.2501910660630592	-0.7258349386286767	0.9760260046917358	49.01014794821913
2	1.0	wm	388	diff_vonmises	-0.023741769098134753	-1.3603031674972401	4.1532538936510575	0.5569219014126391	0.06484112347351742	4.088175916416677	-0.2564942236188567	-0.6437963113318461	0.3873020877129894	63.053054586578355
3	2.0	ltm	388	diff_vonmises	0.19305815984189637	11.061417759502698	1.2333823918662994	0.6602868256125999	0.05564435222652274	1.9228223285577815	-0.06888731943713888	-0.267651021593529	0.1987637021563901	112.33796327375077
4	2.0	perception	388	diff_vonmises	0.020417434445175277	1.169832822193575	6.528128746519569	1.7641870679724396	0.47917584866477675	3.055598380575248	1.018877658280365	-0.5220893724038967	1.5409670306842616	49.881461885512834
5	2.0	wm	388	diff_vonmises	0.06899854200154386	3.9533252492446067	2.2613668073074367	1.2993832560484708	0.39564337211598655	2.7228905566887565	0.1024325011780346	-0.3417267702634757	0.4441592714415103	75.30684747735157
6	3.0	ltm	388	diff_vonmises	-0.20838217736798617	-11.939419288932148	1.1389153073704927	89.71777211208388	1.1224156889364423	90.44691053749749	0.010157089315370627	-0.173421461139748	0.18357855045511862	75.34308496163857
7	3.0	perception	388	diff_vonmises	-0.024829458055876052	-1.4226231541988	5.007163314206094	1.9115295392999687	0.5408832743940967	2.373012033576165	1.0549049179835461	-0.36386563624015716	1.4187705542237032	56.621323869216866
8	3.0	wm	388	diff_vonmises	0.08625155821926418	4.941850262390744	1.1006127072923857	107.97250132439632	1.0805255908285971	108.58387298840934	0.18832594661380142	-0.2023077495348371	0.3906336961486385	83.36588361871915
9	4.0	ltm	388	diff_vonmises	-0.5707873235664975	-32.70370463992842	0.529424704550941	153.6054184382071	0.5147705707152512	155.81416394954582	-0.1289982178914144	-0.4511415031607733	0.32214328526935887	106.61502879632798
10	4.0	perception	388	diff_vonmises	0.008166517775999466	0.46790700188333284	2.919547628204847	2.322139756063928	0.20738421606872737	3.3559522831370243	0.847126414452998	-0.46293322943935095	1.3100596438923489	75.3419694207432
11	4.0	wm	388	diff_vonmises	0.08298915570996453	4.754928367534984	1.386220882813666	1.4728640668249864	0.10623578478202923	4.04824195867901	-0.106183813865101	-0.54023419342297	0.43405037955786896	102.06770884865219
12	5.0	ltm	388	diff_vonmises	-0.011361166958745077	-0.650946917079574	0.8280577041860422	77.05654750458135	0.7951159055799745	78.3477302382478	0.09383050849086416	-0.3219630989653748	0.41579360745623895	92.23162729370415
13	5.0	perception	388	diff_vonmises	-0.0978510095911497	-5.606449870667017	1.0609059459693244	315.1257634623264	1.043416506024351	316.2121017366105	0.657240670141988	-0.4751895403045552	1.1324302104465431	87.22279542807289
14	5.0	wm	388	diff_vonmises	0.20776125334746137	11.903842963157784	0.3069742225765591	117.33489469687309	0.28917026266173057	118.54498505927047	0.12168131523007375	-0.4182317856967277	0.5399131009268014	143.28738978142962
15	6.0	ltm	388	diff_vonmises	-0.5772318074327307	-33.07294636660373	0.6769261342809642	162.24763838050748	0.6652789262478888	163.00202922036928	0.14997494279415946	-0.23950534886372665	0.3894802916578861	105.41052044333132
16	6.0	perception	388	diff_vonmises	0.04421816955338559	2.5335144932028704	0.3367335498259885	200.12691724796156	0.3224454336302127	200.92006941759988	0.3459233976966729	-0.45950744534116694	0.8054308430378398	142.0964686889703
17	6.0	wm	388	diff_vonmises	0.10213599546917557	5.851961476751058	0.662393752756701	3.2982550249874456	8.096065631580374e-19	4.340764062469534	0.22407008258453187	-0.4476117560576352	0.671681838642167	143.7639164556789
18	7.0	ltm	388	diff_vonmises	-1.1763740695527152	-67.40126931399973	0.00016138869363445933	3702.7984754006225	5.602869632066558e-33	3704.1487356207385	-0.11978971216001355	-0.3100037907879596	0.19021407862794604	144.1345557106831
19	7.0	perception	388	diff_vonmises	0.04024850849183231	2.306069668278446	1.7127440756910253	1.7381973153592747	0.05900078050810092	3.32031941288792	0.256031664389042	-0.471183693171267	0.7272153575603091	100.37459006108367
20	7.0	wm	388	diff_vonmises	0.1415866576213868	8.112317917069255	0.5276193350472241	166.15767067901015	0.5165218590181287	167.8112028545398	-0.06733289801649534	-0.3533167839627609	0.28598388594626556	108.80282036060436
0	1.0	ltm	389	diff_vonmises	-0.262879619424484	-15.061892713028229	0.00615051903479075	131.18395099296688	7.501294966046312e-17	133.46913559556532	-0.23508738499922543	-0.4919145622771097	0.2568271772778843	177.6910861605582
1	1.0	perception	389	diff_vonmises	-0.11344976222598582	-6.5001925623117	11.234337155534606	0.8066843344526373	0.16594634690440957	3.1829574326451615	0.47176361973209646	-0.5445250308803428	1.0162886506124393	39.43602141426058
2	1.0	wm	389	diff_vonmises	-0.09594420926450115	-5.497198259575888	2.8756297532619715	0.6743783478608537	0.10239758115671709	2.59171257718923	-0.024689658237017353	-0.3894063332579057	0.36471667502088834	74.64704147815675
3	2.0	ltm	389	diff_vonmises	-0.05189857399584567	-2.9735692527093613	3.566807827355169	0.4302697867163362	4.686008307110343e-29	1.8219197595089307	0.02063231482673683	-0.2897197297341819	0.31035204456091875	72.60984770015267
4	2.0	perception	389	diff_vonmises	-0.006165620391413033	-0.3532640265077655	6.684336574460918	1.3356780162985555	0.35784747032711145	2.6736962226121226	0.7600847260604989	-0.45121122683320064	1.2112959528936995	49.82776000800297
5	2.0	wm	389	diff_vonmises	0.38850801493536063	22.25986956280172	3.5961359350038165	0.5044117522938059	5.895075125002947e-12	1.5564654899413832	0.1180446721272993	-0.24744396348948242	0.3654886356167817	72.29317356883283
6	3.0	ltm	389	diff_vonmises	-0.23926079430676664	-13.708633716725444	2.8176897239054943	0.6828933661678387	0.2780228153916	1.5898998964644122	0.10368843161579289	-0.2224778106820504	0.3261662422978433	72.15164704431632
7	3.0	perception	389	diff_vonmises	-0.08448682040605668	-4.840738233746808	3.8196130815059717	2.0807302040539386	0.33739276359815323	2.9800621652462773	0.913746106621848	-0.4275021593671968	1.3412482659890448	65.11750869140573
8	3.0	wm	389	diff_vonmises	0.12529645058052466	7.178957806233557	0.9642260595601122	137.99890693892098	0.9499945433538313	138.26991881250416	0.2827361222625697	-0.16683191670341557	0.4495680389659853	93.06156142267287
9	4.0	ltm	389	diff_vonmises	-0.2819313384825678	-16.153475807525385	6.381144394439271	0.41296312156170384	0.13699690456609995	2.062423131213678	0.03264026852562196	-0.33638593885079926	0.3690262073764212	51.18590551514325
10	4.0	perception	389	diff_vonmises	-0.10672368783598014	-6.114816887073344	1.747315170849566	4.372821859754783	0.5255747256911113	5.943370305761469	0.5833511493788675	-0.5410362885226927	1.1243874379015601	83.94262163973772
11	4.0	wm	389	diff_vonmises	-0.4587402128190516	-26.283878087464842	0.9238441292060365	169.75878805500315	0.9108877903618304	171.26599684799407	-0.07101414292356623	-0.3161751142356195	0.24516097131205328	80.15250848837783
12	5.0	ltm	389	diff_vonmises	-0.2420153675868206	-13.866459140032044	0.9340644319780694	120.81906298358263	0.9133994187096992	121.82653905183425	0.14721623758046576	-0.27682954929705694	0.4240457868775227	88.21060296243458
13	5.0	perception	389	diff_vonmises	-0.08149967400129123	-4.6695873519660696	1.7174291854546917	3.8419748192772283	0.48035772743084426	4.974326651647494	0.5977372323991959	-0.4543476686426625	1.0520849010418583	86.54261228615499
14	5.0	wm	389	diff_vonmises	-0.18007754241751453	-10.317683165611642	0.4994567756275934	141.68305637837054	0.4861163405558923	142.3266790969972	0.19572133046509776	-0.27395135816899874	0.4696726886340965	123.8524878507355
15	6.0	ltm	389	diff_vonmises	-0.39344892835676193	-22.542963048787556	0.6957894897336219	97.64805847175974	0.6728508252487491	98.89901585371737	0.07708797225244979	-0.3140011101688618	0.3910890824213116	100.46344244916442
16	6.0	perception	389	diff_vonmises	0.12714919768958144	7.285112396087574	0.6078428466247207	6.847483871486116	0.26002195393280075	8.059758304203665	0.19264490736229622	-0.43035595195784315	0.6230008593201394	129.37343464272104
17	6.0	wm	389	diff_vonmises	0.30882393620382653	17.694308157096646	0.00027353718515822726	3241.4886459875684	6.047257713139469e-27	3242.6995257555345	-0.05159231612685744	-0.33382338564797465	0.2822310695211172	176.9627282012645
18	7.0	ltm	389	diff_vonmises	-0.23391225445118408	-13.402184956443053	0.8849865381152356	160.2161593752133	0.86869009082647	161.69519031218252	0.029263847703830947	-0.3396794941876955	0.36894334189152644	86.36057357660951
19	7.0	perception	389	diff_vonmises	-0.26512259175735403	-15.190405561266294	0.5995946013755593	232.71039114651126	0.5839416008835229	234.3539529572684	0.2574030188098533	-0.5123321848395825	0.7697352036494358	111.5977158864726
20	7.0	wm	389	diff_vonmises	0.4200399874746935	24.0665185090279	1.1168485182899823	73.93590563213819	1.0800164542860153	74.98107421125509	0.137034571810716	-0.2841034577573165	0.4211380295680325	80.20167131521879
0	1.0	ltm	390	diff_vonmises	-0.03729418282341261	-2.136799276170831	3.7714109699819023	0.31866608880299796	2.894142160452465e-14	2.7747479619477002	-0.20438361199140448	-0.4414891424015236	0.23710553041011911	70.56072046560735
1	1.0	perception	390	diff_vonmises	-0.07049305626795152	-4.038954609131856	15.842235969222882	0.6230354791908945	0.05294857911198873	3.2930060935736245	0.42905675067979243	-0.5389014242926724	0.9679581749724648	33.75351218608955
2	1.0	wm	390	diff_vonmises	-0.07504613187569381	-4.299826625259452	3.530953007032532	0.4641151477926636	1.5374734594488994e-12	2.709321731980719	-0.09805936690789796	-0.4309163676924761	0.33285700078457814	72.98888234198424
3	2.0	ltm	390	diff_vonmises	-0.07343566186419873	-4.207553490568398	9.820074658872635	0.2747285444022481	8.283494033726688e-34	1.4486456689179508	0.10828320631984642	-0.2305591179959316	0.338842324315778	43.31779785552297
4	2.0	perception	390	diff_vonmises	-0.006510010458208804	-0.3729961238413917	7.620105380259952	1.3538388816578903	0.4285334909585175	2.531120101679223	0.8736656776204146	-0.44505359077063367	1.3187192683910482	46.69775073679975
5	2.0	wm	390	diff_vonmises	0.015774286389228682	0.9038000349334621	3.576338030217847	0.7613314675836104	0.32223713691637224	1.8995110999792963	0.14375911867868746	-0.28292232524374056	0.426681443922428	64.43041188255648
6	3.0	ltm	390	diff_vonmises	-0.24837166014314227	-14.230647876859695	1.4962302189350918	47.414888282448274	1.4504808046887654	48.09690442685316	0.09207241817318845	-0.20219544413893153	0.29426786231212	68.70749326512507
7	3.0	perception	390	diff_vonmises	-0.040378710498192416	-2.3135296937270153	4.309947255608699	2.3810119934426597	0.7175211534881278	2.880539443965565	1.0770118049088877	-0.4091720809121765	1.486183885821064	59.04376652523362
8	3.0	wm	390	diff_vonmises	0.03826341139854775	2.1923319829095527	2.5426824359896796	1.3703952876079895	0.6667217420224841	1.9588151059766357	0.27072813491721626	-0.2164953560620007	0.48722349097921697	70.98193427034047
9	4.0	ltm	390	diff_vonmises	-0.22198767429884908	-12.718956841248788	0.6924662219360095	45.34880192942995	0.65085831692562	46.804961440051414	-0.04163671440342398	-0.30884305637102205	0.26720634196759807	96.06995662825916
10	4.0	perception	390	diff_vonmises	-0.07073956480414864	-4.053078507869899	2.678979141320922	2.7610205225238333	0.3512302289707416	4.0166824268746	0.8134083459218606	-0.5103837130027427	1.3237920589246033	75.26733161652524
11	4.0	wm	390	diff_vonmises	-0.047532819388631596	-2.7234299393262003	0.7164268197042593	147.52606868655633	0.7030519797581852	148.9583945933976	-0.032182558086546464	-0.3064254904168031	0.27424293233025665	93.77949057387497
12	5.0	ltm	390	diff_vonmises	0.07947657775534143	4.553672475524386	0.980011110901915	121.62154169121449	0.957572882802101	122.89921626205778	0.09119754679632308	-0.31780038385616116	0.40899793065248424	83.98695471870602
13	5.0	perception	390	diff_vonmises	-0.033974808073585196	-1.9466131123834265	0.9291188812331709	337.25768304130435	0.9144410577038031	338.6083875445165	0.5021136938745911	-0.48636359547059627	0.9884772893451874	91.6711953277204
14	5.0	wm	390	diff_vonmises	0.03384251148376741	1.9390330761428938	1.2706488292982807	1.3040625824626708	1.6646495262236124e-18	2.48645981008978	0.11561172072054243	-0.35545674203911554	0.47106846275965797	118.10495812706264
15	6.0	ltm	390	diff_vonmises	-0.454746279542024	-26.055042567034306	0.7518656702281756	190.75882422250166	0.7369638756921209	192.1419062713401	0.13928454687717107	-0.3649480120066926	0.5042325588838636	97.48023532005688
16	6.0	perception	390	diff_vonmises	0.032926657367229294	1.8865585006155774	0.7564133491476296	198.52667906983189	0.7365315953507843	199.84356018799264	0.3695349806495827	-0.4516469746034879	0.8211819552530706	101.07304832387976
17	6.0	wm	390	diff_vonmises	0.06440844269159675	3.6903319312387257	0.5362622665049264	3.376718722026443	6.572791515656361e-17	4.757704572095899	0.09889462816359229	-0.4642960769971427	0.563190705160735	150.21308569766933
18	7.0	ltm	390	diff_vonmises	-0.10978806574926725	-6.290392808337802	1.1765782861958314	185.29989659352609	1.1619282032251048	186.87676919811793	-0.08305438114403785	-0.352366361205263	0.26931198006122514	70.51420876707573
19	7.0	perception	390	diff_vonmises	-0.031148817992921837	-1.784695807815581	0.7722270685468678	2.608556406147687	2.3798894091622086e-16	4.231542228038853	0.104763412526242	-0.5073718002420852	0.6121352127683272	138.66003843158342
20	7.0	wm	390	diff_vonmises	0.4186403459921808	23.98632495924849	0.740628317135825	66.75795728088345	0.7124923425580106	68.0799366249006	-0.020970618506012784	-0.28598545564598954	0.26501483713997676	93.12041601184438
0	1.0	ltm	391	diff_vonmises	0.035457480650886	2.0315639934625467	6.9286990347143735	0.3779510921959189	0.010214518187479002	3.341140144676536	-0.1480191686196511	-0.5315268350528165	0.3835076664331654	51.25067696879944
1	1.0	perception	391	diff_vonmises	-0.14855873484534157	-8.51178851644115	14.121662433805694	0.6127780029272801	0.11004722211227211	3.3934546910440755	0.3087014210293233	-0.5722278073297017	0.880929228359025	35.419924198031396
2	1.0	wm	391	diff_vonmises	-0.1884306813678627	-10.796282773152932	2.52518391236822	1.0385521674764133	0.2426051269624187	3.48992868944486	-0.08195471332965676	-0.4981922315438176	0.41623751821416083	73.01313740408307
3	2.0	ltm	391	diff_vonmises	-0.09521189047123892	-5.455239483463849	1.981981989517228	0.8292559689214695	4.59598806590553e-25	2.954031467230034	-0.04470892749579802	-0.4620695771063878	0.4173606496105898	97.42952823341084
4	2.0	perception	391	diff_vonmises	0.017236200880670346	0.9875615653020835	5.422814183462376	1.4669401358904723	0.3689490102003883	3.462914653886083	0.557480025231954	-0.5672377798497705	1.1247178050817244	54.004364842852425
5	2.0	wm	391	diff_vonmises	0.44243583053309704	25.349705794911785	3.771034463942602	0.5650087779836384	6.4918885221375985e-12	2.1281918527484898	0.08186088967636401	-0.33848919221886936	0.4203500818952334	70.55366716451061
6	3.0	ltm	391	diff_vonmises	-0.22292803955412996	-12.772835801577125	2.784877881820887	1.0321114825108668	0.09817638898202337	3.1107158413790255	0.10288614012172459	-0.4622231111569458	0.5651092512786704	76.98243466392194
7	3.0	perception	391	diff_vonmises	-0.10903320252487142	-6.247142331470283	2.8847370344094587	2.8494364614069236	0.31756190236947895	5.167261621410487	0.7230310514221314	-0.7011619269950813	1.4241929784172127	72.28693294454129
8	3.0	wm	391	diff_vonmises	0.29107131790582924	16.677158053314685	0.9857784819555374	2.429108392819962	0.0983933003573917	3.382181871083254	0.23098725182624835	-0.3720035350351272	0.6029907868613755	122.38171677594494
9	4.0	ltm	391	diff_vonmises	-0.32391375087139984	-18.558890851183204	2.978037448141986	0.9765435524456428	0.24535133664488867	3.8446859437338943	-0.13354522539241354	-0.5747205484145784	0.4411753230221649	67.60960963516224
10	4.0	perception	391	diff_vonmises	-0.1243934643557368	-7.12722050659476	0.8679125883493307	544.5902363034047	0.8564052679485055	547.349972036713	0.3276779067430198	-0.7334575987447707	1.0611355054877905	90.76236254878013
11	4.0	wm	391	diff_vonmises	-0.6250761894869354	-35.81422753172112	0.9373794603053031	235.03721675066117	0.9237985188896696	237.63488483807595	-0.24315775085598546	-0.5166369099385832	0.2734791590825978	74.8165868668777
12	5.0	ltm	391	diff_vonmises	-0.33159834248300735	-18.99918551780995	2.448741368957942	1.1852370237819108	0.023730474928741353	2.407637811602399	0.297734722880421	-0.3689970002133426	0.6667317230937636	86.60422365924784
13	5.0	perception	391	diff_vonmises	-0.09873970895672576	-5.657368593570479	1.0148373663747658	195.20386137832017	0.9851511545403527	196.74873877689313	0.5726216329263991	-0.5482890296999656	1.1209106626263647	87.88806808634561
14	5.0	wm	391	diff_vonmises	-0.2303040207402151	-13.195448393307704	0.47584197049543603	187.53917311602822	0.4642927559362931	188.30105393776492	0.2199150426492409	-0.3229524734438165	0.5428675160930574	125.95217761110372
15	6.0	ltm	391	diff_vonmises	-0.36083117180714197	-20.67410326130913	0.8408645727242177	164.60251215238398	0.8249829379839441	166.09746874242808	0.03794242309796658	-0.3457731731743543	0.3837155962723209	89.00442812220415
16	6.0	perception	391	diff_vonmises	-0.02281765762300816	-1.3073554801728777	0.4684071205523139	157.88047692182386	0.45210612929469063	159.52981764822354	0.08556775072963774	-0.45916493889692767	0.5447326896265654	122.86608364055813
17	6.0	wm	391	diff_vonmises	0.44422278973766266	25.452091015495448	0.00025372814051155546	2704.1330339004185	3.1680537620342763e-31	2705.575720380386	-0.12040862119363283	-0.3387988963978614	0.2183902752042286	173.98728598396983
18	7.0	ltm	391	diff_vonmises	-0.37241551299385633	-21.337837119747437	0.9269553616688525	198.0830549916767	0.9084052282229014	200.19970885761472	0.012691103830619	-0.4782403731250824	0.4909314769557014	83.62534267355083
19	7.0	perception	391	diff_vonmises	-0.34920035819334566	-20.007706728935304	0.6371184520408394	338.7425747138192	0.6233644460039693	341.3600660653257	0.1775199582732796	-0.6781201155888752	0.8556400738621548	105.191516942695
20	7.0	wm	391	diff_vonmises	0.40068963601619795	22.95782503836129	1.3868916954407176	165.84179545142564	1.3628748623050757	167.6114707623249	-0.009210100458844295	-0.4437304582694743	0.43452035781063003	67.33153483729575
0	1.0	ltm	392	diff_vonmises	-0.0675300745010175	-3.8691882591123217	6.391674292288405	0.1762676556363418	2.2489211681832094e-35	3.4041720565577815	-0.3677808409247388	-0.5417903214519059	0.17400948052716708	53.863758950572446
1	1.0	perception	392	diff_vonmises	-0.06813750486316861	-3.903991455211683	10.11752275995796	0.8419450096233051	0.11417657676694505	4.174600386056486	0.3121885410739994	-0.6945596965754013	1.0067482376494006	41.58548463168961
2	1.0	wm	392	diff_vonmises	-0.07034599543129601	-4.0305286438598324	4.0147623163618	0.49742100403529693	0.07024621310617608	3.45768455492043	-0.20641185140684193	-0.5431916010169521	0.33677974961011015	63.90376903687658
3	2.0	ltm	392	diff_vonmises	-0.11830587711948465	-6.7784274505398034	3.107586898890681	0.4219305727120297	9.371476647937934e-32	2.1358394102212594	-0.05799931957661253	-0.3393658323213115	0.281366512744699	77.91956500888384
4	2.0	perception	392	diff_vonmises	-0.011724767064479013	-0.671779668568639	7.804756002406322	1.4277540853699473	0.3481990419244942	3.263697754630277	0.8499281429607187	-0.5687120141601122	1.418640157120831	46.27836718232638
5	2.0	wm	392	diff_vonmises	0.16833785938836893	9.64504887522024	3.416308984826164	0.5836374503109727	0.06634529606004842	2.264851665401051	0.02653545706736543	-0.34850058937914946	0.3750360464465149	70.70004745818667
6	3.0	ltm	392	diff_vonmises	-0.2315021078651041	-13.264093729052806	2.027498899903729	0.9405613875188814	0.38881470968814363	1.9854307294149411	0.040204236042148345	-0.2403212674288463	0.28052550347099464	77.8780446751354
7	3.0	perception	392	diff_vonmises	-0.0616458959024589	-3.53204965951371	3.6519325386222947	2.629230212987696	0.6503244437289059	3.5266832369258663	0.9525030109742932	-0.4731062478882775	1.4256092588625706	63.0883573563639
8	3.0	wm	392	diff_vonmises	0.0522582495654742	2.99417714484304	1.2082748995267056	220.0007217542594	1.1959715652343663	220.71904856854493	0.22802724392319362	-0.24124505947004593	0.46927230339323955	79.30774092162932
9	4.0	ltm	392	diff_vonmises	-0.31985676544575004	-18.326442708747383	0.8148111994183372	51.29870142523228	0.7648389278231634	53.661090093814224	-0.21193340575516828	-0.4552899530561856	0.2433565473010173	81.62517388962186
10	4.0	perception	392	diff_vonmises	-0.08724763283361343	-4.998921133873077	2.5221460317109075	2.5454863456789036	0.3171987944037692	4.14599487077184	0.6242067634499917	-0.5309449238325777	1.1551516872825696	77.00135476624408
11	4.0	wm	392	diff_vonmises	-0.17553066562696967	-10.057166315547432	0.6133079272006356	160.89258447068627	0.600636721534547	163.26746307319704	-0.24482603885058296	-0.43564751603686247	0.1908214771862795	90.57895703643916
12	5.0	ltm	392	diff_vonmises	-0.09908961074636516	-5.6774164893608905	1.3921708182877164	2.3479134068329883	0.42166399579715763	3.843136914631066	0.07985677853060902	-0.35669201105593085	0.43654878958653986	88.97585364736145
13	5.0	perception	392	diff_vonmises	-0.09876532825200843	-5.658836471064276	1.4531098028161422	7.5508108415252275	0.7203324641558057	9.063391377621501	0.5941679131745583	-0.5407312160131675	1.1348991291877257	85.00669815455467
14	5.0	wm	392	diff_vonmises	-0.08753940887501846	-5.015638669608619	1.0794963228813972	1.6218569292067435	0.05706842900442804	2.8379696184317598	0.10068955103945904	-0.3594917420561763	0.4601812930956353	120.8435980248878
15	6.0	ltm	392	diff_vonmises	-0.39073077163397607	-22.387224140516814	0.7192596316249154	196.60139788400386	0.7083204581550067	197.91468708271984	0.03434481289344404	-0.306993644529836	0.34133845742328006	96.60793648826295
16	6.0	perception	392	diff_vonmises	0.20348037048659823	11.658566442640435	0.2176839029175532	9.567258489669133	2.730131656381194e-10	10.927748509777459	0.1315421470024356	-0.5287724635012501	0.6603146105036857	166.49922971153308
17	6.0	wm	392	diff_vonmises	0.1726224187833376	9.89053604562507	0.6847948725248773	1.7564599514760155	2.503277193390575e-16	3.2492374364736443	-0.022406521305359695	-0.39136706203606764	0.36896054073070794	142.404388503414
18	7.0	ltm	392	diff_vonmises	-0.4771176775938783	-27.33682925721275	0.7751630517066457	52.84866051076816	0.7373609090935155	54.234503738206925	-0.02282518200718009	-0.2992328010002989	0.27640761899311883	91.12880148033123
19	7.0	perception	392	diff_vonmises	-0.14911911978956524	-8.54389620864784	0.5265587332228544	231.79971249302864	0.5137868884059674	233.56431503295602	0.11502575548895777	-0.4854444397845832	0.600470195273541	116.33342434144713
20	7.0	wm	392	diff_vonmises	0.31669632058652275	18.145362556929843	0.7800736982582537	106.46710557829624	0.7585607603657464	108.0435805705846	-0.028851949188819503	-0.33934598788351344	0.31049403869469394	90.1717302147049
0	1.0	ltm	393	diff_vonmises	-0.5445717495644709	-31.201662892099407	0.0002224042868546108	2949.4202747734653	7.915508822998936e-32	2951.6047031978587	-0.24325755667433668	-0.4520559972696674	0.2087984405953307	171.69406414513443
1	1.0	perception	393	diff_vonmises	-0.13772493565366098	-7.89105754666561	12.758322250683475	0.7380245260928608	0.18307732329616785	3.016204156310593	0.4692633944273865	-0.5251198568366265	0.9943832512640131	37.00605971853739
2	1.0	wm	393	diff_vonmises	-0.11374754134476059	-6.5172540490446185	2.702489681912032	0.6971919295120438	0.16296322033718713	2.4044334571848127	-0.0174586383497487	-0.35200891097462217	0.33455027262487347	74.40805345030017
3	2.0	ltm	393	diff_vonmises	-0.10205472247111735	-5.847304876973948	4.856814335119332	0.3842851056960133	3.9998292613629025e-40	1.8032240479329438	0.04110184317074622	-0.2869721854770599	0.3280740286478061	61.97395441126446
4	2.0	perception	393	diff_vonmises	-0.00519347174479619	-0.29756401199726545	7.010339458133768	1.3160800499048266	0.39632768231624854	2.7914532862982044	0.7282165380876247	-0.48190824918808917	1.210124787275714	48.39028028139444
5	2.0	wm	393	diff_vonmises	0.5043947819151615	28.89969221216034	4.126863689680266	0.45350742750848133	4.3977234793701026e-12	1.5048742977901088	0.11515458692253897	-0.23941586810406976	0.3545704550266087	67.36277701686205
6	3.0	ltm	393	diff_vonmises	-0.28012465462306047	-16.04996044746121	5.348245143190091	0.38564066036589106	0.06297953591656606	1.3316038103217145	0.12110361990072752	-0.21026000015593468	0.3313636200566622	57.52724349389689
7	3.0	perception	393	diff_vonmises	-0.09564745415305863	-5.480195444141297	3.9672131775755965	2.0106786277026822	0.37438239497845377	3.0810487875245607	0.8500948063448683	-0.44848831999511296	1.2985831263399814	63.362118958962355
8	3.0	wm	393	diff_vonmises	0.23298270163159998	13.348925503046397	1.0614303506962686	112.44689509713434	1.0452525772539216	112.6339188283414	0.276856631527437	-0.14186188760930918	0.4187185191367462	89.42712937403087
9	4.0	ltm	393	diff_vonmises	-0.33791988621974245	-19.361383293932228	5.1941469720991575	0.5927481610204868	0.38481005924007317	2.3445998983678877	-0.004070266732958738	-0.3976293393730013	0.3935590726400426	52.47651862553221
10	4.0	perception	393	diff_vonmises	-0.12615757174008677	-7.228296414325877	1.0683435897634177	152.87557666820757	1.0318958378372882	154.579500039339	0.45650135954394244	-0.5402239553695622	0.9967253149135047	84.53554087722239
11	4.0	wm	393	diff_vonmises	-0.6217675480852204	-35.624656343480595	1.1234277580362706	146.40231670906368	1.107059374155355	147.9679645957155	-0.11873212918364118	-0.3359271647122384	0.2171950355285972	70.38388059543458
12	5.0	ltm	393	diff_vonmises	-0.28528513221361373	-16.34563403367175	1.0915726700872328	37.14039912812009	1.0160949673883946	38.16910456395236	0.1728660574290597	-0.29089965547043883	0.46376571289949853	82.77538462085984
13	5.0	perception	393	diff_vonmises	-0.10756861997403529	-6.163227932558869	1.9896590749496834	3.044268111070936	0.4212879569053635	4.27564540407348	0.5730820503317284	-0.4561642530705524	1.0292463034022807	82.85447619832954
14	5.0	wm	393	diff_vonmises	-0.19670507205539978	-11.270370437591156	0.5442488830209296	113.95982211086074	0.5284387825812127	114.4771561571121	0.20811051345983955	-0.24206388284332192	0.4501743963031615	120.3087566679744
15	6.0	ltm	393	diff_vonmises	-0.36190821897021663	-20.73581351808985	1.3827954493461971	1.8545042235459985	0.38619768031364293	3.0792102782588637	0.06987274399376509	-0.2943805813476849	0.36425332534145	90.61168797519281
16	6.0	perception	393	diff_vonmises	0.2065700282139598	11.835590790558236	0.6751961724695852	2.59657779205664	2.781968442878356e-13	3.9238751602224817	0.10210269603625655	-0.4362112284557136	0.5383139244919701	142.69176579782334
17	6.0	wm	393	diff_vonmises	0.5504432444577391	31.538074768916292	0.00016832562757773518	3673.146990642368	9.683407607760699e-30	3674.373896827681	-0.09686416414024279	-0.29366392326176083	0.19679975912151804	170.99086646978776
18	7.0	ltm	393	diff_vonmises	-0.230162562055445	-13.187343407694904	0.9489320249192226	184.89661466927853	0.9335989787905417	186.44511818909896	0.029057176753269687	-0.3572764665815029	0.3863336433347726	83.15283712439373
19	7.0	perception	393	diff_vonmises	-0.3973179912797927	-22.76464402494777	0.681592654320819	232.8378371356549	0.6652279827201294	234.58718998137797	0.23905852258322113	-0.5023183643592937	0.7413768869425148	103.80997744073599
20	7.0	wm	393	diff_vonmises	0.6923045891323116	39.666131094819974	13.297694211322828	0.4221235986626663	0.22508236799071157	1.3817059820486088	0.33602259091157827	-0.24579393453983217	0.5818165254514105	36.280819147752595
0	1.0	ltm	394	diff_vonmises	-0.49150329680524063	-28.161064523706127	0.00034849681639884437	2266.098593634927	2.9778883622129276e-31	2267.508805986131	-0.09874267594045705	-0.35011995628042314	0.2513772803399661	173.19590741028608
1	1.0	perception	394	diff_vonmises	-0.1662026385658431	-9.52270973376106	15.48137295830175	0.6691258466485793	0.21136479576082773	2.241627184526501	0.6051737658269203	-0.4002409983481842	1.0054147641751046	33.77549643778829
2	1.0	wm	394	diff_vonmises	-0.08717448229123428	-4.994729916525659	2.1122879080838897	0.9402592923836319	0.3144025688829944	1.8860503324105797	0.1002089773426928	-0.2353136867002178	0.3355226640429106	80.24742323438969
3	2.0	ltm	394	diff_vonmises	-0.06069478302769968	-3.477554905949452	8.083503890753835	0.28832998156056355	9.011072252126609e-32	1.159942539211755	0.136961710570189	-0.18461055817871616	0.32157226874890515	47.81481746977937
4	2.0	perception	394	diff_vonmises	0.01215545947112239	0.6964565257376367	6.193697058408238	1.3530614087080757	0.5563289638432584	2.2475076290252347	0.7354837621917998	-0.38266988078364983	1.1181536429754497	50.6454328350259
5	2.0	wm	394	diff_vonmises	0.6490101507826361	37.18554250099423	4.491296623506964	0.45979133140059447	2.2043425746074638e-15	0.8827829386678879	0.23592056516103133	-0.1404519965516753	0.3763725617127066	64.50029749698643
6	3.0	ltm	394	diff_vonmises	-0.2826938619505047	-16.19716518401785	10.681330035932131	0.2663786340841235	0.22465027777523125	0.8068661793549835	0.18428821726980946	-0.14069262625538306	0.3249808435251925	40.30895969915997
7	3.0	perception	394	diff_vonmises	-0.10119764814730219	-5.79819813549031	5.197479912453705	1.4134433638688482	0.16932910389686257	2.1747065895892237	0.844083898335009	-0.33787907745998297	1.1819629757949919	58.03645141661357
8	3.0	wm	394	diff_vonmises	0.45424265179249823	26.026186822540808	1.1644415330544713	40.20009274286253	1.1373813592353372	39.82906978166642	0.3387050158980216	-0.04840719117544756	0.38711220707346916	94.48669917363759
9	4.0	ltm	394	diff_vonmises	-0.35374825558375045	-20.26828205506406	6.320528451466496	0.5845729980677369	0.5663002358768661	1.644622222652268	0.1474156504840286	-0.2972358544950957	0.4446515049791243	48.18222219850037
10	4.0	perception	394	diff_vonmises	-0.10148853246654918	-5.814864579309699	1.0880299803570828	127.89105063020537	1.0494361205149618	129.2619879564282	0.44614967569008	-0.46201849694583075	0.9081681726359108	84.44786978811553
11	4.0	wm	394	diff_vonmises	-0.676698311226804	-38.77195723692612	1.4785137268693942	123.84495647083264	1.4607458196561265	124.74757423709099	0.0026009723161948273	-0.23554958891957511	0.23815056123576994	65.36742793715503
12	5.0	ltm	394	diff_vonmises	-0.3635645162627831	-20.83071236257285	1.4276955988856088	116.95363793092804	1.4043694167157734	117.5622514990819	0.23205082169783964	-0.22305737034877637	0.455108192046616	73.28255973168827
13	5.0	perception	394	diff_vonmises	-0.11236214121213417	-6.43787646850826	2.1198510727793214	2.351672473941546	0.35144339794325646	3.206600167258621	0.5530633682777256	-0.36583133279997343	0.9188947010776991	83.05028947152661
14	5.0	wm	394	diff_vonmises	-0.16598852625040947	-9.510442001744938	0.5688474701568855	90.31459291891602	0.5522930149782932	90.29865228159598	0.28584343601615103	-0.15834679168975185	0.4441902277059029	122.49385160439896
15	6.0	ltm	394	diff_vonmises	-0.41598067506944714	-23.833937040482184	2.8952122834982745	0.6597625950327449	2.3701949958087535e-15	1.609400841818725	0.16727201813276088	-0.25484981858557676	0.42212183671833764	80.73268264014602
16	6.0	perception	394	diff_vonmises	0.10036774621313689	5.7506482572528945	0.646531470336706	85.28336119949826	0.6174916051524441	86.37779868599398	0.17580421439352634	-0.3344354368828375	0.5102396512763638	107.9248207478833
17	6.0	wm	394	diff_vonmises	-0.45319112586337706	-25.965938824753593	0.9681379028438649	65.42070785366259	0.9481856961999772	66.3037946013313	-0.045345292350372546	-0.18593439103179676	0.14058909868142422	78.0458512771374
18	7.0	ltm	394	diff_vonmises	-0.001681982131711389	-0.09637047736347994	1.1750368829739684	178.8708451348808	1.1555469447366202	180.44907122635377	0.06183123308494487	-0.38986094904167246	0.4516921821266173	75.14588710152128
19	7.0	perception	394	diff_vonmises	-0.48029602863946785	-27.518935357936023	0.8551346844079185	193.11007647419422	0.832258337641102	194.51748013973818	0.4070143221140228	-0.4705364879041589	0.8775508100181817	95.01179180634915
20	7.0	wm	394	diff_vonmises	0.7125032268914787	40.82342779033383	18.112199912857566	0.5341406346487448	0.7706614059108946	0.6742377914581743	0.6994357147281767	-0.1564281054315956	0.8558638201597722	30.95819055725218
0	1.0	ltm	395	diff_vonmises	0.043664685665726906	2.501802202411535	4.1240444990504335	0.4891131313271405	1.3184171715739714e-26	3.8000585058990506	-0.2224894112546934	-0.6046979915732754	0.382208580318582	67.40280426728299
1	1.0	perception	395	diff_vonmises	-0.0984819433722278	-5.642599713475024	8.57104000838952	0.8463143250631564	0.11987913369228241	4.041834965844937	0.25042524569598523	-0.6678031294995567	0.9182283751955419	44.96395970434048
2	1.0	wm	395	diff_vonmises	-0.08922807256195776	-5.112391971887242	1.9915729550649517	1.5791522300958132	0.27423492893810003	4.518292210899331	-0.11588388835791674	-0.5958903114907158	0.48000642313279906	78.86780539633509
3	2.0	ltm	395	diff_vonmises	0.02769494566633623	1.5868035005251955	1.7662809814999705	0.6895210922953169	1.495680383617648e-18	2.6296592903617264	-0.08866794807583683	-0.40888073961004023	0.3202127915342034	102.80044499792388
4	2.0	perception	395	diff_vonmises	0.02525280497418691	1.4468791458878816	5.069289439955994	1.6180776578900131	0.40052616626891624	3.2993397399145383	0.6599466732451602	-0.5286683079361111	1.1886149811812712	55.76689679189673
5	2.0	wm	395	diff_vonmises	0.439812132177135	25.199378952399744	3.6347162557235606	0.6298323410775016	1.5544005539843798e-13	1.981675306188284	0.14402889624457127	-0.31507341557419566	0.45910231181876693	71.89411905559615
6	3.0	ltm	395	diff_vonmises	-0.1786957841967303	-10.2385142512532	1.9864423297833143	0.9676452774644744	0.1402229440652236	2.4794636232655085	0.04533990682965944	-0.3408446326595519	0.38618453948921133	87.37106037250867
7	3.0	perception	395	diff_vonmises	-0.09508799084400717	-5.448140557740225	3.36203794372179	2.125966938446652	0.1910808672153743	3.5929897081303346	0.7988358736780053	-0.5195601543262232	1.3183960280042286	70.47621596520068
8	3.0	wm	395	diff_vonmises	0.26316257600058035	15.078104930624022	0.5155888786666388	120.42694164508221	0.4975625618338407	120.93624259164092	0.2807154734053512	-0.2897930305740122	0.5705085039793634	123.79559255350154
9	4.0	ltm	395	diff_vonmises	-0.25770473504138103	-14.765393678408268	4.676279281659977	0.49249683454245	1.2001921124952715e-14	2.994057039199174	-0.0644878314977193	-0.4764832339864442	0.4119954024887249	63.18951843089383
10	4.0	perception	395	diff_vonmises	-0.050485216093786776	-2.8925898099799223	0.8934753728255547	318.0507698657679	0.8753328746011526	320.04133817233753	0.4667073212672648	-0.6159614518580092	1.082668773125274	91.94221043490421
11	4.0	wm	395	diff_vonmises	-0.46319821151283197	-26.53930259769329	0.8330601078279876	224.27726058867557	0.8196424649023472	226.66211887143615	-0.15860376504586782	-0.4783509419598424	0.3197471769139746	82.68596245958848
12	5.0	ltm	395	diff_vonmises	-0.38719249157712937	-22.18449562652419	0.922061928085952	8.57466614319806	0.5996395440736688	9.850918876964304	0.18794601978002534	-0.36106957214328717	0.5490155919233125	98.01919855482878
13	5.0	perception	395	diff_vonmises	-0.09799856362275623	-5.614904093928211	1.3719901079857406	8.617159720204105	0.736927215316967	9.98907833736348	0.6241747350770077	-0.5232430938507485	1.1474178289277561	86.68745380792504
14	5.0	wm	395	diff_vonmises	-0.19536914697128796	-11.19382756852589	0.37263204127380356	198.57384308893657	0.36207066311528807	199.32194476824992	0.21634852458755915	-0.344189219287216	0.5605377438747752	137.00507541584898
15	6.0	ltm	395	diff_vonmises	-0.43717540535040855	-25.0483056334994	0.6705318607663922	197.17604089794963	0.6587582682393763	198.58474531675864	0.05185499127414772	-0.33968243528535425	0.39153742655950197	100.88759389487956
16	6.0	perception	395	diff_vonmises	0.06858026906765834	3.9293599754484116	0.34813783978399415	231.56204687015023	0.3367164539807145	233.02060614737215	0.16259238128822773	-0.5004640122628707	0.6630563935510985	138.52089218011986
17	6.0	wm	395	diff_vonmises	0.4114556131558952	23.574670090800264	0.00023926126965923705	4219.460829756985	2.018736164164507e-27	4220.900156354771	-0.06839532222466005	-0.38973734371199953	0.3213420214873395	174.79737485322352
18	7.0	ltm	395	diff_vonmises	-0.5038276043593045	-28.867195331975186	1.4715633533587744	1.0669233867003036	9.94597680953014e-25	3.0035677730861905	-0.021216630331155284	-0.4539579472281336	0.4327413168969783	110.40845714966122
19	7.0	perception	395	diff_vonmises	-0.19271984435905595	-11.042033710192012	0.5832018616137288	283.19644870194657	0.5669080645678002	285.474872313345	0.2802886742832271	-0.6765543896890769	0.956843063972304	112.3786650053828
20	7.0	wm	395	diff_vonmises	0.2867032035552111	16.426883536593735	1.0496040386945753	111.78240455618787	1.0171930146887533	113.44958689643775	0.10810418556940249	-0.4140932726275306	0.5221974581969331	80.965670481941
0	1.0	ltm	396	diff_vonmises	-0.531112298772129	-30.430493167134205	0.07185676102768035	9.628339434861074	8.630518733091184e-08	11.6129021391406	-0.2038140503467165	-0.4239391141229849	0.2201250637762684	168.52281028778208
1	1.0	perception	396	diff_vonmises	-0.10027087031162336	-5.745097676959644	11.750474067711977	0.8075190426536287	0.08526361314139201	2.9945326056026436	0.5738800379493151	-0.4934256705068465	1.0673057084561615	39.04735293078633
2	1.0	wm	396	diff_vonmises	-0.10422818476554961	-5.971835093375737	4.22116287500366	0.43954245829582594	0.0702926513271964	2.2044958653310855	-0.027954898169459286	-0.34536435477076377	0.3174094566013045	63.40836472052888
3	2.0	ltm	396	diff_vonmises	-0.11582348132149199	-6.636196648233814	4.42698867993458	0.364061990057519	1.0953016537692925e-15	1.5004779544620148	0.056912672441659096	-0.23876624321094966	0.29567891565260873	64.99129982256369
4	2.0	perception	396	diff_vonmises	-0.0008155037395335255	-0.046724922452406996	6.794607247112629	1.4868945755607499	0.4159583857424117	2.6185984511946847	0.9102822187893297	-0.4460711718751339	1.3563533906644636	49.35932970534026
5	2.0	wm	396	diff_vonmises	0.28924293403888385	16.572399374408903	3.2817307968206664	0.47436738652090743	2.884061804283354e-14	1.5482860997705052	0.08043053331751199	-0.24595612168188247	0.32638665499939445	75.77034130952904
6	3.0	ltm	396	diff_vonmises	-0.1675671433064248	-9.600890096521985	1.294962694378642	85.18431398118742	1.2703167966089848	85.94772349314165	0.08343213884458578	-0.20967869326514688	0.29311083210973266	73.40678596456897
7	3.0	perception	396	diff_vonmises	-0.053524973645565695	-3.066755088439874	3.923278915984211	2.3214297524396947	0.5550638837897287	2.944610591294163	1.0090758273954656	-0.4094761052941518	1.4185519326896174	62.58454387035664
8	3.0	wm	396	diff_vonmises	0.11909792326925168	6.823808352101041	1.1121264858929851	160.2325610496126	1.0993340116819628	160.59977098475562	0.251151064703123	-0.1698099297087019	0.4209609944118249	85.38503085343865
9	4.0	ltm	396	diff_vonmises	-0.3606770851055874	-20.665274743630963	6.046396722911925	0.4257083982991238	0.20971898220120386	2.049563386086813	0.010230078565933165	-0.3401060616399783	0.3503361402059115	51.32290505640262
10	4.0	perception	396	diff_vonmises	-0.08820457801277531	-5.0537500538644435	2.3353771627004942	2.6942198441160863	0.3117701547496974	3.9991909480685246	0.6766590613579626	-0.49260427063420253	1.1692633319921653	80.2226985176487
11	4.0	wm	396	diff_vonmises	-0.41853600623234544	-23.980346731374514	0.9051561675843162	189.97814851987	0.8928364616716329	191.62530984407064	-0.08354410428721337	-0.34254858214448447	0.2590044778572711	80.6828606151547
12	5.0	ltm	396	diff_vonmises	-0.1216520451307385	-6.970148755126333	1.05699588900702	136.2635530079209	1.0397741037890704	137.0143021079063	0.1797217575379122	-0.23058490967835255	0.41030666721626474	84.2078066920433
13	5.0	perception	396	diff_vonmises	-0.10518900685633802	-6.026886144040848	1.8856274292812332	3.3114879896147924	0.4603764917832042	4.020497745119111	0.6861443874854569	-0.38765728848313374	1.0738016759685907	85.28652287269858
14	5.0	wm	396	diff_vonmises	-0.025408766765947405	-1.4558150983210563	1.1475921385464458	1.3274657152335716	2.953786528554997e-17	1.8913828002670106	0.18935111020124445	-0.25161766748976516	0.4409687776910096	122.67726842941607
15	6.0	ltm	396	diff_vonmises	-0.4179466551804209	-23.946579403447643	0.6820130337089113	110.22332680123019	0.6680185080607145	110.90676946509193	0.10332363819127721	-0.200839669618615	0.3041633078098922	104.04981052379138
16	6.0	perception	396	diff_vonmises	0.1063868497040684	6.095517483735731	0.2606877903233856	126.1089592252382	0.2452122456631852	126.78607096684297	0.20861801388598877	-0.35023749089894274	0.5588555047849315	150.24460341054822
17	6.0	wm	396	diff_vonmises	0.2162342985023109	12.389312690154433	0.0003347057898897133	2892.128395878939	5.44160200135491e-32	2892.888991393402	0.033020710330049496	-0.2751000013096814	0.30812071163973087	178.4252101964497
18	7.0	ltm	396	diff_vonmises	-0.18483222678603117	-10.590106512844471	0.9858727054622668	101.31181289224726	0.9647135010806164	102.41981238470369	0.03512058907915616	-0.2613788551203271	0.29649944419948326	82.19767177338599
19	7.0	perception	396	diff_vonmises	-0.2072669079353317	-11.875519057421098	0.7230245492629933	177.33362582345356	0.7036806886739221	178.5900049957127	0.2957812996053022	-0.41171073317686613	0.7074920327821683	102.77922504450451
20	7.0	wm	396	diff_vonmises	0.3548499521753065	20.33140462006417	0.9475427125957352	61.40427951803945	0.9142139858213273	62.4115908192341	0.06129871491200589	-0.24630204507655318	0.30760075998855907	85.39705046912553
0	1.0	ltm	397	diff_vonmises	-0.20373686736367855	-11.673262631155424	0.8347009940058446	1.0772710355260713	4.7327104479852035e-33	3.1509916281694106	-0.1672553358201993	-0.4385367420854566	0.2712814062652573	135.37997387730877
1	1.0	perception	397	diff_vonmises	-0.13298836574936193	-7.61967208178059	13.26540950914795	0.6864249513025154	0.13607323250851097	2.8649085469406175	0.46734446026125076	-0.48756313732972084	0.9549075975909715	36.52583274360012
2	1.0	wm	397	diff_vonmises	-0.11076474248171636	-6.346352263055763	2.629433027608362	0.7816640013159311	0.1481229455434856	2.4701533300895133	0.021057815303142824	-0.35938559257193126	0.3804434078750741	76.43248637016845
3	2.0	ltm	397	diff_vonmises	-0.027779067937727976	-1.5916233516389966	3.77666537117888	0.43385311099935875	1.321905860482368e-26	1.6889624325787866	0.05439553808282682	-0.26863721275922353	0.32303275084205035	70.51462937944316
4	2.0	perception	397	diff_vonmises	0.009584121847271133	0.5491297321877621	6.074079265305126	1.3821632124757683	0.4348621930651792	2.5755696959663092	0.7239344619210335	-0.43081830542956806	1.1547527673506015	51.59468635782551
5	2.0	wm	397	diff_vonmises	0.43849160457596226	25.123718294122014	3.5853476259879273	0.5050095755441962	6.303334803472988e-12	1.364180472112984	0.14848269616763693	-0.21683499274945683	0.36531768891709376	72.39829323819518
6	3.0	ltm	397	diff_vonmises	-0.23383461901506092	-13.397736773612538	2.853460738201797	0.8565154379045488	0.4650286720819993	1.7730306816006502	0.1191763380421822	-0.23866654213798702	0.3578428801801692	68.28234814552755
7	3.0	perception	397	diff_vonmises	-0.080488163508971	-4.611632069822921	4.262274343694	1.8678364959189337	0.253974231625931	2.885057782453597	0.9039155345771301	-0.4317452868623577	1.3356608214394878	62.73406723466081
8	3.0	wm	397	diff_vonmises	0.23211916299792398	13.299448383890269	0.844483782708914	93.98404398715202	0.8251587928278121	94.17245840011203	0.2885658109659026	-0.16219136861523786	0.4507571795811405	100.45285975741788
9	4.0	ltm	397	diff_vonmises	-0.3375151613924098	-19.338194269461905	9.880779782606943	0.33615754404229126	0.030833807700798917	1.8641910031318731	0.10996525683744213	-0.29921193789601325	0.4091771947334554	42.776384497684575
10	4.0	perception	397	diff_vonmises	-0.08920911428220511	-5.111305742470587	1.0321930207538879	199.86432275166146	1.0028084536695496	201.51032971532237	0.5459161771907048	-0.5598441059925072	1.105760283183212	86.70443537054732
11	4.0	wm	397	diff_vonmises	-0.4539128844855317	-26.00729254763023	0.9603417289582248	182.63557735697995	0.9485042963707709	184.0193287952975	-0.04889399384408932	-0.2971826107888269	0.24828861694473758	79.42389484471266
12	5.0	ltm	397	diff_vonmises	-0.25726973651780716	-14.740470098913063	1.048828832549084	135.99531791991384	1.0290805839827148	136.89349795940598	0.1943495474813801	-0.268693643917862	0.4630431913992421	84.25279504829702
13	5.0	perception	397	diff_vonmises	-0.07369850183426149	-4.22261311154034	0.9909268691671733	183.95245946434738	0.9645138801552381	185.0467298997854	0.5542439038205984	-0.44510264431000124	0.9993465481305996	89.99139297082539
14	5.0	wm	397	diff_vonmises	-0.14094319354455065	-8.075450141198262	0.5016061293288755	112.2341529651872	0.4848721728118482	112.70888891897329	0.23485828157397037	-0.2569785208251645	0.49183680239913485	125.08998595725058
15	6.0	ltm	397	diff_vonmises	-0.41581383542738115	-23.824377833136328	0.7629089037280613	123.83938524633662	0.7429277461203205	125.05068996204655	0.11779042993371291	-0.31717130635463064	0.43496173628834356	96.79189567334838
16	6.0	perception	397	diff_vonmises	0.028565419975420978	1.6366780046103178	0.6712812587158388	185.6845032861498	0.6547863924318085	186.93788281417574	0.23674354149103038	-0.39365175917491335	0.6303953006659437	105.87885933848818
17	6.0	wm	397	diff_vonmises	0.34095162640317334	19.53508921102304	0.0001905955637150339	4848.731561505957	1.5158075437194756e-31	4849.872312387677	-0.03447145721918332	-0.32862681131314275	0.29415535409395943	176.35018901406727
18	7.0	ltm	397	diff_vonmises	-0.12071832268146122	-6.9166503995461275	1.0464473998575494	198.40780155701862	1.0304881895676383	200.11457356190297	0.0038075878498489146	-0.39173139740359275	0.39553898525344167	78.20609785956358
19	7.0	perception	397	diff_vonmises	-0.3045646347029477	-17.450268157422553	0.6427599216093596	201.98560452981877	0.6232279692347312	203.72754882170366	0.27858760787719916	-0.5313551513162729	0.809942759193472	107.82127562032359
20	7.0	wm	397	diff_vonmises	0.5411813450083894	31.007407020194016	1.387973698517587	60.23885079748754	1.3369719530026183	61.2234194454923	0.15430954517101014	-0.2895194273850654	0.44382897255607556	72.04001574933781
0	1.0	ltm	398	diff_vonmises	-0.3986250047388091	-22.8395303799162	0.6213195977984068	1.3994102390838514	8.776892401373608e-16	3.733768360392228	-0.21697429383122946	-0.4853579527383115	0.26838365890708205	143.8329571436234
1	1.0	perception	398	diff_vonmises	-0.05330487511211493	-3.0541443713961263	8.62160528370163	0.9817593055703127	0.027848614766136637	3.5311809350219563	0.5546123852084417	-0.5640609946551938	1.1186733798636355	45.93179350700265
2	1.0	wm	398	diff_vonmises	-0.08723812827796554	-4.998376562948305	4.921418465084393	0.4649657480471001	0.06836480784280217	2.7814560753040993	-0.07365553513343992	-0.44062701064278254	0.3669714755093426	58.7933723422143
3	2.0	ltm	398	diff_vonmises	-0.01762268719472757	-1.00970559993713	2.1940924021777493	0.5971038065296596	0.14439870058426016	1.7824469884938852	-0.0003621083679509196	-0.25148173170886645	0.25111962334091553	82.63949238328274
4	2.0	perception	398	diff_vonmises	0.015043909253386398	0.8619525075968459	5.709461828882229	1.7929569889444579	0.4505184246129533	2.8276487040430527	0.9963881940335986	-0.46038133136580606	1.4567695253994046	53.36514234513521
5	2.0	wm	398	diff_vonmises	0.2186071431307361	12.525266672803484	2.36272345609988	0.8100776887535919	0.13936811931198753	2.010432608164731	0.09570361947811734	-0.2842794737927606	0.3799830932708779	81.75793952127049
6	3.0	ltm	398	diff_vonmises	-0.1228062577661692	-7.036280267797184	1.0728716682989343	110.38489150795706	1.0565072687936565	111.20184888353768	0.05169359797568518	-0.20348593981014318	0.25517953778582836	79.64855687019298
7	3.0	perception	398	diff_vonmises	-0.037799217318110395	-2.165735621225536	4.015152638190621	2.160616084360675	0.4225627752854922	2.665479781422985	1.0452582322760677	-0.37855020143896495	1.4238084337150327	63.37634786824728
8	3.0	wm	398	diff_vonmises	0.12306561093162653	7.051140109581247	0.8861508645853279	140.70898686936624	0.8717562496790531	141.1726985795108	0.23896456760678575	-0.19556555885632676	0.4345301264631125	95.08106723112414
9	4.0	ltm	398	diff_vonmises	-0.5198757031704563	-29.786683663063094	0.854778027055585	121.5149420987529	0.8326768673747856	123.39058692529694	-0.06869563950899504	-0.39430359367599443	0.3256079541669994	84.5578264797695
10	4.0	perception	398	diff_vonmises	-0.04287875060230551	-2.4567714403061425	2.6481544209862435	2.2493415570745388	0.09872728899296151	3.3279643546685698	0.7877547134166294	-0.4782127220110675	1.2659674354276969	81.24832739614979
11	4.0	wm	398	diff_vonmises	-0.28018559522118813	-16.05345208653493	0.753289170184047	217.95206073724188	0.7402533914641681	220.02823600097094	-0.0643844744287918	-0.43709789561010837	0.37271342118131656	90.61013634632145
12	5.0	ltm	398	diff_vonmises	-0.14693235562144713	-8.418603851024237	0.8789742509387065	124.37962919469417	0.8629065972118423	125.06641171810541	0.1642885167965602	-0.21436037089687332	0.3786488876934335	92.7559627896314
13	5.0	perception	398	diff_vonmises	-0.11561288969990498	-6.624130637116062	1.9908836943359585	3.242515951801776	0.44433901852186397	3.678495952026436	0.7985552394158586	-0.36405597187695005	1.1626112112928086	84.76624430750115
14	5.0	wm	398	diff_vonmises	0.06984869174758984	4.00203524164716	0.36151174678908754	143.89893450859648	0.3493521474682876	144.49987638016893	0.18611135938357748	-0.2876849843239242	0.4737963437075017	138.7119850510942
15	6.0	ltm	398	diff_vonmises	-0.496484219647781	-28.446450380663993	0.5773349225604144	96.45912069098769	0.5649463278768238	96.87442575756168	0.11794319406537923	-0.16114837187679942	0.27909156594217865	115.4991123010849
16	6.0	perception	398	diff_vonmises	0.06444268468804097	3.6922938531170817	0.12542103252881018	164.90804695359546	0.11383566065643512	165.26702669621096	0.2572758466907388	-0.33569058257096174	0.5929664292617005	166.07333332766467
17	6.0	wm	398	diff_vonmises	0.1787456378846454	10.241370657163896	0.0043718505828934445	279.0370542842632	2.138186889571111e-18	279.5889023388053	0.10653525504255157	-0.28176955562611283	0.3883048106686644	178.65551590473447
18	7.0	ltm	398	diff_vonmises	-0.8270944670136828	-47.38902221850631	0.00020040930647356628	4241.480460196077	6.2881881893679156e-31	4242.442490969807	-0.017821474662127912	-0.28838887631036414	0.2705674016482362	161.40578068469927
19	7.0	perception	398	diff_vonmises	-0.08137944488975499	-4.662698731300436	0.8057447336110802	153.02329946518728	0.7802188350283848	154.1621961186431	0.40440093530253307	-0.41948724243450997	0.823888177737043	98.86290719578653
20	7.0	wm	398	diff_vonmises	0.13387153783683717	7.67027411497668	0.7075667014580526	84.09667774496006	0.6843373151488868	85.25824391113481	0.04519833498051895	-0.27889540980509864	0.3240937447856176	98.55858010765272
0	1.0	ltm	399	diff_vonmises	-0.16868400034751133	-9.66488129129571	6.3818787127810355	0.24327748536059526	6.415619252230118e-22	3.1194588201839544	-0.256530849600229	-0.4964766039675445	0.23994575436731552	53.911359698852664
1	1.0	perception	399	diff_vonmises	-0.09416262824471366	-5.395121186281452	10.904887902695165	0.6767660069692581	4.0414577562183306e-17	3.7495177224109515	0.28391818040828576	-0.5967542794350821	0.8806724598433678	41.086543145742496
2	1.0	wm	399	diff_vonmises	-0.12244170054080548	-7.0153926773928434	3.54589306180032	0.7058661434553578	0.1713023646297825	3.473466168785995	-0.14344086583727245	-0.5382403514837101	0.39479948564643763	64.5932203793696
3	2.0	ltm	399	diff_vonmises	-0.03228821946446691	-1.849978703306109	2.5771018678849797	0.45536217576224436	7.212373953387436e-21	1.8716575931282218	-0.024692623496317123	-0.2963058312389353	0.27161320774261816	85.67879701534935
4	2.0	perception	399	diff_vonmises	0.03799957756166959	2.1772154175636915	5.664698814483442	1.8632502798802684	0.544172670828986	3.35949482575932	0.8694842674659184	-0.5604350762799286	1.429919343745847	52.39728926834374
5	2.0	wm	399	diff_vonmises	0.26144689501964735	14.979803651425696	2.9168601155742957	0.6661351332583361	0.11275397191350153	2.046296827432309	0.06594580922972315	-0.30446287700982955	0.3704086862395527	74.77237213021195
6	3.0	ltm	399	diff_vonmises	-0.1599724789298838	-9.16574788092783	1.1740171947652787	149.46501821366957	1.1559591429107179	150.77346080794732	0.01568409386522518	-0.31327996453820006	0.32896405840342524	74.09785203428586
7	3.0	perception	399	diff_vonmises	-0.02979567007622683	-1.7071661431320373	4.513890688018519	2.1970712323546118	0.48422130842245137	3.3755614504636777	0.9805581888669221	-0.5112506274347611	1.4918088163016834	58.8379577929328
8	3.0	wm	399	diff_vonmises	0.27256489755149205	15.61681827311616	0.8493811139475935	139.25377813910634	0.8322236109142352	140.07195785571167	0.2025225240781836	-0.25990033700052706	0.46242286107871067	94.59384115187163
9	4.0	ltm	399	diff_vonmises	-0.6716094547317238	-38.480387237210294	0.9362030945840363	312.36066151574545	0.9240627025180927	314.9534422430358	-0.12758890059360795	-0.5438998207214283	0.41631092012782034	79.4210967558411
10	4.0	perception	399	diff_vonmises	0.0009820236968209536	0.056265813209675365	1.4839964215211259	6.78537656679125	0.6568512265856454	8.48519904568221	0.5752517409364857	-0.5747653490319125	1.1500170899683981	85.40364155665696
11	4.0	wm	399	diff_vonmises	-0.10050774788556546	-5.758669762207825	1.1184840699854997	1.7018305745507594	0.2164199419451979	4.544778338132228	-0.2682227352570604	-0.5262652136640592	0.2580424784069988	95.36332122256442
12	5.0	ltm	399	diff_vonmises	-0.15183255338265844	-8.6993645015211	0.9525299407301435	133.2849695611612	0.9304790936647385	134.33815040737267	0.21244393880958512	-0.31050827793958824	0.5229522167491734	88.45570879148671
13	5.0	perception	399	diff_vonmises	-0.12595301596719524	-7.216576231864156	1.0913873950318584	243.67339462049188	1.069164342698697	244.69753550377024	0.6528521077398466	-0.45812123577753283	1.1109733435173794	86.20421799943975
14	5.0	wm	399	diff_vonmises	0.09319723865175308	5.3398084370189585	0.87628416244139	1.9975600951307095	5.024070047520476e-18	2.7582867525245	0.19662589544664077	-0.32882054947342254	0.5254464449200633	133.80671130959308
15	6.0	ltm	399	diff_vonmises	-0.4898409136127297	-28.065816982841767	0.7846893055908837	134.68665032640055	0.7723899399222585	135.34972673540855	0.1185056528824262	-0.19525731107091993	0.31376296395334613	97.19658587094195
16	6.0	perception	399	diff_vonmises	-0.05959560390095822	-3.414576581058291	0.42372467890274457	146.7243432252181	0.4077229735690271	147.61093499755535	0.2285656103304916	-0.37440246405614985	0.6029680743866415	131.7386124344078
17	6.0	wm	399	diff_vonmises	0.2161072624152855	12.38203405852202	0.4166394044665495	3.1986659035336715	5.1273597613157646e-18	4.105558870416064	0.08632611157744396	-0.3319041734661364	0.41823028504358034	155.6621728528212
18	7.0	ltm	399	diff_vonmises	-0.5054932466471146	-28.96262960524522	3.538950730711107	0.30951595955525857	8.312487755961971e-19	1.935349175398473	-0.08555945534032525	-0.30783273256300275	0.2222732772226775	72.87762443904954
19	7.0	perception	399	diff_vonmises	-0.11267987419362523	-6.456081227359806	1.126318087442933	4.355839833744801	0.3378138028563074	6.267208485444771	0.23256292074215668	-0.5308780284479394	0.7634409491900961	101.70221814776174
20	7.0	wm	399	diff_vonmises	0.32488234664539867	18.614387301087543	0.8724131197208908	118.82124407314191	0.8510392837737007	120.73436063057133	-0.11512305820152591	-0.389784077196202	0.2746610189946761	81.57767876660947
0	1.0	ltm	400	diff_vonmises	-0.39710606246360547	-22.752501398223036	0.5829995723292535	1.7067043355042915	1.6916076301475544e-17	3.066857661504337	-0.04036936917593842	-0.34858444527432175	0.30821507609838333	145.66797799682945
1	1.0	perception	400	diff_vonmises	-0.10118838801533679	-5.797667569010959	12.01659009449144	0.8483348807364562	0.06247828193990347	2.3703433203939537	0.7592266336587543	-0.3861257543892923	1.1453523880480465	38.81789282149782
2	1.0	wm	400	diff_vonmises	-0.15133519025649375	-8.67086769350643	5.205877159452535	0.3708617609072192	1.780754422704158e-18	1.5587679077373153	0.08045408553993783	-0.24807573450778417	0.328529820047722	59.81564652901429
3	2.0	ltm	400	diff_vonmises	-0.06084183349573664	-3.485980277143393	3.403372526664738	0.5076117753177455	0.1099922298686524	1.3220366992568335	0.12278292458810208	-0.19922916987707046	0.32201209446517254	70.50238338832449
4	2.0	perception	400	diff_vonmises	-0.0005216558150105984	-0.029888676558564507	5.587150392940154	1.5678981881585787	0.4205641958137937	2.2221794505604473	0.9265663551010295	-0.35516555216344675	1.2817319072644762	54.37986288020113
5	2.0	wm	400	diff_vonmises	0.2763167116223591	15.831781384894638	2.613478677589744	0.5439919870932695	4.9393417084957936e-12	1.2418553420631275	0.13139798148101065	-0.19588045568326917	0.32727843716427985	85.03831297628983
6	3.0	ltm	400	diff_vonmises	-0.14656810611509388	-8.397733891620472	1.360982185967818	162.66914727800366	1.3472078985846714	163.30011248204502	0.14717645448686767	-0.19973116094891097	0.34690761543577864	73.4753352230102
7	3.0	perception	400	diff_vonmises	-0.04609298279700515	-2.6409333794375036	3.543692297435242	2.435153702500981	0.423369184432701	2.9007744110039173	1.0769680465708542	-0.39107741418719216	1.4680454607580464	67.04216106516702
8	3.0	wm	400	diff_vonmises	0.09390908228547433	5.380594072904442	0.8468728296486318	126.5111356579789	0.832648296603924	126.70517110656033	0.2833289620085111	-0.1606115135189139	0.443940475527425	100.07267619958162
9	4.0	ltm	400	diff_vonmises	-0.3097729730135378	-17.74868396089566	8.600861635011231	0.38200757351762094	0.09302151413195346	1.5577023272022135	0.16853436888003664	-0.2542454869531084	0.42277985583314504	45.30064541761348
10	4.0	perception	400	diff_vonmises	-0.10378695521320626	-5.946554502230016	2.0018988763346286	3.3890873788246476	0.3096366725197165	4.517190895714995	0.7925975924869493	-0.5147187086627886	1.3073163011497377	86.22222654147308
11	4.0	wm	400	diff_vonmises	-0.4505524729969654	-25.814755151908106	1.0450701303399104	181.17772593947643	1.0307140503567098	182.35449355737387	0.08136111172711225	-0.2940820403705331	0.37544315209764534	80.91912221303546
12	5.0	ltm	400	diff_vonmises	-0.11745222043908544	-6.729516525599781	1.087237363740695	112.07515624582027	1.0709029100994203	112.4042815651798	0.22671141151448637	-0.15331652114368843	0.3800279326581748	86.48499267294068
13	5.0	perception	400	diff_vonmises	-0.0901686332253407	-5.1662821282751095	2.0678904931811446	2.470491308150886	0.2372074539760047	2.6087054317642426	0.781407483043326	-0.308121612466301	1.089529095509627	88.66855398998015
14	5.0	wm	400	diff_vonmises	-0.019286780211158944	-1.1050511064958422	0.47441135126007755	63.60978914562615	0.4497777859394632	63.86166928281434	0.23122237199559592	-0.2069095306417994	0.4381319026373953	129.36771283530314
15	6.0	ltm	400	diff_vonmises	-0.4166337811225421	-23.871357260898975	0.5566072346130093	100.78032308984216	0.5440750999345366	101.19306875186521	0.13247852960949658	-0.1716305543401493	0.30410908394964586	117.95739649269883
16	6.0	perception	400	diff_vonmises	0.0008302352798637589	0.047568977539056125	0.3987891167819576	171.32520586728202	0.38789210152211756	171.60274093255785	0.2792809066019686	-0.2590762681541072	0.5383571747560758	136.32070361749732
17	6.0	wm	400	diff_vonmises	0.13708791055362707	7.854558696989768	0.0002756946517509309	3498.749079301543	6.0236685861767865e-30	3499.133752837644	0.09230608563552778	-0.21473031326081582	0.3070363988963436	179.3017094961977
18	7.0	ltm	400	diff_vonmises	-0.08185391757468566	-4.689884013641204	1.107008272573998	107.84473832631839	1.08565160714871	108.73739057359026	0.11195722369645011	-0.24095889851198748	0.3529161222084376	80.15190312590335
19	7.0	perception	400	diff_vonmises	-0.18572360562201223	-10.641178758093469	0.814503494809177	198.57063921650206	0.7954863302515878	199.40718702873562	0.4678010249565361	-0.37994374336447656	0.8477447683210126	99.69275282944405
20	7.0	wm	400	diff_vonmises	0.2792016499564132	15.997076175591443	1.0074930288874675	66.97621986368958	0.9809982116544347	67.599145109589	0.12523664998587236	-0.1830275755535995	0.30826422553947186	85.95580506679795
0	1.0	ltm	401	diff_vonmises	0.07350903267896612	4.211757328594006	5.1222714757350785	0.48191021341073964	9.209215611214704e-22	3.9465747461834946	-0.2048385589890125	-0.6281018301265013	0.42326327113748885	60.309767642307065
1	1.0	perception	401	diff_vonmises	-0.08031563731142877	-4.601747046848311	9.467378270242992	0.862395773568945	0.12239983868634666	4.17440614696548	0.29557326866935485	-0.6944794579161994	0.9900527265855542	42.87182854693663
2	1.0	wm	401	diff_vonmises	-0.1572850892473571	-9.011771794212047	3.5770419799156126	0.6802675648561822	0.08548981558591899	3.9117493538339043	-0.18505472760865188	-0.6077293066860828	0.42267457907743095	67.12453219199847
3	2.0	ltm	401	diff_vonmises	-0.026594590806689036	-1.523757811100701	2.1005447252988727	0.7469463058679786	1.0276554919923982e-18	2.9384147109778826	-0.07078483424392185	-0.46171742312303554	0.3909325888791137	94.77165454504609
4	2.0	perception	401	diff_vonmises	-0.009442749261313084	-0.5410296796735155	5.8395483690657715	1.4498314049795789	0.26804637664480124	3.4347562003837537	0.662663403402823	-0.5593347181350317	1.2219981215378546	53.301442330044495
5	2.0	wm	401	diff_vonmises	0.17137285776132846	9.818941472819894	2.9258478322309673	0.8463838973314572	0.11803036502564865	2.7232972163745046	0.06043793218758248	-0.4055375141237838	0.4659754463113663	74.2564406819101
6	3.0	ltm	401	diff_vonmises	-0.17850344859591746	-10.227494233076511	2.0649736954123736	1.1689078053515833	0.08153637010528639	2.984751701381994	0.10022366572111119	-0.42958118840266685	0.5298048541237781	89.51872578888921
7	3.0	perception	401	diff_vonmises	-0.08477952131677075	-4.85750876059036	2.458090102619975	3.8552482223200726	0.4843129856853038	5.530336367324663	0.9012821798857003	-0.6409857822207946	1.5422679621064947	75.24750523336911
8	3.0	wm	401	diff_vonmises	-0.026849351533042607	-1.5383545255064481	1.746614074897272	1.707556033425748	0.15244816828111907	2.902397804562617	0.2764209990593516	-0.3715519033780926	0.6479729024374441	94.76153164133524
9	4.0	ltm	401	diff_vonmises	-0.11066611232404179	-6.340701171288301	3.1412773985277136	0.6124652952558457	0.0020889157267340603	3.3918838384882917	-0.12922673212898356	-0.5379385536039469	0.4087118214749634	77.2454081412759
10	4.0	perception	401	diff_vonmises	-0.12021427796684676	-6.887770764712842	0.9088010597735435	418.42123434378107	0.8922780992598022	420.72431313276786	0.5768353456560931	-0.7248613814970071	1.3016967271531001	91.32675934565731
11	4.0	wm	401	diff_vonmises	-0.34970772085732404	-20.036776468263778	0.6521851956017563	255.3949582861705	0.6412203414680137	258.0201598046376	-0.18553615838088433	-0.5132270173201476	0.3276908589392633	93.36489671698973
12	5.0	ltm	401	diff_vonmises	-0.21984331140951865	-12.596093897945677	0.9805085956336638	3.5573611614183376	0.3145873642676018	4.897948520013189	0.16065246806164768	-0.3864466144910801	0.5470990825527278	108.13918468073062
13	5.0	perception	401	diff_vonmises	-0.07121050502356163	-4.080061394845228	1.391703634314256	7.364894717346579	0.6275820125623731	8.858298035103102	0.6503742757362061	-0.56226377817017	1.2126380539063761	88.80210945072162
14	5.0	wm	401	diff_vonmises	-0.2301973118716947	-13.189334425504867	0.44532062785605503	186.46869224762509	0.43273136897560255	187.73098395866054	0.13845050548687254	-0.4033292850564223	0.5417797905432948	126.82981312266065
15	6.0	ltm	401	diff_vonmises	-0.3913995463460375	-22.42554210896301	0.6540957427320592	163.25077254648636	0.639684826583272	164.84410388034456	0.01191489815317226	-0.36461127886248335	0.3765261770156556	100.69889785177604
16	6.0	perception	401	diff_vonmises	0.024136296723232288	1.3829079353166485	0.3264521640532157	178.79407591006077	0.3115372493881486	180.2573760420137	0.16918998818399444	-0.5146598241959879	0.6838498123799823	141.47115369905276
17	6.0	wm	401	diff_vonmises	0.1348332252912715	7.725374747326447	0.4629186435458286	2.471248882550637	5.422941171104976e-17	4.019908504778981	-0.04711539685396493	-0.4049690723443253	0.35785367549036035	153.7692729780292
18	7.0	ltm	401	diff_vonmises	-0.5106619073077328	-29.25877204683394	2.2416489163041997	0.913618428121986	0.08079072839430054	2.578213775425889	0.060612653882112566	-0.3763047329330994	0.43691738681521197	85.90144869193632
19	7.0	perception	401	diff_vonmises	-0.08986939936951797	-5.149137291249041	0.4789771803626838	357.48455005440894	0.46815362814315764	359.69215001917564	0.18846686740293705	-0.6549061035879262	0.8433729709908633	122.40931577168351
20	7.0	wm	401	diff_vonmises	0.21499437294347834	12.318270188722927	0.9901829141221646	197.2795966864998	0.9736672173183958	199.11802843221128	-0.0017656160670185272	-0.41550458598979034	0.4137389699227718	80.35727708716541
0	1.0	ltm	402	diff_vonmises	-1.1310626015330174	-64.80511343292905	0.00024082428324488734	1645.387744521907	3.1031866610697274e-31	1648.267380483664	-0.3952398272830351	-0.5213691743340405	0.12612934705100542	146.61721020724758
1	1.0	perception	402	diff_vonmises	-0.09325151961451804	-5.342918507093297	12.354176593056872	0.6879602572084306	0.051905971105318874	3.8032386288479922	0.3171988403726128	-0.6189084351837593	0.9361072755563721	38.15008860913295
2	1.0	wm	402	diff_vonmises	-0.07142751970155929	-4.092495419986885	4.261071835037371	0.4796443219758895	0.11674338253411864	3.1033362981216106	-0.17151051725770378	-0.49128997214328257	0.3197794548855788	60.66171007759746
3	2.0	ltm	402	diff_vonmises	-0.1636234058365037	-9.374930583987902	5.109308877670713	0.3244980820589522	2.526199314271549e-23	1.7828589296345834	0.0008618656274684278	-0.2837404252086117	0.28460229083608013	60.3919613535146
4	2.0	perception	402	diff_vonmises	0.005169006811353064	0.29616227456490585	7.468327645443713	1.5823355964546189	0.470525980589286	3.3062169471917877	0.8964806520294736	-0.5899175104612344	1.4863981624907079	46.62597058735764
5	2.0	wm	402	diff_vonmises	0.20019991944661159	11.4706104431499	3.592956884949014	0.4822904608339623	0.04411514941906277	2.0144739602559354	0.01461176645156037	-0.3130251259315886	0.32763689238314897	69.84279388879517
6	3.0	ltm	402	diff_vonmises	-0.16730500385353672	-9.585870612227628	1.2638728486758268	70.9234219356045	1.2321654428899143	71.93395725419202	0.023181118693717195	-0.25059946696342905	0.27378058565714625	71.92002409359398
7	3.0	perception	402	diff_vonmises	-0.03884020126016372	-2.225379607646083	4.047383107597669	2.6776536085464375	0.8155497879577919	3.586979001940407	0.9721258886635615	-0.4995855959005277	1.4717114845640893	59.01885370944461
8	3.0	wm	402	diff_vonmises	0.1475432024842381	8.453602798190966	1.294678397286846	164.6790242785633	1.2786274977283016	165.39425478444068	0.20003390736124516	-0.2339444701441309	0.43397837750537605	76.09498655033897
9	4.0	ltm	402	diff_vonmises	-0.580731472265717	-33.2734623912442	0.9869312153171204	164.73226153374068	0.9677083945040587	167.12554417215577	-0.20302084873414827	-0.4871093387540526	0.2840884900199043	74.11462515945392
10	4.0	perception	402	diff_vonmises	-0.05879333212169599	-3.3686097940841138	2.4053354594914356	2.706283297535707	0.4118526926287844	4.272674832487095	0.5746642384477058	-0.515218107948578	1.089882346396284	76.44961758371136
11	4.0	wm	402	diff_vonmises	-0.12310663643286869	-7.053490697654832	0.586686881841974	108.41081808527989	0.569636023835994	110.93854579672339	-0.30767200480982027	-0.4475826826361313	0.13991067782631106	87.4893931604492
12	5.0	ltm	402	diff_vonmises	-0.07651301729939111	-4.383872969066567	1.4280136375824422	3.890929833117161	0.7033495018248435	5.24417487200271	0.1403565648239209	-0.34985772314996283	0.4902142879738837	81.6981749856873
13	5.0	perception	402	diff_vonmises	-0.1229355965838465	-7.043690836177305	1.1024667446448448	215.3695270650787	1.0760479839372499	216.72999113296916	0.5822299274622793	-0.5069325368497459	1.0891624643120252	84.55586130820532
14	5.0	wm	402	diff_vonmises	0.03895622212416235	2.2320271134886656	1.2788097829138299	1.2582642719796193	1.0170294096619084e-15	2.2585044993675183	0.13580342847145765	-0.32107450096834456	0.4568779294398022	117.81351749111883
15	6.0	ltm	402	diff_vonmises	-0.39958140901968703	-22.89432830871875	0.824637443229875	152.4926130964984	0.8121168252741194	153.44376150521302	0.07354537396004446	-0.23872464932728477	0.3122700232873292	91.98656834951946
16	6.0	perception	402	diff_vonmises	0.1838531077072598	10.534007121990133	0.11396619256892795	43.77984107641901	0.06984269739297927	44.95223762551437	0.12101508798263261	-0.466477037303493	0.5874921252861256	168.28051831843334
17	6.0	wm	402	diff_vonmises	0.22161382096257412	12.697536622923348	0.7018722410449428	1.6859181086412944	1.5695384984706237e-17	2.9069498324180705	0.01768325081249139	-0.34464577010900516	0.36232902092149655	141.33415069040413
18	7.0	ltm	402	diff_vonmises	-0.3008167234857306	-17.23552866268627	0.9820744754886203	95.99637500902726	0.9597045038745948	97.41143919144639	-0.06554561344361076	-0.30076263575235274	0.23521702230874197	77.9232847172838
19	7.0	perception	402	diff_vonmises	-0.18452588574228584	-10.572554463946231	0.608434710273848	97.33774517664618	0.5783937103939525	99.0686629334767	0.10047304921386413	-0.44780683778967045	0.5482798870035346	108.19707350749053
20	7.0	wm	402	diff_vonmises	0.6726522276818896	38.540133726245195	12.164049550974958	0.2340931384809753	2.7295098503708318e-14	1.850236476906845	0.027634959906429446	-0.2944742811798841	0.32210924108631356	38.88311311458756
0	1.0	ltm	403	diff_vonmises	-0.2783506239360891	-15.948315976371056	0.00039510288753766027	2463.479777675201	6.480373516706415e-29	2464.832327167586	-0.06033974297241684	-0.37015952937110796	0.3098197863986911	177.77275076232692
1	1.0	perception	403	diff_vonmises	-0.1486760967164507	-8.518512856331462	13.18187033998412	0.7339581427785873	0.20422337571519156	2.2610062121584855	0.6153408529181348	-0.3972122119116839	1.0125530648298187	36.554150520668145
2	1.0	wm	403	diff_vonmises	-0.05684723462456829	-3.2571066209777237	2.035588168120929	1.05439724724507	0.29399458703119596	2.002376444703682	0.13124769106299589	-0.24666664409851216	0.3779143351615081	82.6192381195375
3	2.0	ltm	403	diff_vonmises	-0.011873494132820225	-0.6803011018839442	5.244068550072792	0.3231610409674508	1.8545972671426388e-20	1.0921381489871047	0.11357808455804907	-0.1738111753016822	0.2873892598597313	59.5918483639675
4	2.0	perception	403	diff_vonmises	0.01472985422099948	0.8439584797062312	5.810005762270201	1.3774238126109284	0.5426400110011694	2.0606509880920405	0.7683799504371613	-0.3396920732858479	1.1080720237230093	52.480324048300446
5	2.0	wm	403	diff_vonmises	0.5996069780215763	34.35494920722983	3.641742437209955	0.5081202332424012	3.856317375799274e-19	0.8194611938833929	0.24059809509771507	-0.1301664523875852	0.3707645474853003	71.80796265085712
6	3.0	ltm	403	diff_vonmises	-0.21929788541208162	-12.564843290255821	3.322762634552803	0.6567755600810645	0.7374587565754951	1.1218458540369218	0.1284561775152659	-0.15078524128638648	0.2792414188016524	62.05218729380903
7	3.0	perception	403	diff_vonmises	-0.08951147825376754	-5.128629921917928	5.148993957018874	1.4066696030842636	0.07766314236035689	1.9664954495404554	0.9012340811330728	-0.30580674614556264	1.2070408272786355	59.253539366775556
8	3.0	wm	403	diff_vonmises	0.36370349585336453	20.838675306551625	0.8756965627603325	52.75394219769601	0.8541906616868732	52.384808076374085	0.3322889425209823	-0.06778407842535739	0.4000730209463397	106.83915325723245
9	4.0	ltm	403	diff_vonmises	-0.3340499556997335	-19.13965260812685	11.044402648940084	0.3533058309966258	0.19774080802449628	1.235385544092975	0.22558375878753464	-0.2139296875400331	0.4395134463275677	39.67738507720418
10	4.0	perception	403	diff_vonmises	-0.07949876035013442	-4.554943444584673	1.751445465091912	3.963753474783984	0.5496878118707319	5.158803018198532	0.5655344079535223	-0.4532126029643583	1.0187470109178807	83.99086891587493
11	4.0	wm	403	diff_vonmises	-0.5535831774283899	-31.71797967608856	1.2777789792468954	120.50022513442289	1.2619027474217686	121.26618137788098	0.05039850518451772	-0.20015283036555687	0.2505513355500746	72.66760110860264
12	5.0	ltm	403	diff_vonmises	-0.3501306383904756	-20.061007857995445	1.330540048216569	131.78315885191424	1.3127534465248503	132.32557910693083	0.20761195966167634	-0.19615324223816977	0.4037652018998461	76.03336398720495
13	5.0	perception	403	diff_vonmises	-0.07791615897942615	-4.4642670653914704	1.5694531614440488	3.900419111534275	0.5395553612098418	4.599323981347749	0.5675206050718129	-0.35632093386272146	0.9238415389345344	89.03240385751707
14	5.0	wm	403	diff_vonmises	-0.14419248369352702	-8.261620753148042	0.5222768930982211	79.27614594610364	0.5028436770281894	79.25445051498775	0.29384798956136393	-0.1698780098646706	0.46372599942603454	126.60505127966562
15	6.0	ltm	403	diff_vonmises	-0.44871867043519725	-25.709686004658515	2.1391250166535243	0.873888546757897	1.241467178877887e-17	1.7771522468099135	0.18661233110669379	-0.27633231956560644	0.46294465067230023	93.70401518544705
16	6.0	perception	403	diff_vonmises	0.046206484800216635	2.6474365651878022	0.7723128294020543	156.60960721680664	0.753715786659355	157.5291281944244	0.2850074184954323	-0.32495728818662606	0.6099647066820584	100.31989873167075
17	6.0	wm	403	diff_vonmises	0.5301302255069708	30.374224513868008	0.0001296334782670244	5922.257071792003	5.05127440403321e-29	5923.018770251678	0.0009601540424455379	-0.24340838496857486	0.2443685390110204	171.60960575036972
18	7.0	ltm	403	diff_vonmises	0.025217426801526423	1.4448521259075506	1.1268782295507038	166.857174010352	1.107177424672599	168.36847419118948	0.06721912833498322	-0.3715547683229765	0.43877389665795974	77.02949758060717
19	7.0	perception	403	diff_vonmises	-0.3784527594539448	-21.683745861790804	1.0936688120852562	6.7931925566333655	0.51092500769956	8.02792127349161	0.44390450149097305	-0.4579245255678552	0.9018290270588283	99.16678146215145
20	7.0	wm	403	diff_vonmises	0.6868690422491349	39.35469719906846	17.396664319873732	0.46130607065014867	0.37078097738371857	0.6119345609421957	0.6252980658602821	-0.11822973013381659	0.7435277959940987	32.029473169377496
0	1.0	ltm	404	diff_vonmises	0.01539611874759807	0.8821326251196122	7.434614461235844	0.24871846271346332	0.056228877219504016	3.3486161566948036	-0.297649789945601	-0.5417345837412139	0.24408479379561288	47.66690991941593
1	1.0	perception	404	diff_vonmises	-0.1151716077806757	-6.5988470455687915	15.184811597305433	0.5827015021750842	0.10518723072055676	3.700659230614259	0.2453378393765152	-0.6244974172017079	0.8698352565782231	34.155449646128886
2	1.0	wm	404	diff_vonmises	-0.12743100701970822	-7.301258881331248	3.019417075576381	0.6510429242977166	0.11405601354015611	3.291056993978014	-0.15720595164713536	-0.5012251508359369	0.3440191991888015	71.14221617409433
3	2.0	ltm	404	diff_vonmises	-0.06640243915744254	-3.8045795130956916	11.450139470972184	0.3006887710793418	6.131709036099518e-48	2.027575345755693	0.07856845739555324	-0.32269863872277577	0.401267096118329	40.081732597720844
4	2.0	perception	404	diff_vonmises	-0.001651869533802675	-0.09464515259313616	7.503482906483388	1.3647231741156691	0.42233419535126243	3.22290470675488	0.7160579643735765	-0.5718205517297376	1.287878516103314	46.54411057071994
5	2.0	wm	404	diff_vonmises	0.21777866563491066	12.47779840887112	3.946915214725969	0.5123457831260021	0.08095934225606037	2.025820437642384	0.0419673661794191	-0.31439901703929163	0.3563663832187107	65.62421029508951
6	3.0	ltm	404	diff_vonmises	-0.36685335010661463	-21.019148661344186	12.548606008455149	0.29661814754428756	5.352043142123316e-18	1.5512027546663418	0.167967620195385	-0.2468815861376852	0.4148492063330702	38.26771364797287
7	3.0	perception	404	diff_vonmises	-0.05910361692759098	-3.386387803908933	4.014041801149553	2.5163316151471284	0.621982081371049	3.822947575930762	0.90711280636231	-0.5513646581289631	1.458477464491273	60.32346865260905
8	3.0	wm	404	diff_vonmises	0.14007012772424204	8.025427154457452	1.2788354208585384	48.26369577862989	1.2177188132686114	49.07513699644906	0.23050592289095206	-0.26506126989591916	0.4955671927868712	77.37717318655024
9	4.0	ltm	404	diff_vonmises	-0.3043802445624244	-17.439703380586742	0.8283837972358753	131.02589936161573	0.8075129546056277	133.34627575581365	-0.1857758429784937	-0.4558518799408482	0.2700760369623545	81.51719019013817
10	4.0	perception	404	diff_vonmises	-0.09306076020481846	-5.331988798015105	1.4190884207904515	10.502227036968756	0.8505726968923711	12.47253220567125	0.4914978548690181	-0.6096385648654319	1.10113641973445	81.31249731990036
11	4.0	wm	404	diff_vonmises	-0.1519679936618952	-8.70712465789744	0.6266754281523864	105.4718095157613	0.610362703737451	107.64263416682913	-0.25453766271296274	-0.3894934389051361	0.13495577619217336	86.03667400115131
12	5.0	ltm	404	diff_vonmises	-0.12793129718466914	-7.3299233963154125	1.9074549058383137	1.8468533934556302	0.4072717510513157	3.5347190264600132	0.1144119433912294	-0.4048664104386953	0.5192783538299247	80.02802926741168
13	5.0	perception	404	diff_vonmises	-0.08574647802621059	-4.91291129901312	1.0012884083955866	392.6714369849572	0.9866397386840179	394.546420661929	0.4527470626029242	-0.5779208993368385	1.0306679619397627	86.62092349243494
14	5.0	wm	404	diff_vonmises	-0.09260665366804068	-5.305970410008435	1.4198006107301049	1.2568894392002183	1.8889693001075357e-14	2.437329522307234	0.13872253090484798	-0.3571304885702978	0.49585301947514576	112.98832187126335
15	6.0	ltm	404	diff_vonmises	-0.3718896858357557	-21.307709442834913	0.8830228453139566	212.3952079282399	0.8681281971939132	214.12528204817042	0.05531769283608412	-0.40461631525181474	0.45993400808789886	87.00038228994384
16	6.0	perception	404	diff_vonmises	0.08469261829989404	4.85252958449637	1.5134609093000153	1.6209198053835325	1.6176503716190752e-12	3.5827094307398	0.13570828253775935	-0.5359937292600432	0.6717020117978025	110.00892428601261
17	6.0	wm	404	diff_vonmises	0.2182962181791461	12.507451985332068	1.019902146623782	1.1927784471727556	9.412361867588929e-23	3.03181860751665	-0.07047272574352709	-0.42893525635059626	0.3584625306070692	127.35275123090236
18	7.0	ltm	404	diff_vonmises	-0.283709449311208	-16.255354053512978	1.1062113537405247	234.01668609891746	1.0922533757464603	236.01437232467345	-0.10574196509878675	-0.43651697626786046	0.3307750111690737	72.70400480679059
19	7.0	perception	404	diff_vonmises	-0.25876243488552325	-14.825995415469261	0.42279532639292405	200.8483270953932	0.40858946159012244	203.1358594465141	-0.0004577927190823061	-0.577707193644315	0.5772494009252327	125.78973456977309
20	7.0	wm	404	diff_vonmises	0.702017346504447	40.22263109967791	8.426012734632133	0.38931774910037104	0.14360535251072998	2.2632376329624346	0.03002908818173111	-0.3784619594237677	0.4084910476054988	44.796171605163664
0	1.0	ltm	405	diff_vonmises	0.1033182886980498	5.919701888912447	3.3536319366360177	0.4985259025275835	2.623443968406458e-34	3.995042163104883	-0.2881064592768348	-0.6354057852062786	0.34729932592944374	74.94035712424329
1	1.0	perception	405	diff_vonmises	-0.07986055614824936	-4.575672816862226	7.665261963430647	1.0559411806086014	0.2040190913019274	4.400314250267645	0.29580861343076736	-0.7431420870377349	1.0389507004685021	46.66946822796763
2	1.0	wm	405	diff_vonmises	-0.07952433525824089	-4.556408778880608	2.3999041271297266	1.0234271656039045	0.1516112317426739	4.125446051460196	-0.1709242169414803	-0.6010073559298932	0.4300831389884129	77.09073519433196
3	2.0	ltm	405	diff_vonmises	-0.08409854675492323	-4.818491792240726	1.325687812028757	0.8722120821723962	1.4709692243964138e-28	3.044149727550073	-0.13375634431187017	-0.4597453492037986	0.32598900489192845	116.15278567689779
4	2.0	perception	405	diff_vonmises	-0.01405955021592548	-0.8055528892247752	6.292234545047372	1.3703839572650842	0.26020563774282696	3.3076615286396347	0.6702650405484426	-0.5445458971268295	1.214810937675272	51.56973429624921
5	2.0	wm	405	diff_vonmises	0.3586302275505244	20.54799844446139	3.549722897904943	0.6265488323270971	9.382657989400708e-21	2.285645386803368	0.0872636825940154	-0.3633993213255367	0.4506630039195521	72.78092023233435
6	3.0	ltm	405	diff_vonmises	-0.20589911364272698	-11.797150217212765	1.9423302671108005	0.8477580134334687	5.7915218104575854e-15	2.2771203276024425	0.06724997901815016	-0.35358306207818124	0.4208330410963314	98.30774315459574
7	3.0	perception	405	diff_vonmises	-0.11023114041221634	-6.315779116533966	2.543785595555864	3.121442212471258	0.42205375100049813	4.447503416149697	0.8254216508187433	-0.5362827692434826	1.361704420062226	75.58120615179442
8	3.0	wm	405	diff_vonmises	0.04410661788422441	2.5271230533622955	0.7851152879259314	134.60850124833107	0.7667172030833308	135.21859360240563	0.2915230073931312	-0.2594722479083451	0.5509952553014763	101.0346319392263
9	4.0	ltm	405	diff_vonmises	-0.14203565881650884	-8.138043790546078	4.891533436433989	0.4834486873597068	0.06111209684820787	2.983586587246495	-0.08997315130371814	-0.47231647819380385	0.3823433268900857	59.13078848985489
10	4.0	perception	405	diff_vonmises	-0.11955229366335286	-6.849841858018735	1.3791106339612507	6.891405348286257	0.5787332583840468	8.85907642002669	0.520529757475809	-0.6198464714202222	1.1403762288960313	88.74787131771473
11	4.0	wm	405	diff_vonmises	-0.4766950579034114	-27.31261493260987	0.801414977896194	201.82982629949345	0.7878348753685023	204.11659275188705	-0.16563154540050817	-0.4521646827493697	0.28653313734886154	83.66980754191215
12	5.0	ltm	405	diff_vonmises	-0.36686947086037636	-21.020072312497305	0.6458636771149878	60.36482763376504	0.6025036460684862	61.8145736373302	0.11079228399940533	-0.3828860265265117	0.49367831052591704	106.08285416497957
13	5.0	perception	405	diff_vonmises	-0.08663258597779899	-4.963681544832118	2.16871325855356	2.9972917179150755	0.3139057423970838	4.559071461040179	0.6543696622155876	-0.5476506137485438	1.2020202759641314	82.29925141209611
14	5.0	wm	405	diff_vonmises	-0.3118054580775626	-17.86513677698766	0.43251678463821697	209.17807488565302	0.42203239883435395	210.24683547286438	0.15640575899617204	-0.36982264990160374	0.5262284088977758	128.59390239214667
15	6.0	ltm	405	diff_vonmises	-0.3675959493313569	-21.06169646279161	0.5987370053099798	117.18061095008242	0.5793225122463336	118.89362795437876	-0.01808889551253756	-0.3838177268164298	0.3657288313038922	104.59588590447628
16	6.0	perception	405	diff_vonmises	0.18070099318318986	10.353404263219037	0.16510871482738024	151.58031896664414	0.14943897613339469	153.15920989133355	0.1150400003509695	-0.561390939684582	0.6764309400355515	160.39299561444068
17	6.0	wm	405	diff_vonmises	0.3396305047852879	19.459394518094705	0.00036158119022732064	2395.927373574594	8.720248726588399e-26	2397.6030986236524	-0.12881242439772222	-0.40456250113686565	0.2757500767391434	176.36746848214892
18	7.0	ltm	405	diff_vonmises	-0.48616856200811415	-27.8554067350092	1.6584719848366998	1.0715114801674384	1.8211741729360713e-15	2.6761142388955528	0.06741379204223341	-0.4080267336243613	0.4754405256665947	105.11408393050147
19	7.0	perception	405	diff_vonmises	-0.19604807053380924	-11.232727023270346	0.5163903638564004	328.58449643046424	0.5043391832843749	330.68404984074266	0.22152255223757322	-0.6320963670671311	0.8536189193047043	118.77714868779543
20	7.0	wm	405	diff_vonmises	0.2552692717411495	14.625851910145997	0.9805163965588866	73.75517903528078	0.9346645697917172	75.31065573381112	0.12959434345294696	-0.39286602786715186	0.5224603713200988	84.89015000111684
0	1.0	ltm	406	diff_vonmises	-0.5480030074329479	-31.398259486384198	0.7592081309418124	0.9094361532630468	1.9103098065816015e-15	3.0303020509770087	-0.21323146767044193	-0.4233463547845967	0.21011488711415477	135.8985554747497
1	1.0	perception	406	diff_vonmises	-0.07358431039636883	-4.2160704240925595	12.017067579719782	0.794767561090056	2.1613926752260494e-17	3.1723395140745136	0.5822528701937351	-0.5048935147910294	1.0871463849847645	39.1169159165444
2	1.0	wm	406	diff_vonmises	-0.11952890064822225	-6.848501536981664	5.813814227081286	0.37051803778040293	0.0792152046752441	2.4692988847166797	-0.0767239695402317	-0.3958944461730045	0.3191704766327728	53.976941229284904
3	2.0	ltm	406	diff_vonmises	-0.11860558145612737	-6.7955992441312	3.946192752680171	0.40247589971299563	0.023976929153985537	1.5283130145397446	0.058052142907253496	-0.239679582261642	0.29773172516889546	67.7261938468753
4	2.0	perception	406	diff_vonmises	0.005196762796884617	0.29775257539209005	6.5613854012046575	1.649375964101267	0.43137921188481615	2.7643504655325097	1.0038017734719702	-0.4671174630977187	1.4709192365696888	50.154764569629265
5	2.0	wm	406	diff_vonmises	0.03479965536455091	1.9938733808985614	2.3780177277250316	0.8398268414191397	0.19785131764100658	2.163217738886227	0.06503828351619972	-0.30002012462867383	0.36505840814487356	78.85006288581275
6	3.0	ltm	406	diff_vonmises	-0.15178633648595313	-8.696716468397693	1.312591014265368	162.50782045766718	1.297923060536702	163.39210785701653	0.08173697016479764	-0.2399403039737713	0.32167727413856895	72.32843482452031
7	3.0	perception	406	diff_vonmises	-0.023524192392108168	-1.3478369405215582	3.604990773293351	3.062398280850784	0.7880697080274028	3.6511682453525163	1.123273917809886	-0.4614954153661155	1.5847693331760015	62.81701340611727
8	3.0	wm	406	diff_vonmises	0.04110459054385957	2.3551195567765064	1.138753804972833	160.11383074319	1.1218323823766438	160.8884738564976	0.22287534861799685	-0.25126000187865216	0.474135350496649	81.58208413514117
9	4.0	ltm	406	diff_vonmises	-0.4490004772698297	-25.725832346920896	3.28241745238205	0.5463784360026995	0.14284638280098905	2.4225468845557447	-0.0659737844221836	-0.36969443984642025	0.30372065542423665	68.26900033004883
10	4.0	perception	406	diff_vonmises	-0.06975256667406318	-3.9965276806286982	2.4601037348693944	2.7601387634294574	0.2456499691903001	4.0141140961789965	0.8068217467243728	-0.519297822155271	1.3261195688796437	80.24872300479007
11	4.0	wm	406	diff_vonmises	-0.20167700679692946	-11.555241314295275	0.6861461352812955	193.54239967127026	0.6733287909762846	195.60376202774208	-0.10376511749439032	-0.4190149007625905	0.3152497832682002	93.38119822147907
12	5.0	ltm	406	diff_vonmises	-0.013253694917705847	-0.759380781738534	1.0879137571347524	35.00668419594556	1.0199084322260485	35.69893569349676	0.20884259059907428	-0.22762179216539602	0.4364643827644703	84.80195261688797
13	5.0	perception	406	diff_vonmises	-0.1031395158635608	-5.909458960004636	1.0855490814123927	85.38159182352042	1.0281455737627339	85.91884154465428	0.7356310173370098	-0.3850803045423321	1.1207113218793419	89.12410214219582
14	5.0	wm	406	diff_vonmises	0.12428388713486758	7.120942194308181	0.4189037657398034	58.25410251204762	0.3881915502916629	59.01977756625415	0.15539156615645489	-0.2984384077338671	0.453829973890322	132.4544423288723
15	6.0	ltm	406	diff_vonmises	-0.46275926253233945	-26.514152673689498	0.678947341134019	104.7795873401093	0.6667262874811768	105.24095765245806	0.1153548597132783	-0.15787420547069075	0.27322906518396906	106.16880789548091
16	6.0	perception	406	diff_vonmises	-0.0014046819505405966	-0.08048234732418043	0.2748349538581716	142.98816005211953	0.2612946928957633	143.42443776265063	0.254507867247284	-0.3148266126468471	0.5693344798941311	149.24299384115636
17	6.0	wm	406	diff_vonmises	0.10027661884325391	5.745427043560472	0.0750450999331598	16.48696621282611	7.812057303580222e-10	17.08056591668782	0.10603963400113647	-0.28760581431144816	0.39364544831258463	175.33672171850685
18	7.0	ltm	406	diff_vonmises	-0.17294169015759056	-9.908828947889107	1.0771125322327153	87.59351433170572	1.0552423662013135	88.56677526863491	0.017334957901461223	-0.22912366602185763	0.24645862392331885	77.86025586264955
19	7.0	perception	406	diff_vonmises	-0.08090075013929282	-4.635271542423886	0.7210145815515915	129.83345770772823	0.6959212150291267	131.01053113533558	0.2871354232018888	-0.3913663182254403	0.6785017414273291	103.28507043824915
20	7.0	wm	406	diff_vonmises	0.23242982307705304	13.317247895287565	0.7729590451455901	113.86487968667718	0.7586453417345582	114.99904535482709	-0.024222749452675885	-0.24286010484000364	0.21863735538732776	90.16641551682108
0	1.0	ltm	407	diff_vonmises	-0.006960752741597656	-0.3988217543276626	0.0004849394564836461	2412.467211289427	4.4635076268562715e-30	2414.3071311374747	-0.10661882834199332	-0.47900070669277284	0.3723818783507795	179.97045295557137
1	1.0	perception	407	diff_vonmises	-0.06218360693018677	-3.562858232000159	10.23249150470637	0.8747012514151933	0.059263000529941434	2.919322369605675	0.6090697852701518	-0.47300545634841157	1.0820752416185633	41.99426446077638
2	1.0	wm	407	diff_vonmises	0.024445427284249588	1.4006198117814512	2.4530029533310787	0.7889028827764638	0.07946274562709829	2.4389942413107972	0.040139665501349175	-0.36087498116529987	0.40101464666664904	82.2276571942389
3	2.0	ltm	407	diff_vonmises	0.10915095207029146	6.253888883462436	3.0423939539443965	0.3648011861018575	1.9759699909338652e-22	1.230386904140309	0.04501660531814297	-0.19527367553173103	0.240290280849874	78.76726027600319
4	2.0	perception	407	diff_vonmises	0.00588648959823113	0.3372710101263034	6.127027379023123	1.4702646168921336	0.4313772292638134	2.0489406662969882	0.9400485050402355	-0.33575139157418243	1.275799896614418	52.14917997531302
5	2.0	wm	407	diff_vonmises	0.20683843550212871	11.850969395360865	2.499125065590093	0.915063269999574	0.36061357870562466	1.52834800963166	0.2013963007287095	-0.19273089044937783	0.39412719117808737	76.04860826002334
6	3.0	ltm	407	diff_vonmises	-0.2277914675272246	-13.051489698401312	1.3370766334615674	68.01155146274178	1.3162147647520461	68.45242365756131	0.08017645758296865	-0.13187578988421045	0.2120522474671791	73.50644921160938
7	3.0	perception	407	diff_vonmises	-0.04679788075859211	-2.6813210576238116	4.864837820143065	1.6247420549992881	0.18908696712796635	1.762203901067799	1.0524801650386408	-0.26726306382389314	1.319743228862534	60.23455423827528
8	3.0	wm	407	diff_vonmises	0.0662709277068429	3.7970444620186887	1.0030009943594065	59.051386283939294	0.9750823332721478	59.13605698004959	0.28362620716908893	-0.12633180459397142	0.40995801176306035	93.4665493328882
9	4.0	ltm	407	diff_vonmises	-0.26062276261039513	-14.932584342615595	4.28886866872389	0.43583247359295885	3.390827145739112e-29	1.4147696566543304	0.12286931339650656	-0.2251020657037417	0.3479713791002482	66.05050060988705
10	4.0	perception	407	diff_vonmises	-0.0468217541214589	-2.6826889005588628	3.0120582656983164	2.118018796120539	0.06904718503364338	2.8626786800366	0.9027253893450375	-0.42544541335340424	1.3281708026984418	77.29364055281584
11	4.0	wm	407	diff_vonmises	-0.2318121987208458	-13.281860626352405	0.805087900231892	171.6021618234429	0.7927700643946821	172.5954195891567	0.10343125776559958	-0.26048671479678376	0.36391797256238334	94.03613762852937
12	5.0	ltm	407	diff_vonmises	-0.09689667828029232	-5.551770714297701	0.9161982415607626	114.99117971359634	0.9003326834819432	115.71439598451593	0.11386339282522329	-0.201937765687207	0.3158011585124303	89.2530981530243
13	5.0	perception	407	diff_vonmises	-0.0459471672194831	-2.6325787622582277	0.97083321691977	169.70509123183535	0.9447551005290588	170.26719358808464	0.6537536034212295	-0.3720896241229532	1.0258432275441827	93.28227957997484
14	5.0	wm	407	diff_vonmises	0.028941151048526112	1.6582058093311633	0.3757960786007677	86.0808940214469	0.35568552812599175	86.59161039331886	0.20268000343803294	-0.27333790129270774	0.4760179047307407	138.01702265795268
15	6.0	ltm	407	diff_vonmises	-0.4975049460293581	-28.50493369436602	0.542762416009048	148.08083643321848	0.5289904761003863	148.8365879809166	0.19254547366045927	-0.2889475840723943	0.48149305773285356	118.40055650155962
16	6.0	perception	407	diff_vonmises	0.04630331672640947	2.652984625880774	0.63370452868378	211.05510008979488	0.6191296237097729	211.57259202265476	0.4442827573594954	-0.3492028182528024	0.7934855756122978	114.25111017139675
17	6.0	wm	407	diff_vonmises	0.08641759105446088	4.951363243108106	0.3013246960710327	5.507493954064298	4.487054342224802e-12	6.165959521879949	0.17699435551026443	-0.3473158278391264	0.5243101833493908	162.70692090679302
18	7.0	ltm	407	diff_vonmises	-0.029761282790006133	-1.705195896762683	0.8832081553222243	110.44325364445987	0.8644562892808719	111.64945926674245	0.013774767970041069	-0.27351376584235965	0.2872885338124007	86.09075083946792
19	7.0	perception	407	diff_vonmises	-0.08702957586005214	-4.98642738959462	1.5520267607853013	2.0525392606065016	5.339738386459656e-13	3.118814330159835	0.41126756885895593	-0.45565155983370087	0.8669191286926567	108.843043774956
20	7.0	wm	407	diff_vonmises	-0.000721561355531655	-0.04134242033170251	0.5609385707180468	2.6705706801836278	0.05235318064793905	3.528336795950873	0.09815294006408071	-0.30800228225701887	0.4061552223210996	145.31804791531277
0	1.0	ltm	408	diff_vonmises	0.09874302401645663	5.657558532501891	1.1907042945591553	1.1332485219941903	9.041036728015251e-18	3.7017586205675377	-0.16145303017407875	-0.5496233233790928	0.38817029320501406	120.96964887411428
1	1.0	perception	408	diff_vonmises	-0.03511098419762864	-2.0117112090746483	11.86450616471913	0.8183856471824459	0.049825634956565154	3.525157094173737	0.5229130120396973	-0.5719436304757003	1.0948566425153976	39.007262738885544
2	1.0	wm	408	diff_vonmises	-0.011943709431462946	-0.6843241421534227	2.9001066748801643	0.6066573835350425	9.788119259293676e-16	3.073930978944148	-0.0995317162136814	-0.4880516210106729	0.3885199047969915	80.71642168897964
3	2.0	ltm	408	diff_vonmises	0.09402563440626126	5.387272017518832	2.891743353642945	0.4580407443689687	1.1577524596477534e-22	1.7607373161678177	0.013509073988814124	-0.27932580925001094	0.29283488323882506	80.83255287385722
4	2.0	perception	408	diff_vonmises	-0.01386396738593185	-0.7943468185209156	6.692478115397576	1.3668940338824354	0.28501785042075833	2.445383529209877	0.8750160189646764	-0.4035751699853739	1.2785911889500503	50.501134872304874
5	2.0	wm	408	diff_vonmises	0.0007957707768795656	0.045594306975045816	2.622297493801458	1.3362520820928456	0.49833310848401285	2.485882716154159	0.19727088484847244	-0.3147645438979816	0.512035428746454	70.5723121321094
6	3.0	ltm	408	diff_vonmises	-0.2454970489195001	-14.065944786004064	1.1135213845515335	27.436454449721417	1.0439904438363115	28.177968160765495	0.0984874322418623	-0.2014834619881416	0.2999708942300039	81.01579151938364
7	3.0	perception	408	diff_vonmises	-0.04782513536225039	-2.7401784108988148	3.846067365434287	2.2362282751938904	0.3704427113062689	2.6528679694760795	1.0916661669220007	-0.3723103121382928	1.4639764790602934	65.25489190490009
8	3.0	wm	408	diff_vonmises	-0.08106961736399282	-4.644946921697283	3.198337256438926	0.8524880385899732	0.06491836422944455	1.4228408306654787	0.3375624599322675	-0.21422411620818518	0.5517865761404527	74.82791922893756
9	4.0	ltm	408	diff_vonmises	-0.1605061574797891	-9.196325409454065	2.121234039655648	0.7076835264045992	4.3562596794316774e-17	2.1414257714895504	0.03744336713731744	-0.335381952911851	0.37282532004916846	94.29234796173971
10	4.0	perception	408	diff_vonmises	-0.07689155777229068	-4.405561740538598	2.795688963634109	2.574324212320464	0.12952132746820832	3.6771468742404836	0.9557478712730995	-0.5218191355984352	1.4775670068715345	78.5425795233626
11	4.0	wm	408	diff_vonmises	-0.17764291650451006	-10.178189376103301	0.6742626859911811	204.27932327734	0.6626521149979898	205.68501985626577	0.061323250897196147	-0.3429646043674346	0.40428785526463074	100.91229802531691
12	5.0	ltm	408	diff_vonmises	0.0452713125276845	2.593855140854053	0.6861293974428877	124.7110662727249	0.6698557150706662	125.80845365331473	0.08042244226020046	-0.28187477165416297	0.3622972139143634	101.42132843091125
13	5.0	perception	408	diff_vonmises	-0.02027151466495994	-1.1614722346397595	0.9182423840013585	221.3893054765283	0.8954161546466539	222.43050590427308	0.6270290717512523	-0.4708728750288742	1.0979019467801265	94.08556219439319
14	5.0	wm	408	diff_vonmises	-0.04837447641949787	-2.77165333499235	0.3841472785413101	64.46055895679409	0.35326679263801913	65.65678723483933	0.0997893876116116	-0.3799060935861407	0.4796954811977523	134.89911819153684
15	6.0	ltm	408	diff_vonmises	-0.46640933869095247	-26.72328663247935	0.5450236442151849	174.38912262590244	0.5310412794505481	175.72970248704078	0.11966533901905052	-0.3829157097109075	0.502581048729958	115.03755147116416
16	6.0	perception	408	diff_vonmises	0.054499481925237576	3.1225902999656276	0.6037758921680219	221.7940906075761	0.5875530067262241	222.76778745962184	0.42444991913350805	-0.45112262256596836	0.8755725416994764	115.04118168321597
17	6.0	wm	408	diff_vonmises	0.012998649601663649	0.7447677615447358	0.41580839323185037	5.195946730979753	0.036311149984759136	6.420737353096211	0.1415321951078572	-0.46233351340885265	0.6038657085167098	154.16594589755877
18	7.0	ltm	408	diff_vonmises	-0.20778964937713618	-11.905469935813079	0.8363959885689439	114.18544186438952	0.817830019922007	115.50929061496392	-0.0017603745357064327	-0.2935225377104196	0.29176216317471315	87.88731326504468
19	7.0	perception	408	diff_vonmises	0.012562754866633764	0.7197928329155501	0.4767655451401807	249.75991459917824	0.46352058143599445	251.1924827799903	0.27152038566371317	-0.5188654597780449	0.790385845441758	125.0275828921041
20	7.0	wm	408	diff_vonmises	0.21709075174363632	12.438383846232679	0.6395378850329095	125.20766297424264	0.6237522265499452	126.41711899743264	0.04850104244632547	-0.2967538411612143	0.34525488360753975	103.82765852852864
0	1.0	ltm	409	diff_vonmises	0.023471880572841722	1.3448396940589398	4.93086124891792	0.34269945007660385	2.2809125413032808e-17	3.784494772025983	-0.3073791709201155	-0.602305671276867	0.29492650035675144	61.49955517712098
1	1.0	perception	409	diff_vonmises	-0.05565536424905396	-3.18881747873408	9.590137925641915	0.7959586155386636	0.07470005255921922	4.269626406430542	0.23861361309714724	-0.6968397724941853	0.9354533855913325	42.95862641784487
2	1.0	wm	409	diff_vonmises	-0.07702592342887603	-4.413260325572443	3.2346070666280307	0.6920196986075448	0.08332323888648281	3.950933678388662	-0.20930850487278158	-0.6092697290637102	0.39996122419092867	70.18878901443296
3	2.0	ltm	409	diff_vonmises	0.02355325636153933	1.3495021833058611	1.9597888723058627	0.5645354452944661	8.769385634374011e-24	2.2865943458863023	-0.07625422359648654	-0.3582123066459425	0.28195808304945597	97.95933771808419
4	2.0	perception	409	diff_vonmises	0.004087684498283192	0.2342070697326783	6.654847708925036	1.4897978077406346	0.36555558146855927	3.1550437119426804	0.8018834927590714	-0.5347394960467039	1.3366229888057752	49.740388348722234
5	2.0	wm	409	diff_vonmises	0.15661812727207947	8.97355768793293	2.903302094857379	0.8564182774762066	0.20018201002172434	2.4159008957472183	0.08546305059605885	-0.35077677087581105	0.4362398214718699	72.2955537635055
6	3.0	ltm	409	diff_vonmises	-0.23147179265882978	-13.262356795678219	1.4138614648619212	2.347979226560231	0.6141818166667373	3.5114368491043995	0.039416914078551635	-0.2721007880465831	0.31151770212513474	81.96717198189687
7	3.0	perception	409	diff_vonmises	-0.05666118434762701	-3.246446725331748	3.964771321947966	2.2492924256352116	0.4304940846829747	3.2394043953388683	0.9635396200773062	-0.4661901529730426	1.4297297730503489	62.99952910136096
8	3.0	wm	409	diff_vonmises	0.060432838979658295	3.4625466175281083	1.377519846347324	3.5252693340260763	0.6824664800458745	4.297992358741824	0.24179614063867594	-0.2558312089990509	0.4976273496377268	86.64762919293662
9	4.0	ltm	409	diff_vonmises	-0.2897442895151989	-16.601124927237528	0.5808653868201491	111.60209991525106	0.559615875329751	113.94820257963758	-0.15769678463377446	-0.4642527459607084	0.30655596132693397	100.38910661803675
10	4.0	perception	409	diff_vonmises	-0.051666413475002865	-2.96026743469551	2.1809720681927818	3.1602902581156433	0.34793454284208963	4.802941432616366	0.6671201068255779	-0.5676265532905127	1.2347466601160906	81.22124439528938
11	4.0	wm	409	diff_vonmises	-0.11668938747769098	-6.685809416438412	0.5878287583974489	160.99735231068286	0.5730646164481292	163.3668922126858	-0.16819833719059574	-0.4643407281901162	0.29614239099952044	98.87041354356627
12	5.0	ltm	409	diff_vonmises	-0.12227800725998507	-7.006013743267184	0.7432226660068351	101.0898479684583	0.7163254515747015	102.58009682653297	0.09010952511600223	-0.36892956484165396	0.4590390899576562	97.05777984212753
13	5.0	perception	409	diff_vonmises	-0.0790270154174083	-4.527914450932783	1.0090157018206651	346.4216951361351	0.992295156648441	347.92264879930184	0.5849088560397888	-0.5431289857537465	1.1280378417935353	88.03585517860543
14	5.0	wm	409	diff_vonmises	-0.05426547441452681	-3.1091826572275383	0.4000976854768781	143.47937332787305	0.3848837969228592	144.7247281727609	0.11904625299954574	-0.39936702826619985	0.5184132812657456	132.25472516116434
15	6.0	ltm	409	diff_vonmises	-0.4556033230265414	-26.104147541556337	0.6899509940396857	210.71755810054643	0.6783076328843314	212.14512213008163	0.0669547217435067	-0.3488527736838627	0.4158074954273694	99.83037741436027
16	6.0	perception	409	diff_vonmises	0.06985105593143451	4.002170699403453	0.40187574543942944	181.852278604401	0.38520704279814605	183.28325615660157	0.23262539182692166	-0.5230555445192309	0.7556809363461525	133.195243823029
17	6.0	wm	409	diff_vonmises	0.12754293053010696	7.3076716261053845	0.7110485022093073	2.2416253062839457	8.464791769102689e-19	3.795956026389984	0.038442681545478585	-0.44914486833629397	0.48758754988177255	141.32890789848852
18	7.0	ltm	409	diff_vonmises	-0.5446310591628412	-31.20506108177064	3.2709368946589623	0.41899239392506815	4.3500425725770117e-17	2.0988238700448005	-0.04585827131709708	-0.3336226828816133	0.2877644115645162	75.8569481542815
19	7.0	perception	409	diff_vonmises	-0.06424107432256496	-3.680742430069216	0.5005338256001458	254.8163181628185	0.48698399584280055	256.82492056356233	0.15396042484197636	-0.5768165957601106	0.7307770206020869	119.80869524989302
20	7.0	wm	409	diff_vonmises	0.2672708056087882	15.313489148445013	0.7459472101405444	149.2442917595921	0.7287494568052866	151.07663187235926	-0.04162225236446204	-0.3914304416352756	0.3498081892708136	91.88526305250818
0	1.0	ltm	410	diff_vonmises	0.0625486823076383	3.583775510332277	3.8211804093879436	0.5323841287673886	1.1602920269740996e-24	4.049730093458368	-0.24537022049633034	-0.6443430469498059	0.3989728264534756	70.09256347772197
1	1.0	perception	410	diff_vonmises	-0.06188343524069553	-3.5456596610629996	7.904606141326563	0.8841864359356121	0.10141696237578031	4.321215499321339	0.21559396837174627	-0.7059016990495363	0.9214956674212825	46.88934575066543
2	1.0	wm	410	diff_vonmises	-0.06978431750018994	-3.998346868961815	2.3191615683637603	1.1943361024928802	0.17389317013044442	4.481063273475391	-0.16890901067046327	-0.643101734064723	0.4741927233942598	77.39230980262346
3	2.0	ltm	410	diff_vonmises	0.08084529184813671	4.632094016401632	1.8246712565497105	0.6486090200560225	5.997622172930906e-18	2.5198311185324496	-0.08455678121697296	-0.3928116997156346	0.30825491849866166	101.26496904257525
4	2.0	perception	410	diff_vonmises	0.01725981524409256	0.9889145686620645	5.481610909416662	1.5711395051521233	0.372050009859392	3.195318570819697	0.7177041289321405	-0.5192571665553231	1.2369612954874636	54.209348971567465
5	2.0	wm	410	diff_vonmises	0.2876600061676181	16.481704288111747	2.9150113369150312	0.8373480023671778	0.13893079406893175	2.2808066361770027	0.12434172186765868	-0.33503395119226975	0.45937567305992844	74.38854079731385
6	3.0	ltm	410	diff_vonmises	-0.1942182178643904	-11.127884188181898	1.650207686880532	1.3281781755931255	0.29832432486502297	2.6940471563717643	0.04447949182138	-0.3121682450899668	0.3566477369113468	87.21620778851978
7	3.0	perception	410	diff_vonmises	-0.07334466464313424	-4.202339733853984	3.6338234012950177	2.1208973582378414	0.2284588337497047	3.3417369543389155	0.8871242958210344	-0.484976963971289	1.3721012597923234	67.68594862340504
8	3.0	wm	410	diff_vonmises	0.1362807678629466	7.808312827348944	0.6858253557476025	85.38594404505145	0.6581653108909741	86.05056766678383	0.26567820820635646	-0.2767590136011995	0.5424372218075559	108.02335768014356
9	4.0	ltm	410	diff_vonmises	-0.23526900916287713	-13.479921275257553	2.298572228459847	0.713777724039281	1.6937587193826394e-16	3.129383909749362	-0.09779978365128478	-0.49402144317474844	0.39622165952346367	90.65598269383348
10	4.0	perception	410	diff_vonmises	-0.04018838592151338	-2.3026248987456923	1.4417544629086296	6.315545643713454	0.5479274902006246	8.117194275368597	0.5950317642541112	-0.609357012936106	1.2043887771902173	88.96399692033924
11	4.0	wm	410	diff_vonmises	-0.25019523404922467	-14.335130965308403	0.6529757656449883	204.52156367161993	0.6397579918418956	206.89156175577384	-0.13357753389815485	-0.4766486659488045	0.34307113205064965	95.228520034411
12	5.0	ltm	410	diff_vonmises	-0.28133080705533614	-16.119067891280043	0.6845516013411145	147.6983438773169	0.6661935242289135	149.08078784935907	0.1316845273564411	-0.3695566185983221	0.5012411459547632	102.41590140201596
13	5.0	perception	410	diff_vonmises	-0.07882190880436189	-4.516162707655002	1.0064950567972293	273.1395378996777	0.9852767530888586	274.5605847080788	0.6150316831868565	-0.537136397119351	1.1521680803062075	88.61860850175552
14	5.0	wm	410	diff_vonmises	-0.1347825862811109	-7.722473345765524	0.35731864054412127	221.33449834722504	0.34739923217966623	222.3612819563744	0.17385290459078107	-0.3915841271928784	0.5654370317836594	137.9488755388261
15	6.0	ltm	410	diff_vonmises	-0.46926653034737065	-26.886991655652103	0.6451913363071031	219.89654260846729	0.6339720180460776	221.37975636195017	0.0651170302861459	-0.3655579354988845	0.4306749657850304	103.31962220231675
16	6.0	perception	410	diff_vonmises	0.043669788530715514	2.5020945750388073	0.4248605743693998	238.85313473858994	0.41186539837629277	240.30339785169815	0.23750058452945666	-0.5216957818488837	0.7591963663783403	130.40268058101523
17	6.0	wm	410	diff_vonmises	0.15689624204423824	8.98949249059787	0.611033237181783	2.3483702163554794	3.099751573349292e-26	3.877128232613053	0.011466331785296657	-0.4318860296996424	0.44335236148493906	146.0843865893197
18	7.0	ltm	410	diff_vonmises	-0.5018654726815458	-28.754773467990688	1.9614781522767264	0.7428594628914668	4.744816257064619e-20	2.6086081611400567	-0.036431781163078325	-0.40768015887649445	0.3712483777134161	97.5087209273348
19	7.0	perception	410	diff_vonmises	-0.09154595149051524	-5.245196651915891	0.5346899588544435	298.39712649230745	0.5204804988031441	300.5907355719355	0.24603417518822823	-0.6607571220884303	0.9067912972766585	117.12617005887832
20	7.0	wm	410	diff_vonmises	0.2283928320388997	13.085945346869241	0.8449138306791503	104.91394843291346	0.8145508748617392	106.78731679205416	0.03407211615193262	-0.42840175835853067	0.4624738745104633	88.82486884637021
0	1.0	ltm	411	diff_vonmises	-0.4048343850721294	-23.19530166640699	1.1166339660146292	1.0224565056412092	3.4543955244441235e-14	1.9314106825771598	0.06441694942383425	-0.267543279488573	0.33196022891240723	122.8163006146889
1	1.0	perception	411	diff_vonmises	-0.0845891476823151	-4.846601154805485	12.283967034295028	0.8390297920980384	2.713927739388994e-20	1.9415335545821635	0.8516976138286506	-0.3090046623656958	1.1607022761943464	38.684567778655946
2	1.0	wm	411	diff_vonmises	-0.14148763139470807	-8.106644132219458	5.188687435432901	0.3651327880624214	1.6414151737393417e-16	1.1385350164086434	0.14171791559245586	-0.18119342338591285	0.3229113389783687	59.91169718906718
3	2.0	ltm	411	diff_vonmises	-0.04115025796641058	-2.35773610734992	2.225044726542246	1.067071718060021	0.7572443914183488	1.4401026990248913	0.16139014786874428	-0.13636386595735872	0.297754013826103	73.01916454044118
4	2.0	perception	411	diff_vonmises	0.015578375385223163	0.8925751612437752	5.390790159130576	1.7221168989469633	0.6522850322086392	1.712237841939561	1.0825463540386555	-0.26306915684965376	1.3456155108883092	54.84850646048474
5	2.0	wm	411	diff_vonmises	0.07098624881493998	4.067212460561603	1.6482094067995978	1.930685340837503	0.8007262054882484	2.2533059845302668	0.20103484050122733	-0.13951206917841047	0.3405469096796378	81.28564845338263
6	3.0	ltm	411	diff_vonmises	-0.1695843143960899	-9.716465486515599	1.9047750336753342	169.96057812788683	1.8931539219538411	170.29549413318233	0.14838219799769092	-0.14398090864282054	0.29236310664051146	62.96267907066863
7	3.0	perception	411	diff_vonmises	-0.012173841555148158	-0.697509741570968	4.538047936549958	2.1115616401611774	0.48582065713114075	2.052438660070544	1.2372994858391997	-0.2947972730978429	1.5320967589370427	60.32869918013722
8	3.0	wm	411	diff_vonmises	0.097029093774273	5.559357563244935	0.9691706174130462	87.39872534866164	0.9501649149321431	87.51777762452843	0.2756536928577802	-0.13218696679123987	0.40784065964902005	94.42663147483196
9	4.0	ltm	411	diff_vonmises	-0.3630015423555475	-20.798456333712263	10.145828493543554	0.35003652283656883	7.38597586336497e-41	1.0126964560318004	0.277853328175554	-0.16117564615303315	0.4390289743285872	42.608397533569075
10	4.0	perception	411	diff_vonmises	-0.05562528988452071	-3.187094344574787	2.6069528437981595	2.6290783938460254	0.12405493147636909	3.172068291141751	1.0185960588317777	-0.44244578469272783	1.4610418435245056	81.78846350791002
11	4.0	wm	411	diff_vonmises	-0.27734693657666604	-15.890808926725484	0.9237828872276745	174.15136606497614	0.9104429340109764	174.90055299565117	0.19880630804996713	-0.23941300835834767	0.4382193164083148	90.6787171318213
12	5.0	ltm	411	diff_vonmises	0.02313800180582353	1.3257098498397657	1.3946636437898419	80.4208878670853	1.3737960475527418	80.54281041276543	0.25032588114321896	-0.1117127536027347	0.36203863474595366	78.34101910174874
13	5.0	perception	411	diff_vonmises	-0.06575801259586718	-3.767656590911296	0.9810303265376641	171.85290485466174	0.9600152295126771	171.57868045164264	0.7764462081985286	-0.24701691710836293	1.0234631253068915	96.99847902781958
14	5.0	wm	411	diff_vonmises	0.23629081514425865	13.538466445471936	0.38759197019002073	102.23357924440622	0.3724902642175209	102.31324438481064	0.26418136705849093	-0.20082576930050244	0.4650071363589934	137.81552218809625
15	6.0	ltm	411	diff_vonmises	-0.5046046869567373	-28.91171888514115	0.6013069394579784	79.99439346932479	0.5857842260408448	80.02869729251222	0.22585493974979798	-0.13142499260473528	0.35727993235453326	118.52617049454265
16	6.0	perception	411	diff_vonmises	-0.08703236167088543	-4.986587004797888	0.7043462309708153	156.95857325331062	0.6910187574415665	156.8180396882383	0.43842296148174853	-0.18573476243943077	0.6241577239211793	112.9033519156993
17	6.0	wm	411	diff_vonmises	0.06155991931568656	3.5271235639547145	0.0002469705111028596	5912.247606261233	3.567651508772902e-29	5912.2109679132045	0.23822782428590017	-0.22653678303890956	0.46476460732480973	179.80908593311995
18	7.0	ltm	411	diff_vonmises	0.11216877297768298	6.42679728478231	1.4549852687659912	113.76291961695973	1.4332545149936942	114.58124640606958	0.09255610011706494	-0.23556444306703206	0.328120543184097	69.01218901985956
19	7.0	perception	411	diff_vonmises	-0.10272192408764381	-5.88553271368522	2.166571870887226	1.6432967771828282	4.49268392177828e-15	2.132646052151701	0.5501598637647551	-0.32774422641087453	0.8779040901756296	93.34881326596803
20	7.0	wm	411	diff_vonmises	0.1719857828125253	9.854059491411313	0.6729068027295498	64.92847821423221	0.6544478281316322	65.49652537554293	0.07128067716560338	-0.16080375031371474	0.23208442747931812	104.29629798786829
0	1.0	ltm	412	diff_vonmises	-0.48654771255243556	-27.877130460998906	0.0007207332360436232	924.3120919222878	2.1135422643025417e-26	926.4971594046884	-0.24171920607665243	-0.45377116759101455	0.21205196151436212	173.31043183911072
1	1.0	perception	412	diff_vonmises	-0.06958945501302582	-3.987182070861889	9.504225601859503	0.9528189275548735	0.08482458209414993	3.3828006462306366	0.5706518809900845	-0.5522559066576181	1.1229077876477027	43.32439604791713
2	1.0	wm	412	diff_vonmises	-0.03849524368605419	-2.2056149945385353	4.401978528815189	0.4372580258706878	0.06489538353379747	2.463190643296673	-0.06375884420737443	-0.3874954803343959	0.32373663612702147	62.125860933069106
3	2.0	ltm	412	diff_vonmises	-0.12389476502545331	-7.098647139723516	4.10644539204717	0.2993811552417792	3.2342092494727012e-12	1.3981676630389943	0.010973165548512215	-0.22246198428246652	0.23343514983097874	67.5430474480618
4	2.0	perception	412	diff_vonmises	-0.001087707616501499	-0.06232105576977019	7.143483783388813	1.550263213285907	0.42390037651194884	2.600902116098279	1.016950669792025	-0.4474713215933655	1.4644219913853904	48.314943166181195
5	2.0	wm	412	diff_vonmises	0.2830088942967513	16.215215207867885	3.2184645257005133	0.49236992442833116	9.73600444645311e-14	1.588598001469384	0.08274666336247938	-0.252295830439117	0.3350424938015964	76.52325952476448
6	3.0	ltm	412	diff_vonmises	-0.1582305612912451	-9.065943351974438	1.2206792724264848	73.4728604515328	1.2014862297374858	74.04194703762636	0.04413744648918083	-0.14845037813616813	0.19258782462534896	74.84401614573338
7	3.0	perception	412	diff_vonmises	-0.05065773894912686	-2.902474641460455	4.407069487103941	1.9576211572043898	0.5455607474020054	2.2741853187193812	1.005849330930471	-0.3285250470270399	1.334374377957511	60.046241141225664
8	3.0	wm	412	diff_vonmises	0.11387475694424402	6.524542965983246	1.1797446517404642	121.90374285412511	1.1653754260317866	122.16544388853752	0.22728458353849135	-0.1370704079853553	0.36435499152384665	83.50067064135888
9	4.0	ltm	412	diff_vonmises	-0.3758920464811987	-21.537027815908054	5.204357488228899	0.42083016792856337	0.22838862950603275	2.0245913664707453	-0.026949326198636825	-0.3321099850526685	0.30516065885403165	54.27349600231301
10	4.0	perception	412	diff_vonmises	-0.06046106845083711	-3.464164047084541	3.2066166257516477	1.7959390574100964	0.09849251846375832	2.767296381577917	0.7365606048831825	-0.4086939097331358	1.1452545146163184	74.11570458604282
11	4.0	wm	412	diff_vonmises	-0.3394955616555837	-19.451662846288368	0.8337677153904779	178.1113229005797	0.8208662346581432	179.83572030135667	-0.09179690605205337	-0.3527435884369936	0.26094668238494023	83.98060560008012
12	5.0	ltm	412	diff_vonmises	-0.12140301780490925	-6.955880540372888	1.0037117620374891	107.90882390352358	0.9838538185020514	108.73051583685859	0.12731504235418356	-0.22813283310637011	0.3554478754605537	85.08385028090984
13	5.0	perception	412	diff_vonmises	-0.11835951189361871	-6.781500496732822	2.2888893509336943	2.562955016548764	0.3489746836074185	3.201439480862134	0.732877710365279	-0.3723020056006599	1.105179715965939	81.3830228527791
14	5.0	wm	412	diff_vonmises	0.03189915784770742	1.8276871146952542	1.0282087096729031	1.4198349176857783	4.6482364021330066e-11	2.022608706093039	0.17082918752433723	-0.25888086023758405	0.4297100477619213	127.40165798624157
15	6.0	ltm	412	diff_vonmises	-0.45200180432608944	-25.897795720183	0.599802350443306	108.40220860745814	0.5875767253206073	108.96138923262262	0.10350094835075296	-0.18272628883818598	0.28622723718893894	111.99710158542477
16	6.0	perception	412	diff_vonmises	0.2084999831935082	11.946169065536616	0.028572641939236115	204.0691681475207	0.019377383174076387	204.5995529277961	0.21612821001539118	-0.3778119126495483	0.5939401226649395	175.8572747950231
17	6.0	wm	412	diff_vonmises	0.2324202443989535	13.316699077459146	0.00046106179511795685	2350.4645288508495	1.0573580501701739e-29	2351.1699165205164	0.060229014304979955	-0.2847211241423224	0.3449501384473024	178.19574548410012
18	7.0	ltm	412	diff_vonmises	-0.8075943189764333	-46.2717460360916	0.00030919012236063295	2365.2184984662867	5.494171541451695e-32	2366.153143497053	-0.032355330872348986	-0.2651334299280279	0.23277809905567892	162.22557733791052
19	7.0	perception	412	diff_vonmises	-0.14988102984857224	-8.587550439397505	1.5297594947115951	2.195491768507455	0.2196174052519196	3.2927675293654945	0.31737440741123446	-0.37307361513151405	0.6904480225427485	97.68344410607207
20	7.0	wm	412	diff_vonmises	0.20388682414769516	11.68185452198893	0.665537515681754	56.61762238203546	0.634683193767949	57.61430708155838	0.060779872548613056	-0.25282134373700593	0.313601216285619	103.20018805809798
0	1.0	ltm	413	diff_vonmises	-0.11409321599451006	-6.537059747559925	0.3185950940592972	2.9989311345178025	4.26993280859364e-30	5.465627129470967	-0.2298597193328792	-0.5314462750978453	0.30158655576496607	161.7142296749638
1	1.0	perception	413	diff_vonmises	6.060633145827431e-05	0.00347248700433007	7.586165844534304	1.0096491136246366	1.3090707805938257e-18	3.7475638792131147	0.49344003913842305	-0.5964430353084484	1.0898830744468715	49.37018515424572
2	1.0	wm	413	diff_vonmises	-0.015081950364752307	-0.8641321027260996	3.9239701022112374	0.5400845656781522	0.04110494970488183	3.106507187166623	-0.10403417564870104	-0.48670460910351393	0.3826704334548129	66.50925203861757
3	2.0	ltm	413	diff_vonmises	0.1937706652146589	11.102241310242388	1.4398817013154936	0.7023908050452431	0.15954717518862405	1.6524280452960736	-0.009721234696397907	-0.20804334127291013	0.19832210657651222	97.71986009727078
4	2.0	perception	413	diff_vonmises	0.024254465361065014	1.3896784995352738	5.832183807346049	1.8226223975789748	0.5272575113023773	2.5036923355480134	1.0840156054554992	-0.40888778487873845	1.4929033903342377	52.751458043698904
5	2.0	wm	413	diff_vonmises	0.08043119309139195	4.608367905338543	1.7699041208686146	2.099140213972137	0.6305318485632561	3.110205834975946	0.1615314055170951	-0.2785265309522337	0.4400579364693288	78.7331664429438
6	3.0	ltm	413	diff_vonmises	-0.19227136855040122	-11.01633793914238	1.2570637333429144	82.7970353928569	1.2411886336908646	83.32950309298228	0.03504434725536498	-0.13838502479677928	0.17342937205214426	73.29757412884018
7	3.0	perception	413	diff_vonmises	-0.020138580216643002	-1.153855651799299	5.27445106765295	1.7090748497405384	0.36228817670318675	1.8461412899649303	1.1161065364140565	-0.28341328952009776	1.3995198259341544	56.841857539439275
8	3.0	wm	413	diff_vonmises	0.08715181143413289	4.993430972095805	1.0007443143525137	80.32644756881801	0.9774198287796236	80.72643777358162	0.21978553951497304	-0.16875163835474272	0.38853717786971576	89.72353887936288
9	4.0	ltm	413	diff_vonmises	-0.5679741554589272	-32.54252198030383	0.4982390909160197	100.34724430777503	0.47903632333811796	101.86045832634233	-0.007961355578441243	-0.36045098069133985	0.3524896251128986	115.85392235996709
10	4.0	perception	413	diff_vonmises	0.0015361909734576235	0.0880172593052153	3.093086637199363	2.1878471637842103	0.06115462950615634	2.821163135199769	0.9811848870153332	-0.42224875523141503	1.4034336422467484	76.53841576048112
11	4.0	wm	413	diff_vonmises	-0.06428837549230071	-3.683452587461107	0.6422084516262725	210.7815238790945	0.6285724856177047	212.57664701962688	0.05925119480112784	-0.43372121770798344	0.4929724125091113	103.13871046257573
12	5.0	ltm	413	diff_vonmises	-0.019368998142098148	-1.1097618469389565	0.8873598575561574	109.81100794400051	0.8691673858848676	110.60064132678582	0.13065079880276187	-0.2235487701141512	0.35419956891691307	91.00711704840492
13	5.0	perception	413	diff_vonmises	-0.08533631016803608	-4.8894104118478	1.048024477562733	240.35254264041168	1.0282806275269043	240.80931405937974	0.7360047009335773	-0.3703648954371097	1.106369596370687	90.23755417632381
14	5.0	wm	413	diff_vonmises	0.2431037021021673	13.928816114459826	0.2914948652774478	170.1158202877021	0.28016072758198013	170.885240730172	0.18464934647126086	-0.34865182397959416	0.533301170450855	145.53724200949858
15	6.0	ltm	413	diff_vonmises	-0.5998031264617821	-34.3661876850117	0.6229333368832034	147.51495779394025	0.6119651503431403	147.86655290765012	0.21255282173392231	-0.19153222098503342	0.40408504271895573	113.52302898795266
16	6.0	perception	413	diff_vonmises	-0.0027079320676968313	-0.15515307868716277	0.4421191220077165	176.68085165288792	0.42685678605638866	176.9137148879906	0.44394544402801017	-0.34468921628893767	0.7886346603169478	132.80320651131254
17	6.0	wm	413	diff_vonmises	0.07855053394880217	4.5006140737654565	0.4178421976203208	5.007928783104467	3.790197116163034e-11	5.480434666488077	0.2870321985402444	-0.36958855808136004	0.6566207566216045	156.40286219204157
18	7.0	ltm	413	diff_vonmises	-0.9253438369474953	-53.018296455533296	0.00014082864002192065	4353.670275228128	1.497000952171084e-33	4354.751378851319	-0.0744782434960598	-0.2696408566340551	0.19516261313799532	157.01113410059247
19	7.0	perception	413	diff_vonmises	0.012495489661577814	0.715938820557762	2.0438478813005574	1.661248123929093	2.5666965105464118e-08	2.770347821620202	0.42737454404780706	-0.4263457830321074	0.8537203270799145	96.02266719380842
20	7.0	wm	413	diff_vonmises	0.05808088476557254	3.3277895674529865	0.4556342814093904	143.96734340880099	0.4444273254129928	145.19151198264632	0.009599764254389243	-0.308906221907602	0.3185059861619912	122.03500973376563
0	1.0	ltm	414	diff_vonmises	0.012395556879808634	0.7102130939273862	5.715107420562915	0.3778312430578924	0.09743921339721628	3.5540634703579053	-0.27039017052142406	-0.5754238312932045	0.30503366077178046	53.02781466752754
1	1.0	perception	414	diff_vonmises	-0.07766465264492142	-4.449856813903543	16.18026822187027	0.6437538287346637	0.060337778311361286	3.8328927018639423	0.3769562433802601	-0.6305167445543985	1.0074729879346587	33.35502197063363
2	1.0	wm	414	diff_vonmises	-0.17440610848276683	-9.992733937363324	4.6754989343817295	0.4481681703879621	0.08647925950409936	3.433925501999626	-0.21985452986638576	-0.546217900380483	0.32636337051409725	58.84566511182214
3	2.0	ltm	414	diff_vonmises	-0.11960540168785852	-6.8528847236811865	3.5783707577572983	0.5615858702449702	8.987409918623772e-34	2.5296501574514867	0.003510459511112618	-0.40228971451127205	0.40580017402238466	72.48843904406581
4	2.0	perception	414	diff_vonmises	-0.01690092782123101	-0.9683518340117707	7.401527903285188	1.400828746351094	0.29721302378708137	3.520070729937738	0.7551583989888224	-0.6010056512962846	1.356164050285107	47.55968550886479
5	2.0	wm	414	diff_vonmises	-0.03781122324617906	-2.1664235102330083	3.555145849654853	0.7193278779716982	0.12162207845996173	2.832179141485642	0.011140125115157051	-0.4342899440909717	0.44543006920612876	67.37015331868449
6	3.0	ltm	414	diff_vonmises	-0.21930212397299195	-12.565086141907193	1.9225371221724554	1.9102428441752373	0.4634435839622678	3.584159170865083	0.10220377128404412	-0.4007859408920309	0.502989712176075	78.13480934056895
7	3.0	perception	414	diff_vonmises	-0.04675850733499781	-2.679065126626877	2.689470420966147	5.0339630416417025	0.8629303348828071	6.594988015711723	1.0142968110828812	-0.6850239419109685	1.6993207529938497	67.67388927401427
8	3.0	wm	414	diff_vonmises	-0.0420361282965637	-2.4084927384635546	1.942917546625645	2.7619108562097825	0.6300637898566893	4.383688392114676	0.2109353861432015	-0.4327208959001878	0.6436562820433893	75.65918637040133
9	4.0	ltm	414	diff_vonmises	-0.12588822536806646	-7.212864003981952	0.6936046510152921	190.18472251235679	0.6785463579525997	193.0142786272902	-0.24811466661945047	-0.5376431058232427	0.28952843920379223	87.97496954053034
10	4.0	perception	414	diff_vonmises	-0.13970033662376022	-8.004239685098344	1.0544322481539183	173.46017481408512	1.0113909658482536	175.75266410868565	0.6197420636236544	-0.7290028407415861	1.3487449043652404	85.30206490132568
11	4.0	wm	414	diff_vonmises	-0.16688328009076894	-9.561707620500659	0.5295245117652209	132.35409009705404	0.513356305768843	135.13095466942835	-0.2908716935812379	-0.5059997632021727	0.21512806962093478	97.66924366994098
12	5.0	ltm	414	diff_vonmises	-0.006149891898982703	-0.3523628502734041	1.7344032258173159	1.769402769043221	0.2722572367989804	3.174218529535291	0.1859770157368118	-0.3710777453671882	0.557054761104	88.86676760775413
13	5.0	perception	414	diff_vonmises	-0.07684186448691337	-4.402714525016339	0.9860836657484201	318.42260730931866	0.9673885874079026	320.0033221319387	0.5978472274449018	-0.5672252815921368	1.1650725090370386	89.0365185636025
14	5.0	wm	414	diff_vonmises	-0.11762928194221602	-6.739661402443405	1.4452444963012463	1.211425216462606	5.457276833679503e-14	2.7103175127528756	0.0816948455952149	-0.40285984962465216	0.48455469521986705	112.14494164833344
15	6.0	ltm	414	diff_vonmises	-0.3633839618840753	-20.820367358700288	0.7911676552618702	162.35172968593477	0.7767898098645939	163.744687789697	0.028985579025956554	-0.3201588327641538	0.34914441179011035	91.6569415594308
16	6.0	perception	414	diff_vonmises	0.012704165969102071	0.7278950922632761	0.7468137732475408	2.770397622818978	1.597270049514963e-09	4.17297100715374	0.148924118943358	-0.4815649703470499	0.6304890892904079	139.8581504145548
17	6.0	wm	414	diff_vonmises	0.09563767777741726	5.4796352990781125	0.38624984298734005	3.0862699275903545	1.0314759929927275e-16	4.5533677853104715	-0.028152802881371564	-0.4029811572258055	0.37482835434443396	158.03668118445958
18	7.0	ltm	414	diff_vonmises	-0.3969995325960282	-22.74639768641877	1.1084560460957185	162.66877885546089	1.0904195067394886	164.1582793643253	0.01499466978902575	-0.3499824083917318	0.36497707818075753	76.2824053206132
19	7.0	perception	414	diff_vonmises	-0.040889661849727754	-2.342805049706495	0.3859973427902387	219.3841466840033	0.37371062335617833	221.38650639512582	0.04494041317226305	-0.5477899558684314	0.5927303690406944	131.7983434800841
20	7.0	wm	414	diff_vonmises	0.22849084803961175	13.091561250034793	0.9024971913721876	134.03957039739714	0.8855026752327518	135.75618345234466	-0.1152760867772713	-0.34887809998594577	0.23360201320867446	79.37594667087612
0	1.0	ltm	415	diff_vonmises	-0.5321841762352465	-30.491907221926027	0.2249826813005207	3.647753670119985	1.813862837422903e-13	4.669069088176457	-0.025191518139961344	-0.2853198601160012	0.26012834197603985	160.90159500038723
1	1.0	perception	415	diff_vonmises	-0.12516213182310612	-7.171261908324032	16.296999365557426	0.6954642407442464	0.1137734267218069	1.9063823320394415	0.7722613721298565	-0.322262150181964	1.0945235223118206	33.25407978590505
2	1.0	wm	415	diff_vonmises	-0.18423296896866512	-10.555771569069174	4.409059155184389	0.3541005211671688	9.679084245071411e-12	1.11748448706848	0.10913489245152505	-0.17781068680320122	0.2869455792547263	65.12763404089395
3	2.0	ltm	415	diff_vonmises	-0.1091994331142954	-6.25666664267025	7.275167681980834	0.3710166252318101	1.9427617630560066e-17	0.9729686427250459	0.23699894748974085	-0.1548525810077068	0.39185152849744764	50.43279110051904
4	2.0	perception	415	diff_vonmises	-0.005267751312523817	-0.30181991773211464	6.361054236851742	1.3677582881000967	0.4584406185751986	2.00122370210019	0.8684669128007065	-0.3338611867917466	1.202328099592453	51.00670050199747
5	2.0	wm	415	diff_vonmises	0.3506585540219693	20.09125519561902	2.7581987121585114	0.4266540989065661	1.5361046105485305e-21	0.9186292322071871	0.12007403854378251	-0.14513385512387805	0.26520789366766057	82.7450859794586
6	3.0	ltm	415	diff_vonmises	-0.1790888363556847	-10.261034481089792	1.876702202556483	96.69292673248658	1.8492322847660918	97.15063578034528	0.20279561176609917	-0.19494367838849236	0.39773929015459153	63.622471613817794
7	3.0	perception	415	diff_vonmises	-0.05133201130394929	-2.941107601634128	3.767471117673839	2.45859098538472	0.5519832944131953	3.0122856790142842	1.0566401030606936	-0.4089923639967724	1.4656324670574659	63.855248361307275
8	3.0	wm	415	diff_vonmises	0.13634060440406517	7.8117412086156985	1.1291288602480762	93.22237853775461	1.1123197422038211	93.27028333182571	0.275244354284645	-0.10924876562433017	0.38449311990897517	88.29984563869235
9	4.0	ltm	415	diff_vonmises	-0.34969431742183	-20.036008507978995	10.883223021545883	0.37357357056149126	0.2491312889679516	1.3166871200849877	0.22103934692940475	-0.23341226149110972	0.45445160842051446	39.677437700608095
10	4.0	perception	415	diff_vonmises	-0.13420141091934185	-7.689174450379169	1.3094823643432543	12.907117989406595	0.8483270394246154	14.214303151476862	0.7050738497639122	-0.5375671993953461	1.2426410491592583	85.96776070728222
11	4.0	wm	415	diff_vonmises	-0.5061055995244486	-28.997714840689145	1.2043241255302382	151.4959518364884	1.1902397199045085	152.37859717729367	0.061254388821701866	-0.22741493694491055	0.2886693257666124	75.06213387514296
12	5.0	ltm	415	diff_vonmises	-0.08074116587237412	-4.626128037452755	1.4200339995334657	135.91117237886692	1.4044901980330846	136.15598489284594	0.2742226838894979	-0.14836920584608393	0.4225918897355818	76.39746296363089
13	5.0	perception	415	diff_vonmises	-0.07452952094487107	-4.2702269992729835	1.6055611439478807	3.4721174825423824	0.454379531462082	3.775533333597171	0.6678405734085201	-0.3147337627026142	0.9825743361111343	92.06156186030819
14	5.0	wm	415	diff_vonmises	-0.0484641067609213	-2.776788775272229	1.4210596729570506	1.0740785975091502	1.735208998172492e-15	1.2272334578228163	0.2549623839595392	-0.1690673377880284	0.4240297217475676	112.97043016645836
15	6.0	ltm	415	diff_vonmises	-0.3982496108667147	-22.818021895390117	0.7509067259532104	27.878091767444253	0.6941124079625417	28.41975025072335	0.14849640109750517	-0.1863783329021107	0.33487473399961587	102.7029720506703
16	6.0	perception	415	diff_vonmises	-0.005848288650537926	-0.33508225705008277	0.6609080446420227	141.3693771149821	0.6459103349584201	141.8441938741044	0.27283015154775114	-0.2431153955717189	0.51594554711947	110.82717024160962
17	6.0	wm	415	diff_vonmises	0.15264371722395367	8.745840766120937	0.0001773042626175177	4620.389473869752	7.654158790507059e-31	4620.851019965792	0.05692923002607131	-0.20383235713109116	0.26076158715716247	179.16364800671087
18	7.0	ltm	415	diff_vonmises	0.026951979734924445	1.544234688333294	1.4460536021047496	171.38569657595926	1.4272671282418956	172.43461025915914	0.1296117841210247	-0.30438656462512625	0.43399834874615095	69.41619637681427
19	7.0	perception	415	diff_vonmises	-0.33608327565014756	-19.256153259685323	0.8864354989033025	220.88288500864627	0.8697629435094762	221.80338929132037	0.4102873439136232	-0.3624952048143193	0.7727825487279425	94.63465623127097
20	7.0	wm	415	diff_vonmises	0.6845126902345927	39.21968817358805	14.99768644389997	0.2809795466477994	0.24595203453799072	0.7447899917249415	0.2810050625281635	-0.13474300857985325	0.4157480711080167	34.31385011591277
0	1.0	ltm	416	diff_vonmises	-0.07256923834552699	-4.157911079677634	4.605807144513303	0.3250421585274735	1.9949667246989746e-20	3.4544035937468274	-0.2800514597830907	-0.5497584673819582	0.2697070075988675	63.68167012120665
1	1.0	perception	416	diff_vonmises	-0.09087804605105522	-5.206928489121002	9.9366354702365	0.6759669581385154	0.01980061150517769	3.906192195222473	0.20473179118449192	-0.6246393722231526	0.8293711634076445	42.77226704245652
2	1.0	wm	416	diff_vonmises	-0.06631825887859873	-3.799756338399707	2.3597095272804958	1.1891495506985161	0.22661685095867282	4.063095076241396	-0.12347743482802453	-0.5745257084740671	0.4510482736460426	75.17950055649567
3	2.0	ltm	416	diff_vonmises	0.103771659537576	5.945678124571601	1.5875219867581989	0.5598765037867107	2.432420073621478e-25	2.000167606906686	-0.06733153032716443	-0.3078464775725082	0.24051494724534378	107.76303517374976
4	2.0	perception	416	diff_vonmises	0.0405781057944288	2.3249542026561207	5.502520287014923	1.756926952945107	0.5505030463684844	3.1416388005667786	0.7979085525471351	-0.5194855035226663	1.3173940560698014	53.0168974683464
5	2.0	wm	416	diff_vonmises	0.37569506863931823	21.525741816910706	3.2843589724346693	0.6146901590723253	0.08725403061159895	1.7374490087322247	0.12255350639155921	-0.2630583610351433	0.3856118674267025	72.10587422275492
6	3.0	ltm	416	diff_vonmises	-0.20313207378388815	-11.638610511556825	1.0959345131073401	94.86503197891763	1.0740724814262954	95.93756049724762	0.0074913696146623465	-0.25021528718464836	0.2577066567993107	76.66926436924786
7	3.0	perception	416	diff_vonmises	-0.05321250360221184	-3.048851873731428	5.436719263404111	1.5611294596394851	0.2389545519223906	2.5734120246944014	0.9025103172432344	-0.40527413981843236	1.3077844570616668	56.10716449327549
8	3.0	wm	416	diff_vonmises	0.3244074582685187	18.5871782013525	0.7880074874081042	95.50035609939937	0.7682237626486759	95.93069881737172	0.23272342404124302	-0.19480404149264974	0.42752746553389276	101.30699128056614
9	4.0	ltm	416	diff_vonmises	-0.5711342525378402	-32.72358220577717	0.8443061349096718	203.346609838271	0.8286654871614297	205.60229629728863	-0.09019923323167944	-0.4713376519105559	0.38113841867887643	84.6646791973296
10	4.0	perception	416	diff_vonmises	0.02241988799507994	1.2845649592741015	1.7196552198597324	4.360713590239914	0.5471833389372556	5.89285221659709	0.5463139590800357	-0.5208387729038568	1.0671527319838925	83.80607171067206
11	4.0	wm	416	diff_vonmises	-0.17895175423506846	-10.253180254131777	0.6484442087902887	145.8107345794199	0.6319584163624359	148.17888223636905	-0.18667903523036244	-0.4556637904394485	0.26898475520908605	92.65863971304364
12	5.0	ltm	416	diff_vonmises	-0.26430795503000853	-15.143730314953046	0.9131069874964718	157.0167987158272	0.8939567900903512	158.3001165527338	0.15990728198040927	-0.342858306541304	0.5027655885217133	88.71166364321672
13	5.0	perception	416	diff_vonmises	-0.11335023613178462	-6.494490137162549	1.0697712082425643	260.59912680084744	1.0488644671677685	261.8618561491928	0.5815381731178775	-0.4861810198452723	1.0677191929631498	86.04277983487319
14	5.0	wm	416	diff_vonmises	0.02189494337214208	1.254487847901676	0.5881455641604205	4.678301147261939	0.17736008966904906	5.381131967133499	0.2172159185946434	-0.3317051436744394	0.5489210622690828	136.66872823760662
15	6.0	ltm	416	diff_vonmises	-0.5069584837592827	-29.046581507758386	0.7529220216019996	181.9288758916057	0.7406860812963483	182.9284783920721	0.13273045799705585	-0.27739869295053055	0.4101291509475864	98.24146210790899
16	6.0	perception	416	diff_vonmises	-0.014387261111805986	-0.8243293404591795	0.5363750295738643	203.44108667760355	0.5215194645915265	204.6948274543668	0.25286671764599333	-0.443011724405455	0.6958784420514483	118.95996463215695
17	6.0	wm	416	diff_vonmises	0.3437932804454677	19.697903994482793	0.000436799034120605	3253.3801628477386	9.497348164053612e-23	3254.5901110577993	0.03362315276956451	-0.4187122369477265	0.45233538971729104	176.2785511735272
18	7.0	ltm	416	diff_vonmises	-0.46455383190927035	-26.61697392503106	2.9964613978226553	0.36866963518513457	1.4167878188333053e-35	2.3344022936888034	-0.13024723261787968	-0.3709292514525788	0.24068201883469914	79.32998732058539
19	7.0	perception	416	diff_vonmises	-0.14718082282221967	-8.432839972975932	1.7495902169582127	1.866317818193969	2.8701067935394956e-13	3.9886028560802202	0.2528607065912928	-0.6079759964501549	0.8608367030414477	103.2029786108148
20	7.0	wm	416	diff_vonmises	0.3676472589668586	21.064636288354208	0.8883197014483859	100.50889138420659	0.8580968303270949	102.42515818113961	-0.023915334294741797	-0.41922527429884404	0.39530994000410224	84.74914602054909
0	1.0	ltm	417	diff_vonmises	-0.14085670159742153	-8.070494517665894	3.157041760114741	0.33179584474328166	4.696360309002173e-31	2.717266249148842	-0.20876873088338882	-0.43206132093598243	0.2232925900525936	77.29200101651858
1	1.0	perception	417	diff_vonmises	-0.09411790272129608	-5.392558602553111	13.47204292331354	0.6548139799118082	0.044531050468835064	3.241012290068138	0.41028085768543177	-0.5261904241759343	0.9364712818613661	36.63511175426294
2	1.0	wm	417	diff_vonmises	-0.08804787347047101	-5.044771544959877	3.4187792190531847	0.5565589713247939	0.06768584153321046	2.7131677950087623	-0.06912403620303442	-0.4193038433343016	0.3501798071312672	69.93049250955625
3	2.0	ltm	417	diff_vonmises	-0.058394394974243	-3.3457523792440695	4.475449823071948	0.3468658472298271	7.433058461363242e-32	1.52902311706935	0.04006230780832096	-0.24331484494643624	0.28337715275475717	64.62932413334423
4	2.0	perception	417	diff_vonmises	0.008710156900859535	0.4990552293160003	6.83815521058316	1.4715233100513938	0.4751858296614398	2.645792923102587	0.8639502266762501	-0.45824954568460885	1.322199772360859	48.81490348260431
5	2.0	wm	417	diff_vonmises	0.17758223257596203	10.174712443113226	3.237410776425215	0.6319282968295193	0.17697503534089384	1.708863936691602	0.11002539329252742	-0.25304797760959474	0.36307337090212216	70.05175974181398
6	3.0	ltm	417	diff_vonmises	-0.21443011222987765	-12.285940431288568	1.4097083212826191	84.44322209816292	1.3833121903159649	85.2339566572122	0.07190583544677764	-0.21964865540894607	0.2915544908557237	69.75016690451909
7	3.0	perception	417	diff_vonmises	-0.04334026141224973	-2.4832140619156107	4.589571590852101	2.0898650955477365	0.5509591022936744	2.761627765104847	1.0229339536096826	-0.41284092497648106	1.4357748785861637	58.46388696033162
8	3.0	wm	417	diff_vonmises	0.12685624197197123	7.268327269884283	1.1953724023316454	73.73483330613712	1.1641545953989219	74.22248218433595	0.2447921070458392	-0.19373657511661158	0.4385286821624508	81.62719368699078
9	4.0	ltm	417	diff_vonmises	-0.4126950143936605	-23.645682550847507	11.633060000079636	0.2659752439409973	4.5651241528795614e-55	1.8966061567036543	0.055923699445356134	-0.30185424490975965	0.3577779443551158	39.76800316068454
10	4.0	perception	417	diff_vonmises	-0.051465199270029446	-2.9487387099724525	2.3147442208204874	3.0052537690080645	0.39864795014404497	4.35088047900487	0.7005571182419902	-0.5094904570588434	1.2100475753008335	78.67406567285184
11	4.0	wm	417	diff_vonmises	-0.14245375710009675	-8.16199905761733	0.7044791549125662	173.61499001925435	0.6928378882425797	175.26587941429193	-0.0823182866429093	-0.33583685499404226	0.25351856835113296	92.07893561162139
12	5.0	ltm	417	diff_vonmises	-0.06669784709135843	-3.8215051409437515	1.034479366358335	139.324620087043	1.0147141444519963	140.4173008494697	0.1433543042318064	-0.2949043275821577	0.4382586318139641	83.19843913296455
13	5.0	perception	417	diff_vonmises	-0.07388715905587408	-4.233422374113405	0.9939366812943687	336.84590926767044	0.9791960479815957	337.9842635168055	0.5558473011460023	-0.45445056984993926	1.0102978709959416	89.45393843073657
14	5.0	wm	417	diff_vonmises	0.03889204412918894	2.228349985239077	1.1139064894986037	1.5126737905099399	4.341137266878259e-16	2.351275358221387	0.17508584427828117	-0.315021046408262	0.4901068906865432	123.9641626907399
15	6.0	ltm	417	diff_vonmises	-0.4609085734115605	-26.408115997878088	0.7632873439360454	172.1302667201807	0.7496033424258033	173.17667401479926	0.14201920653574263	-0.29089819577722054	0.43291740231296316	97.66569762262601
16	6.0	perception	417	diff_vonmises	0.007893519154512904	0.45226533305926336	0.6522061992546175	163.8508868204697	0.6327234990879649	164.9582274259057	0.3054337133392693	-0.4011418773026687	0.706575590641938	109.11149136431756
17	6.0	wm	417	diff_vonmises	0.13971485557499258	8.005071559726915	0.44492620689348683	3.323882626215146	1.86420533892231e-15	4.443831192123076	0.07881346371687403	-0.3844054086806424	0.4632188723975164	154.6903198241219
18	7.0	ltm	417	diff_vonmises	-0.0889199221320139	-5.094736252796317	1.1220493387619905	169.95524590894183	1.106369767284132	171.52680834863142	-0.07042269421434355	-0.3480092869848832	0.27758659277053965	72.77114150906877
19	7.0	perception	417	diff_vonmises	-0.12878855065112235	-7.379040401916141	1.3344404817675646	1.8287945391369747	2.9596412419429865e-09	3.4732156831601695	0.18549556735118933	-0.5015920206543721	0.6870875880055615	115.81228133963563
20	7.0	wm	417	diff_vonmises	0.4379871108756791	25.09481293430485	0.8831759567387537	57.28315382642309	0.8441463197835817	58.668108618523924	-0.005775071421922462	-0.30648620706734153	0.30071113564541907	85.74878808268187
0	1.0	ltm	418	diff_vonmises	0.014452870065839073	0.8280884566235431	3.544204036234407	0.4812188276374075	3.7453061092047266e-23	3.9137727416756087	-0.2767462698865128	-0.6226073286460554	0.3458610587595426	72.84808504768472
1	1.0	perception	418	diff_vonmises	-0.0499000789205383	-2.8590639195165695	7.877769347874126	0.933341002732752	0.08562097801685338	4.353746961421131	0.2739179047411773	-0.7067511793479891	0.9806690840891664	47.19854235889176
2	1.0	wm	418	diff_vonmises	-0.09836325199809469	-5.635799198672587	3.2507667966334353	0.7666092796589059	0.10499169923777676	4.077865622055051	-0.19346098998157857	-0.6268764084801455	0.4334154184985669	69.24815006322765
3	2.0	ltm	418	diff_vonmises	0.04295057289358263	2.460886554471281	2.070653679403369	0.5933797848294999	2.966837558774382e-17	2.424381628825196	-0.07327608087319848	-0.38088105171898473	0.30760497084578625	95.42420357536335
4	2.0	perception	418	diff_vonmises	0.01131576434484172	0.6483455389240497	5.683929408858141	1.6240940446522534	0.3562698953616105	3.2948737495484774	0.7816101894357701	-0.5381684030373091	1.3197785924730792	53.51549865194252
5	2.0	wm	418	diff_vonmises	0.21337368041409205	12.22541134690071	2.655638454832833	0.9252490647373558	0.16953127629364076	2.528118124971833	0.09160250876315523	-0.3628744603689647	0.45447696913211993	76.18652243191966
6	3.0	ltm	418	diff_vonmises	-0.16359636034617525	-9.373380991537221	1.3264125556221134	2.255286534063657	0.45358063812117944	3.626836569731641	0.043650227605502745	-0.31711802713044424	0.360768254735947	88.55743042555163
7	3.0	perception	418	diff_vonmises	-0.06180782262252113	-3.541327377163672	3.3944711508874748	2.4669560710796863	0.35005760437928723	3.624127341595025	0.9381784166774692	-0.5013810685142591	1.4395594851917282	68.22778370635046
8	3.0	wm	418	diff_vonmises	0.08108179102511691	4.645644421100916	0.7795341020187333	145.50742666880043	0.7616956955367397	146.32828201838254	0.2523870184424979	-0.28820691872971516	0.540593937172213	99.7808176953123
9	4.0	ltm	418	diff_vonmises	-0.26445902835553975	-15.152386178902992	2.354444062728911	0.6547205227309016	3.5544445907592715e-13	3.200556282468612	-0.1369430840838476	-0.5060268152675069	0.36908373118365934	89.5753545065906
10	4.0	perception	418	diff_vonmises	-0.05147886187840445	-2.94952151976948	1.7407469689646786	4.227099519615548	0.3936942411972229	5.975828924707301	0.6475762414316908	-0.6066983071782721	1.254274548609963	87.44503609939733
11	4.0	wm	418	diff_vonmises	-0.22711417864324523	-13.01268390383817	0.6205518803478249	229.1750921741049	0.6083023714688243	231.77025338287922	-0.1611882507206559	-0.5168393004508083	0.3556510497301524	97.11740790800188
12	5.0	ltm	418	diff_vonmises	-0.21776007758264307	-12.476733391926818	0.6768231331695509	157.46419798729588	0.66060501915778	158.71959734145787	0.1381208403882752	-0.3452934102682992	0.4834142506565744	103.4318046502671
13	5.0	perception	418	diff_vonmises	-0.0884476863688311	-5.067679136630804	1.0362096460984414	163.60782895193122	1.0006826938510838	164.85486666152426	0.6714464955392714	-0.5180551271199683	1.1895016226592396	88.32158182175121
14	5.0	wm	418	diff_vonmises	-0.08986750958726564	-5.149029014701783	0.35811060043951387	196.05302156997394	0.3472570631620899	197.13305917532384	0.15000227827028567	-0.3887368913462943	0.53873916961658	137.65552558347414
15	6.0	ltm	418	diff_vonmises	-0.46693375111822805	-26.75333325128645	0.6286655259204237	185.39472045239188	0.6176009568943123	186.60123870834872	0.06464429232242708	-0.3050279351622187	0.3696722274846458	105.2146328733937
16	6.0	perception	418	diff_vonmises	0.04334618905754269	2.483553690973348	0.2901863596895961	232.35251923344507	0.27890652623619167	233.51202902949285	0.22758615155700568	-0.4878374932226315	0.7154236447796372	146.26659725552477
17	6.0	wm	418	diff_vonmises	0.14523576932409055	8.321396616605977	0.523782952381478	2.687558262657986	4.221496442469996e-14	3.9986307486713026	0.03868427379696282	-0.3995841014168705	0.4382683752138333	150.55391851459152
18	7.0	ltm	418	diff_vonmises	-0.5450587980252111	-31.229568713318162	1.7828797503642593	0.7480301258868939	3.750071720448819e-26	2.322261364247412	-0.009700110135550166	-0.35942275158543036	0.3497226414498802	101.69745586884899
19	7.0	perception	418	diff_vonmises	-0.05859410871211611	-3.3571951335349803	0.585616316399319	326.7063927186814	0.5730480501575873	328.67207268196216	0.26351048164299584	-0.59388749866363	0.8573979803066258	112.2587389288146
20	7.0	wm	418	diff_vonmises	0.19009992148711577	10.891923186980046	0.8172529364111517	143.29125553215647	0.7970641739158224	145.10887066058896	0.0015302222811612864	-0.40413568085166673	0.405665903132828	89.1561038859247
0	1.0	ltm	419	diff_vonmises	-0.2752554293240666	-15.770974388330535	0.2957504240267497	2.706740032570506	4.310375553340919e-14	5.075133655682233	-0.24115018816492417	-0.4941300527158802	0.252979864550956	161.67666061741022
1	1.0	perception	419	diff_vonmises	-0.10160228808365614	-5.821382296065834	10.931853563216588	0.7922477726060466	0.10089079823938266	3.2901395245566607	0.45470925832043696	-0.5450239955125192	0.9997332538329562	40.289769996917016
2	1.0	wm	419	diff_vonmises	-0.08936340660919381	-5.120146041618292	3.0815743235112314	0.6674474716691167	0.11061211965385466	2.7576727276426873	-0.04486664751743058	-0.4177890342100281	0.37292238669259753	71.78606188545893
3	2.0	ltm	419	diff_vonmises	-0.03485072016549696	-1.9967991784744457	3.058515257628245	0.43297006856498527	3.526939840130276e-19	1.766538723447194	0.00555853346308266	-0.28052117198219273	0.2860797054452754	78.55682557416867
4	2.0	perception	419	diff_vonmises	0.006831160402750188	0.39139666025447345	6.272214848139525	1.479996448029559	0.411666217058753	2.7384065153075947	0.8156794582970708	-0.4591913707320313	1.2748708290291022	51.05860330373761
5	2.0	wm	419	diff_vonmises	0.34861880384136207	19.97438611900918	3.503945038036163	0.5185810167311173	1.0977179675980355e-10	1.5994755811027448	0.11610664688858524	-0.2542290929581774	0.37033573984676266	73.26277207335517
6	3.0	ltm	419	diff_vonmises	-0.203205350304014	-11.642808946897441	1.490977970243785	2.796896281884762	0.8154485315313424	3.7033359044793106	0.07162584299896757	-0.2306163342850387	0.30224217728400626	77.49727142514348
7	3.0	perception	419	diff_vonmises	-0.06645140497079319	-3.8073850475411093	4.122980906857487	1.9984552721638458	0.3432844919896377	2.821340188376097	0.9473588119043941	-0.413106092331576	1.36046490423597	62.958185490154676
8	3.0	wm	419	diff_vonmises	0.15821082966091715	9.064812812833734	0.9217778460134941	145.4414610210826	0.9081547305542836	145.78953186169562	0.2642077894481787	-0.178596778105943	0.4428045675541217	94.35200511647787
9	4.0	ltm	419	diff_vonmises	-0.3276418572420534	-18.77249561179749	6.564964414754202	0.37148489200153206	0.055653644860036905	2.1159892614440454	0.016116556734761478	-0.33852588323215044	0.3546424399669119	51.75030247560301
10	4.0	perception	419	diff_vonmises	-0.07144592356851806	-4.093549883890343	2.009685410947778	3.2793142560205157	0.3903398965336989	4.73716087090702	0.6240062043861532	-0.5213550197502675	1.1453612241364208	83.06087719337461
11	4.0	wm	419	diff_vonmises	-0.3779599340431782	-21.655509045717075	0.8430819604480202	192.66361415206296	0.8309510549975742	194.37260036269905	-0.08292138199688992	-0.3525824550644039	0.26966107306751397	83.90509650282682
12	5.0	ltm	419	diff_vonmises	-0.2089648509843374	-11.972804027982699	0.928041849382373	143.98698305716124	0.9108651641517725	144.94825716603174	0.15835427497319188	-0.2707659649811749	0.42912023995436677	88.8355757683641
13	5.0	perception	419	diff_vonmises	-0.09105467384834895	-5.217048516450625	1.4193662097114998	6.730176422675811	0.6967016847250755	7.721136085234215	0.627199057522482	-0.44099719980985996	1.068196257332342	87.66125370087462
14	5.0	wm	419	diff_vonmises	-0.08361802240611162	-4.790959775100549	0.4547421004372867	117.50213777412796	0.43883253531917676	118.13906279599962	0.19631123792709815	-0.2829854777949006	0.4792967157219987	128.7789458876178
15	6.0	ltm	419	diff_vonmises	-0.4340029761674515	-24.86653883051182	0.6834418192591957	159.52598891032343	0.6709114958893919	160.5243825814039	0.1019953123638686	-0.26992964117301455	0.37192495353688315	102.49840254456936
16	6.0	perception	419	diff_vonmises	0.08363982513625629	4.7922089795197005	0.40462127073745363	184.9113947202172	0.3912854781807409	185.9129603862014	0.2252194841285018	-0.4067216065628152	0.631941090691317	133.3619146261355
17	6.0	wm	419	diff_vonmises	0.26580509605495417	15.229510177018323	0.0003377158043055389	3171.48479485108	1.3389424162209823e-31	3172.524470506473	0.0050080817123330235	-0.3359183378813668	0.34092641959369985	177.6984213223118
18	7.0	ltm	419	diff_vonmises	-0.24425187822895114	-13.994601760662217	0.8432279224138752	95.17820001570799	0.8189728007677765	96.6163115986838	-0.0011856232455293991	-0.3191669676833442	0.3179813444378148	87.69552054745323
19	7.0	perception	419	diff_vonmises	-0.19855268367528875	-11.376230785590124	0.6353060807935036	200.1442244096218	0.6166845496960266	201.73128172732453	0.28056703522007354	-0.5000099232825903	0.7805769585026638	108.83193542034878
20	7.0	wm	419	diff_vonmises	0.3572420939413975	20.468464247258154	0.9652586695123125	97.72206264436414	0.9393954233142381	98.92200996043962	0.08361533912668762	-0.2974188823780093	0.3810342215046969	84.69045671668553
0	1.0	ltm	420	diff_vonmises	-0.4577840913100124	-26.229096360295216	0.8509481015850273	1.0082148356950162	7.54802135435572e-24	2.1215800676413665	-0.021716832475997927	-0.28005090876637606	0.25833407629037813	133.0016221746559
1	1.0	perception	420	diff_vonmises	-0.0904842641301762	-5.184366447006079	14.593802286017693	0.7344880660772601	1.253805724964833e-14	2.0989922156646386	0.7753363592925855	-0.3340649866341987	1.1094013459267842	35.464880476267155
2	1.0	wm	420	diff_vonmises	-0.1075094696816177	-6.159838870446377	4.422375631261706	0.3600572643794861	7.021453948832587e-19	1.3022584385871598	0.08506392488993145	-0.20721873162365123	0.29228265651358265	65.0241193722199
3	2.0	ltm	420	diff_vonmises	-0.12088765653586603	-6.926352514732205	7.688673862104229	0.27425418418002356	5.865053441058244e-20	0.7508015341289003	0.17862285677251452	-0.11949371290672438	0.2981165696792389	49.035676980700345
4	2.0	perception	420	diff_vonmises	0.005066165993451944	0.29026992973749827	6.700450353388175	1.5052424693537463	0.5878807479681202	1.7737789282538001	1.0560203417964364	-0.3008723326377764	1.356892674434213	49.66175823322067
5	2.0	wm	420	diff_vonmises	0.07256383209072442	4.157601324094474	2.8379309870099285	0.6314088494853369	0.31269413642880517	1.1081986932210321	0.1652601731712192	-0.14919976066459642	0.3144599338358156	73.07793844728772
6	3.0	ltm	420	diff_vonmises	-0.1912428551923029	-10.957408464550518	2.0711900319217924	105.84647414788276	2.053062551825398	106.1630699499328	0.12877604600726755	-0.13848661337168444	0.267262659378952	59.97457767240991
7	3.0	perception	420	diff_vonmises	-0.02332689274097598	-1.3365325032122803	4.544969420667655	2.249946838953624	0.7854854805255792	2.2259535657814697	1.1839713507782763	-0.3103251384864336	1.49429648926471	58.26669839137131
8	3.0	wm	420	diff_vonmises	0.08137516670682983	4.66245360947484	1.3955213608728672	94.24829899836465	1.3758688905131409	94.40146967222448	0.26849056003347016	-0.12497891172417575	0.3934694717576459	78.04340375271073
9	4.0	ltm	420	diff_vonmises	-0.3985292387262222	-22.834043391574177	18.797561954140615	0.24078720110533078	1.0547388709676693e-22	1.0075468406771522	0.25325347092399664	-0.16035606009039108	0.4136095310143877	31.222815159715054
10	4.0	perception	420	diff_vonmises	-0.06515155460200016	-3.732909107410745	2.936822292106774	2.3307329822376213	0.18728230623399705	3.016733320813644	0.9340676161881294	-0.41713488000931237	1.3512024961974418	75.92676572804913
11	4.0	wm	420	diff_vonmises	-0.23560898179549006	-13.499400272256226	0.8917169193399654	153.2881493157597	0.879270091146331	154.12162549491785	0.09790718427289846	-0.22071294197557378	0.31862012624847225	89.47095296404602
12	5.0	ltm	420	diff_vonmises	0.043570831857261974	2.496424775295265	1.4604381555711163	122.23419613794658	1.443213331883805	122.57435154477349	0.22798461947370185	-0.15675492257640755	0.3847395420501094	74.00592573606468
13	5.0	perception	420	diff_vonmises	-0.06236413636858907	-3.573201806898478	0.9837540136354853	202.88299489381222	0.9647891656055992	203.0436319384791	0.6755309223516832	-0.2946693311331483	0.9702002534848315	94.37411340366734
14	5.0	wm	420	diff_vonmises	0.1949573420238327	11.170232883054096	1.0152506903839522	1.4625559451973962	1.6223780433114847e-10	1.76215512600343	0.22352944231328725	-0.21429713331603734	0.4378265756293246	127.6165686576006
15	6.0	ltm	420	diff_vonmises	-0.4854901506272514	-27.816536626112125	0.679037923607716	106.27674989146897	0.6646039467367345	106.56363072356993	0.2122597513563953	-0.16840452966265484	0.38066428101905014	109.97884082029069
16	6.0	perception	420	diff_vonmises	-0.028728455618929765	-1.6460192588935707	0.7310385467501537	147.36525968025862	0.7146527838021242	147.53163031524153	0.41282065137126267	-0.23167032427145706	0.6444909756427197	108.5560576337467
17	6.0	wm	420	diff_vonmises	0.07704720485455567	4.414479661445908	0.0005373031634751948	2685.3007606359142	5.666414979882748e-27	2685.546879404924	0.1904858390952313	-0.26876619189761186	0.4592520309928432	179.71520495905884
18	7.0	ltm	420	diff_vonmises	0.10492136455246648	6.011551369609851	1.473589495960305	139.2585392513427	1.4549587591576798	140.20980832996935	0.05270104554650601	-0.2604617967253837	0.31316284227188973	67.13315910124356
19	7.0	perception	420	diff_vonmises	-0.13606836004052061	-7.79614275558837	1.9905751480211116	1.4272751103864105	3.6070084517644646e-16	2.1788184062669473	0.387431725218726	-0.33306612261190227	0.7204978478306283	97.2130782509539
20	7.0	wm	420	diff_vonmises	0.3368559225243301	19.30042266462996	0.7607638202231409	62.86109998051947	0.7401078685866176	63.52443054866451	0.054041114469409735	-0.16937240519166163	0.22341351966107137	96.43016061776603
0	1.0	ltm	421	diff_vonmises	-0.03614612083553854	-2.071020169646247	3.5975820911328626	0.5391723337853966	1.810450328348523e-17	4.134439924023996	-0.2669463167211661	-0.6577231663954511	0.39077684967428505	72.28946168137279
1	1.0	perception	421	diff_vonmises	0.045149955534624184	2.5869018973372984	5.862367532661381	0.9584725521042438	1.3888610911177603e-20	4.708742189991823	0.1546573608645806	-0.7494122779969453	0.9040696388615259	56.297761524885715
2	1.0	wm	421	diff_vonmises	-0.07166065504287635	-4.105853091099694	3.6613803361682216	0.719684698074148	0.07500461048182999	4.573602418542885	-0.2564079756234928	-0.7134056160055966	0.4569976403821038	66.5877331493522
3	2.0	ltm	421	diff_vonmises	0.25527163266615555	14.625987181184591	0.9328717707489833	1.7257280593458304	0.24208400172970995	3.082366203574523	-0.04816731211457992	-0.29248536334414366	0.24431805122956374	107.6368783715375
4	2.0	perception	421	diff_vonmises	0.03823952481164749	2.1909633822931953	5.378452266368813	1.8943010975905827	0.4983516091405698	3.104339322728188	0.9425114452213245	-0.5015546415093939	1.4440660867307185	54.27207744110663
5	2.0	wm	421	diff_vonmises	0.0385727939791988	2.210058299035724	1.8790771807009876	2.522015282165812	0.6614513560275457	3.9402646236367413	0.1605010552910029	-0.3726004788644154	0.5331015341554183	75.57610591072887
6	3.0	ltm	421	diff_vonmises	-0.20863016825335173	-11.953628120021309	1.0864072982355875	126.102492021457	1.069269692612616	127.18648808033066	0.021083383657483523	-0.25634639285659944	0.27742977651408296	77.48815359523937
7	3.0	perception	421	diff_vonmises	-0.014155747326421017	-0.8110645776575232	4.915787376499071	1.9654611718650494	0.3274724140162621	2.6973609586298597	1.1089253032219508	-0.4134089562491875	1.5223342594711382	58.413032132089654
8	3.0	wm	421	diff_vonmises	0.08820743552784144	5.053913777417628	2.3971667803041465	0.9296003882185019	0.0251238325463592	1.8473441103157577	0.23302588451776352	-0.28225039432431814	0.5152762788420817	87.49394250518219
9	4.0	ltm	421	diff_vonmises	-0.42512317678881006	-24.35776380319278	0.27454986266606346	176.5123832079054	0.2616351909910299	178.86750397657738	-0.07465879602540326	-0.5924454526791685	0.5177866566537652	142.75093656757736
10	4.0	perception	421	diff_vonmises	0.04096692816446097	2.347232083439238	1.871510802092417	4.786174147282925	0.4846826062808777	6.003029141992158	0.9076565709002913	-0.5715974968345033	1.4792540677347947	84.4768461577651
11	4.0	wm	421	diff_vonmises	0.03470252270527811	1.988308089469348	1.6434641616262062	1.4349558325914633	1.8290064896700523e-13	4.167615870146727	-0.006276199136563965	-0.6387448238026805	0.6324686246661165	106.1732711468402
12	5.0	ltm	421	diff_vonmises	-0.027095480065736737	-1.5524566516475695	0.7192895715345485	138.5970328385468	0.7010234826831458	139.80349828727577	0.13916542956977196	-0.3294724507361284	0.46863788030590037	100.37713096256363
13	5.0	perception	421	diff_vonmises	-0.07349642133719946	-4.211034751936779	0.9896042138891158	387.77639699671266	0.9757005846685128	388.8040653410731	0.6749525101929805	-0.4757659010054027	1.1507184111983833	90.5814221164251
14	5.0	wm	421	diff_vonmises	0.21626944695553846	12.391326548180784	0.23530373795460124	197.0100381675072	0.2236611116962165	198.27184176353242	0.15351078938809337	-0.47764592825433283	0.6311567176424262	151.65742713915768
15	6.0	ltm	421	diff_vonmises	-0.6244234043653198	-35.77682569932361	0.7033350633506158	185.2173586398439	0.691279981388912	185.99813838269006	0.2046434912721935	-0.26786806158392906	0.47251155285612256	104.41033502877818
16	6.0	perception	421	diff_vonmises	-0.10403995434428885	-5.961050284661526	0.6166386786604667	272.6041826784974	0.6032241343337413	273.38223820134215	0.4856943020936768	-0.43495097260737836	0.9206452747010552	114.83980536746085
17	6.0	wm	421	diff_vonmises	0.07624264334850006	4.368381682790232	0.6156092684412363	4.273694087967885	2.045922586704649e-16	5.262573806065133	0.30996139716484694	-0.5025512321192127	0.8125126292840597	146.15317772187115
18	7.0	ltm	421	diff_vonmises	-0.5867532719941355	-33.61848610075561	4.957481841053586	0.22491199112110458	1.0385645839207134e-25	1.911647395069628	-0.11012625734926573	-0.3042385349226756	0.19411227757340987	61.32774074614373
19	7.0	perception	421	diff_vonmises	0.12600333384424076	7.2194592338529215	0.6183765572903462	225.89668464585012	0.5993833201336347	227.76875503728036	0.31581767252549753	-0.5886284932424566	0.9044461657679541	110.23256309017034
20	7.0	wm	421	diff_vonmises	0.08344565042981884	4.781083588352644	0.5793998871508745	203.2805986074311	0.5683341333733861	205.31554401297467	-0.10362460011747032	-0.41780330960657963	0.3141787094891093	102.18305490917646
0	1.0	ltm	422	diff_vonmises	-0.30373636891063543	-17.402812023208	0.00059976251725766	1798.085333730514	2.7102342359275902e-28	1799.439562308037	-0.043874146313442	-0.38713873257370324	0.34326458626026124	177.34564856811727
1	1.0	perception	422	diff_vonmises	-0.1394803041353024	-7.991632752153952	11.216762480813877	0.8699056472982745	0.236832907301211	2.3331340199089246	0.6847497279437416	-0.4098477581800827	1.0945974861238241	39.44126055474939
2	1.0	wm	422	diff_vonmises	-0.09923566723569477	-5.685784909769975	2.4955051563260895	0.7824182930060191	0.20033541094740667	1.7732953525535575	0.11922697597195137	-0.24544068088549145	0.36466765685744285	78.23383081621074
3	2.0	ltm	422	diff_vonmises	-0.02345087662349874	-1.3436362564084803	3.790150985868815	0.4255975806949518	5.723005330990923e-19	1.3411706972864026	0.10422920645167438	-0.2132917761677663	0.3175209826194407	70.38445162985914
4	2.0	perception	422	diff_vonmises	0.005233004063832572	0.29982904703241486	5.169573987672739	1.450633345696406	0.431014119607458	2.2619792194065047	0.7512207941626003	-0.35702104806059864	1.108241842223199	55.92569503345686
5	2.0	wm	422	diff_vonmises	0.6097829785916667	34.93799109221874	3.7817933777903012	0.5404533250917798	1.4303214163750095e-15	0.9760506640848751	0.24760998303270387	-0.15513415005743317	0.402744133090137	70.4318779454567
6	3.0	ltm	422	diff_vonmises	-0.18612738119823513	-10.664313394481505	2.855421888887756	0.7012538638342737	0.344543396068487	1.3445718252179097	0.15321436250280301	-0.18210383652817957	0.3353181990309826	71.60003218423034
7	3.0	perception	422	diff_vonmises	-0.10114343823859993	-5.795092136513881	3.586061241792288	1.861669140831262	0.11220429468992539	2.6107920381530474	0.8844736805459226	-0.3877704402813537	1.2722441208272763	70.18395974307438
8	3.0	wm	422	diff_vonmises	0.31544288697763895	18.073546101240947	0.4941774238741598	85.83558406013165	0.4778638307275405	85.48833660712774	0.34537990287219955	-0.12746474951699938	0.4728446523891989	130.4944967951265
9	4.0	ltm	422	diff_vonmises	-0.26994434250436616	-15.46667152893414	6.8432480751686855	0.5637916929421543	0.39846178602021903	1.6417695311639413	0.20247111497051762	-0.2878001329945816	0.49027124796509924	48.050957295831836
10	4.0	perception	422	diff_vonmises	-0.12546199024413598	-7.188442530300501	0.9658584602399893	210.59798836274533	0.9402617043333972	211.97824965186032	0.5674635820776501	-0.5144509905413308	1.081914572618981	90.46418059300387
11	4.0	wm	422	diff_vonmises	-0.6339267906074605	-36.32132962208096	1.4057326179428893	149.79773404077838	1.38796085427145	150.73306531446553	0.08881441632203746	-0.26089525642725775	0.3497096727492952	69.83551644828471
12	5.0	ltm	422	diff_vonmises	-0.3759351700672442	-21.539498615385927	1.0783762345115793	139.79146653656161	1.0639629321652289	140.19657829555112	0.23513784454402753	-0.17315068870998118	0.4082885332540087	86.29637383818682
13	5.0	perception	422	diff_vonmises	-0.10041735551114507	-5.7534906606533704	2.5923354411680206	1.8128242041106286	0.05867178808822414	2.269167105770534	0.7086825598649912	-0.3343582272609986	1.0430407871259897	83.60631081668001
14	5.0	wm	422	diff_vonmises	-0.23712967953541964	-13.586529834669273	0.47870484194294605	108.92150198989324	0.46478793677296815	108.90116508774084	0.28688067298644526	-0.17326066580863397	0.46014133879507924	129.95061530109507
15	6.0	ltm	422	diff_vonmises	-0.3892145434916402	-22.300350667182006	1.576572554014947	0.8553086562695501	1.008138441891175e-18	1.6366764609631506	0.12135081617205162	-0.24417334004643781	0.36552415621848944	107.67230938539278
16	6.0	perception	422	diff_vonmises	0.10700132652111582	6.130724411961181	0.45462849982722303	151.31661695665673	0.4411071435265532	152.00159538120124	0.21749936668252445	-0.3081298492405864	0.5256292159231108	128.6881631942084
17	6.0	wm	422	diff_vonmises	0.5023885713035	28.784744811297774	0.0001440552611335386	4105.963402026181	7.450896371587936e-29	4106.613376842853	-0.009306117506071132	-0.19758051207509197	0.18827439456902084	172.4186312212625
18	7.0	ltm	422	diff_vonmises	-0.10545384288266042	-6.042060130612137	0.9332551974687818	134.95258204801308	0.9123160862766984	136.15406681780308	0.1469827470208287	-0.3197725638795106	0.4667553109003393	87.67720986348903
19	7.0	perception	422	diff_vonmises	-0.3470824967274977	-19.886362205348824	0.8362073886658087	228.69926307757305	0.8165507338453007	229.7552790176912	0.5342548773500511	-0.45076530080326904	0.9850201781533201	98.04517767899436
20	7.0	wm	422	diff_vonmises	0.4099022263522887	23.485667583002293	1.6381262534528878	93.9391847099903	1.6141352784506533	93.96147413181039	0.3734959002638547	-0.12827148125426113	0.5017673815181158	73.55655308626788
0	1.0	ltm	423	diff_vonmises	0.022800424072625558	1.3063680704699285	5.9296997026303	0.4501053375401559	0.10507684490014228	3.392696183728683	-0.1709873677237994	-0.5496363777668856	0.37864901004308615	52.57665722960758
1	1.0	perception	423	diff_vonmises	-0.12007411439153491	-6.879739983406009	16.763038876730743	0.5796724595468808	0.06635972542541739	3.4247022526958	0.3577169799360095	-0.5658300762526042	0.9235470561886137	32.74622894997708
2	1.0	wm	423	diff_vonmises	-0.22121397376011007	-12.674627065772045	3.451514451165237	0.6838916778717768	0.17297260145755675	3.2932761827270753	-0.13376053376172486	-0.5081500928773229	0.37438955911559807	65.32791098961499
3	2.0	ltm	423	diff_vonmises	-0.1095461432134357	-6.276531668065552	2.7408146300741665	0.7336871411719901	9.529516735120261e-22	2.824614491886047	0.006664359062481584	-0.44765222024118906	0.45431657930367064	83.05824999677998
4	2.0	perception	423	diff_vonmises	0.0023065977935086005	0.13215831860223096	6.08274713085801	1.453433659047731	0.33142578108910137	3.5893357111408424	0.6236817981367624	-0.5983883615194807	1.222070159656243	51.63741532236685
5	2.0	wm	423	diff_vonmises	0.17416317347407426	9.978814786669266	3.6748369341109552	0.5474701689109794	0.019435413496487478	2.476630850641816	-8.274764649929267e-05	-0.38875289734748447	0.3886701497009852	70.18019988316402
6	3.0	ltm	423	diff_vonmises	-0.1978952935545235	-11.33856510617668	1.9530518606153153	2.179510779199845	0.4054326722087126	4.324958609944471	0.11698592834413413	-0.5053481658574499	0.622334094201584	79.0087876842698
7	3.0	perception	423	diff_vonmises	-0.06556817223471004	-3.7567795394357524	2.6302841552717635	4.2534295256066335	0.5931722197627723	6.562939749652886	0.8480395986001115	-0.7752853602071108	1.6233249588072223	70.64188322160476
8	3.0	wm	423	diff_vonmises	0.06421375101891975	3.6791769200879916	1.887998044276775	1.530541404788265	0.1833224560269728	3.168023958529128	0.16187510965794205	-0.41130147936819794	0.57317658902614	88.68903510812217
9	4.0	ltm	423	diff_vonmises	-0.27364423625229356	-15.67865982533722	0.8022895888467628	103.93961287331433	0.767950001185351	107.00749499492197	-0.2311694524044725	-0.6029873130844319	0.37181786067995937	83.83015526790462
10	4.0	perception	423	diff_vonmises	-0.14779034361184762	-8.467762941747095	0.9177915222335024	568.2506128776178	0.9052472797441176	571.0970928748386	0.43529309815247075	-0.7898590760989492	1.22515217425142	88.98696649943948
11	4.0	wm	423	diff_vonmises	-0.48211294668827553	-27.62303709385385	0.7033709836887652	180.11197750799357	0.6885676792883779	183.0211704741111	-0.31340593480843637	-0.5366453468214587	0.22323941201302233	83.54426332035132
12	5.0	ltm	423	diff_vonmises	-0.15849169002987726	-9.080904926607635	1.9466082972558711	1.5795467220313977	0.17171884665497367	2.7720529316368427	0.28163073357195034	-0.35949310110484184	0.6411238346767922	89.53734451421123
13	5.0	perception	423	diff_vonmises	-0.09016970310873777	-5.166343428078333	0.9884891805208341	322.5860203633299	0.9704174441093272	324.0798517732061	0.6026000343916706	-0.5497873253141456	1.1523873597058163	89.13321036918282
14	5.0	wm	423	diff_vonmises	-0.16102374872703726	-9.225981203434298	0.5183760504316979	155.66986920825374	0.5036555760133518	156.75420749381405	0.16071912482366457	-0.35393068890946466	0.5146498137331292	119.78878974625604
15	6.0	ltm	423	diff_vonmises	-0.35702455827490936	-20.45600037167482	0.8528742861492313	153.72266611387602	0.8375582680205454	155.0383824714801	0.040348999849015854	-0.3068597025586257	0.34720870240764157	88.57389760777552
16	6.0	perception	423	diff_vonmises	-0.07206921140781447	-4.129261646503855	0.41888824213574555	153.8740124866434	0.403373846192815	155.29847813905678	0.11304228055276866	-0.4356619653994205	0.5487042459521891	129.6306326033494
17	6.0	wm	423	diff_vonmises	0.2027818546378554	11.618544432584473	0.4428524075810901	1.9760036321889451	1.0995572145890443e-22	3.287282879559354	-0.05664166562205686	-0.3307692031281546	0.27412753750609775	154.3934841223266
18	7.0	ltm	423	diff_vonmises	-0.35313871929703594	-20.233358198375242	1.1120450220902143	194.00893608488246	1.0932575570496177	195.83273517817088	0.026950598384203772	-0.43128786000104213	0.4582384583852459	76.37400408260443
19	7.0	perception	423	diff_vonmises	-0.20619349883702134	-11.814017246396972	0.5279539471053993	266.2002814337605	0.5141571464064069	268.6039667842406	0.08914557270080081	-0.6209537359687616	0.7100993086695624	114.92473590075296
20	7.0	wm	423	diff_vonmises	0.2632607147344921	15.08372786588392	1.1905127727304854	161.43050252087988	1.1706037658800852	163.40133668184913	-0.14112562630359804	-0.4340332693732343	0.29290764306963624	68.80967825649469
0	1.0	ltm	424	diff_vonmises	0.08740532477131453	5.0079562163665905	3.4947045940586046	0.5826469820629394	1.5148300578993642e-22	4.306805787561874	-0.26959633597654126	-0.6850661835918119	0.41546984761527067	73.37381620220157
1	1.0	perception	424	diff_vonmises	-0.023236271825890012	-1.331340307242241	7.880549043651145	0.885428678744221	0.06985003289118667	4.567663590638319	0.19612190414762287	-0.7382876746017084	0.9344095787493313	47.29799732342045
2	1.0	wm	424	diff_vonmises	-0.04450050663401282	-2.5496912163228553	2.6389466684633005	0.9396654045252094	0.09748195457719233	4.581645581156034	-0.23038707652732004	-0.6894362025052819	0.4590491259779619	76.25295961107867
3	2.0	ltm	424	diff_vonmises	0.13351278077353362	7.649718849378879	1.796040640770368	0.6313716993484135	1.3959381522421832e-21	2.433213012963251	-0.08212989424504474	-0.37885379983895573	0.296723905593911	101.9779122778327
4	2.0	perception	424	diff_vonmises	0.010374258848084909	0.5944012475715164	5.8961056395032	1.5377667681652794	0.3467355531644766	3.103856171305765	0.7767082158558416	-0.509829772652026	1.2865379885078676	52.75608719588624
5	2.0	wm	424	diff_vonmises	0.1317741893872492	7.550104900646982	2.481706267253723	1.2747558784321165	0.34487480766020223	2.812389980876636	0.1344487825982128	-0.3720851939438384	0.5065339765420511	74.05627966441511
6	3.0	ltm	424	diff_vonmises	-0.21271417750986643	-12.18762461391196	1.2384891731386385	2.803585773276211	0.5605239519698563	4.026417864013622	0.04359669049709214	-0.28550075417151366	0.3290974446686058	87.22909529545562
7	3.0	perception	424	diff_vonmises	-0.05554359336524284	-3.1824134788192557	3.8574593577270733	2.143254571039602	0.27801445294127025	3.129451444265741	0.9702566279605535	-0.45447128756085453	1.4247279155214079	65.4881873164978
8	3.0	wm	424	diff_vonmises	0.028711872416268932	1.6450691113702949	2.207292187617036	1.0837992850537104	0.053583579234671344	1.8837662203291154	0.2771719426757482	-0.27678623470640845	0.5539581773821567	89.86893490313068
9	4.0	ltm	424	diff_vonmises	-0.2614093703694885	-14.97765364734389	0.41538697859837026	106.5892917484504	0.39393980486243807	108.92053242752941	-0.1096145371687669	-0.5201215833334558	0.4105070461646889	123.73992034061644
10	4.0	perception	424	diff_vonmises	-0.032871225217706995	-1.8833824723986115	2.0233042582858025	3.5659325765882937	0.3276757545526945	5.169629242164379	0.7407764687259828	-0.5937956430489361	1.3345721117749187	84.56314772099361
11	4.0	wm	424	diff_vonmises	-0.1246281173048399	-7.140665130228666	0.5786782544255876	188.57184678883937	0.5640151843365044	190.92855842688306	-0.08805424172298615	-0.49958189517268536	0.4115276534496992	103.92803381945286
12	5.0	ltm	424	diff_vonmises	-0.14676586809954328	-8.409064818677555	0.607556790099744	156.8002320153685	0.591495354776065	158.29085638885417	0.08317965113769077	-0.38269279899447284	0.4658724501321636	107.50307493855946
13	5.0	perception	424	diff_vonmises	-0.05943271504019681	-3.405243736806968	0.9727627105380495	373.97325367820997	0.9572517593706931	375.4441802951755	0.6096364421781857	-0.5488456745887973	1.158482116766983	89.91709650019433
14	5.0	wm	424	diff_vonmises	-0.06352692319134486	-3.639824584315811	0.3275829149646975	205.96488814626676	0.3166120422211436	207.30311386478775	0.12163012645066829	-0.445710921726004	0.5673410481766723	140.73056192606032
15	6.0	ltm	424	diff_vonmises	-0.5005498658866466	-28.679394751144233	0.6263434446605204	235.05919771911167	0.6151599180077467	236.61374142533285	0.08120531469779024	-0.392383562761502	0.47358887745929223	105.36892996016901
16	6.0	perception	424	diff_vonmises	0.026675183785959386	1.5283754486712775	0.48848438759618884	283.93928702634787	0.4758951378013417	285.36714934523354	0.3202711114548009	-0.5429620415343557	0.8632331529891566	124.21098511436777
17	6.0	wm	424	diff_vonmises	0.08255903386660837	4.73028420123429	0.7384862135583065	2.6296600833174284	1.0869658579832033e-20	4.240730193617728	0.0926557697516297	-0.4996683160087352	0.5923240857603649	140.15034083548346
18	7.0	ltm	424	diff_vonmises	-0.5344874076752982	-30.62387266268283	2.8305975335325138	0.5073267298207595	1.9057908393420156e-21	2.3011550994219574	-0.044863526582912816	-0.36512220951796315	0.32025868293505033	81.615410859342
19	7.0	perception	424	diff_vonmises	0.006956470154629841	0.3985763801690091	0.5094728405970137	347.66060709944463	0.4980157115760457	349.7623492905974	0.22707587836897858	-0.6390038084296599	0.8660796867986384	119.65646047746532
20	7.0	wm	424	diff_vonmises	0.1845986797956381	10.576725255976966	0.6965159145835678	182.13915213864456	0.6811807171660464	184.09365271695827	-0.01708016271300039	-0.4298790894762661	0.4127989267632657	96.31429118346796
0	1.0	ltm	425	diff_vonmises	-0.2038327756949426	-11.678757773756997	0.0002902611698459671	2295.0954568037464	3.1619366343126474e-31	2297.553669957825	-0.2852053713872351	-0.4972527913456588	0.2120474199584237	178.79842335957915
1	1.0	perception	425	diff_vonmises	-0.1045197448033647	-5.9885402530172165	11.346959089185512	0.7772336526583631	0.16665611631213892	3.3686941582132257	0.40348666816154655	-0.5776743960540398	0.9811610642155864	39.1547266749553
2	1.0	wm	425	diff_vonmises	-0.04262681860219054	-2.442336799975265	2.6724655021607155	0.7080544264142736	0.09616336655562369	2.7641386384282876	-0.049358184529258275	-0.41311837386714506	0.3637601893378868	77.22032419494585
3	2.0	ltm	425	diff_vonmises	-0.051136849499874105	-2.9299256539384606	7.52305115726191	0.2786708174727567	5.212908824298021e-40	1.59880362419638	0.04505439550773932	-0.25445741232979247	0.2995118078375318	49.57935087170392
4	2.0	perception	425	diff_vonmises	-0.008719565752959055	-0.4995943168313656	7.558842455497932	1.2953389209650175	0.40116611202412267	2.6009626101275134	0.8011413775300674	-0.45489349011880165	1.256034867648869	46.88357214374881
5	2.0	wm	425	diff_vonmises	0.3442056436026774	19.7215306630176	3.7960877128282315	0.4780108488774804	0.023073156330131676	1.4949840075734853	0.11366665266372067	-0.23399183618991076	0.34765848885363143	69.25937061988321
6	3.0	ltm	425	diff_vonmises	-0.27276930049423176	-15.6285296990552	3.3983997185318655	0.46387941225017715	0.31949078486735977	1.156813401138084	0.07887373710948728	-0.1701784941356745	0.2490522312451618	65.77293095222592
7	3.0	perception	425	diff_vonmises	-0.0768207570189034	-4.40150515618316	4.563284826930155	1.792666752223539	0.40796519948813675	2.437706631855359	0.9202228372709642	-0.3656011968564026	1.2858240341273668	59.72327262061336
8	3.0	wm	425	diff_vonmises	0.1299124702533359	7.443436251635	1.2359205017755022	120.93125942789486	1.2203710348101942	121.14876658462207	0.2625561388791837	-0.1387280542767364	0.4012841931559201	82.31354904351764
9	4.0	ltm	425	diff_vonmises	-0.37384519379072606	-21.41975179545897	17.06958577352643	0.21123222809700154	1.9385696262289005e-16	1.7155193661175057	0.07235126899421318	-0.27303338708747543	0.3453846560816886	32.78095420294437
10	4.0	perception	425	diff_vonmises	-0.08286148013775041	-4.747613096100197	2.485035788498098	2.4786071239183722	0.3627084829415485	3.8183121627051304	0.6102490515369204	-0.4735384729037548	1.0837875244406752	76.84562307545173
11	4.0	wm	425	diff_vonmises	-0.3118830932667185	-17.86958494566799	0.81517509730244	136.02302740849856	0.8024044289338584	137.40125923992335	-0.08741280988981259	-0.27685029310982756	0.18943748322001497	83.9293530152276
12	5.0	ltm	425	diff_vonmises	-0.1999610857317511	-11.456926279282962	1.0017294081171648	85.3005992339078	0.9708368669833339	86.57563674707987	0.07038893029072213	-0.31086264479379544	0.38125157508451757	82.63903766989507
13	5.0	perception	425	diff_vonmises	-0.073556310095067	-4.21446612500287	1.1379503389994248	19.18785107897634	0.8755791558145786	20.56422525709347	0.5130562170996331	-0.4887808349621201	1.0018370520617532	87.69387565108798
14	5.0	wm	425	diff_vonmises	-0.13016136381877405	-7.457696802482569	0.5337411317184294	43.78966913440834	0.4896464776614516	44.57910367150879	0.16824041877603513	-0.2881237737892963	0.45636419256533145	120.91088636487153
15	6.0	ltm	425	diff_vonmises	-0.40803151112110425	-23.378483495584586	0.7352468643851077	88.61597757530866	0.7057598818522995	90.063442576887	0.08494098335633637	-0.35797181209127515	0.44291279544761153	97.64488206390085
16	6.0	perception	425	diff_vonmises	0.17858676291057823	10.232267791679599	1.1330249568657373	2.119931837884147	6.994053743806468e-13	3.578178343777734	0.20789986662732474	-0.48885209582734723	0.696751962454672	123.0034509147473
17	6.0	wm	425	diff_vonmises	0.3108372247665916	17.809661094685044	0.0004677326549979535	2237.5241538248774	2.8735068135884475e-23	2238.9727866809308	-0.06397283257882691	-0.3971023737078099	0.33312954112898296	176.9145734053722
18	7.0	ltm	425	diff_vonmises	-0.20071636306429388	-11.500200482799563	0.9124190605922551	169.35114233832462	0.8976141609977525	170.93976530613122	-0.03458825162908852	-0.34438403453940936	0.30979578291032084	82.59063092789488
19	7.0	perception	425	diff_vonmises	-0.2649885939129581	-15.182728050318556	0.5203291181368286	99.7401136450768	0.4888840722462308	101.43469990785711	0.17198981363148036	-0.5082475211701052	0.6802373348015855	119.23789688465585
20	7.0	wm	425	diff_vonmises	0.48689164114775274	27.89683611796444	1.9290240428226277	1.5319415975450548	0.46321054512620247	2.714655712519527	0.12200680223342975	-0.2986065729485725	0.42061337518200226	79.04677395899293
0	1.0	ltm	426	diff_vonmises	-0.6539751272612832	-37.470014698602434	0.00037790919504296594	1739.3771297613891	3.791751565420042e-23	1740.855757966876	-0.13070784723061024	-0.3399343634055185	0.20922651617490828	168.14118111143154
1	1.0	perception	426	diff_vonmises	-0.11288482904012148	-6.4678242750547925	14.491265586638653	0.754625983388574	0.14820825992719633	2.4375685702915817	0.6878051853692104	-0.41834354769211496	1.1061487330613253	35.07668303046316
2	1.0	wm	426	diff_vonmises	-0.1490944822105122	-8.542484579350681	4.6028287955219485	0.32171963993448827	2.065156505978515e-10	1.5227429321505317	0.02449745823881938	-0.24232524658523447	0.26682270482405385	63.71045765588059
3	2.0	ltm	426	diff_vonmises	-0.11612447153253358	-6.653442117001249	11.746180671604712	0.3029858018067307	8.386727095348287e-32	1.210298315931972	0.21696441889234608	-0.1926249595706698	0.4095893784630159	39.573247585460905
4	2.0	perception	426	diff_vonmises	-0.01868513361649004	-1.070579295862896	7.725795328468582	1.3017688025032514	0.387301618048647	2.311561073197249	0.8964293691832671	-0.4017381242645275	1.2981674934477945	46.71727392291638
5	2.0	wm	426	diff_vonmises	0.24326143361717084	13.937853464565732	3.376890726733915	0.3831443306060313	4.39822685042408e-19	1.2676325448734118	0.06653082598133206	-0.20143704536687546	0.26796787134820754	74.6688344808716
6	3.0	ltm	426	diff_vonmises	-0.1768960013590487	-10.135394290613965	1.63417012018128	67.44587614588411	1.5993840842012317	68.01249136085691	0.14504209888712438	-0.1951098071556867	0.3401519060428111	67.07789301125294
7	3.0	perception	426	diff_vonmises	-0.056574381220471995	-3.241473272497229	3.5652604803966614	2.823612665696425	0.7682269481243991	3.3554704471137895	1.0392301600267015	-0.4224539280037708	1.4616840880304722	63.303942305382265
8	3.0	wm	426	diff_vonmises	0.06943171998269194	3.9781445193423894	1.412264065133919	146.98310551186353	1.3977087806617357	147.25835329984258	0.2672236387365885	-0.15321983711843679	0.4204434758550253	76.26742134876076
9	4.0	ltm	426	diff_vonmises	-0.3496353243291923	-20.03262845275043	8.512954251616264	0.3845161640490412	0.32680901115741684	1.6435912002451056	0.08740704126275584	-0.2955761962034259	0.38298323746618174	43.40036070796245
10	4.0	perception	426	diff_vonmises	-0.13810241209437574	-7.912685353584186	2.0720531595238034	3.6458493680455533	0.5057647666600276	4.973720858693796	0.6888713404419509	-0.5119749193383955	1.2008462597803464	79.98430178923195
11	4.0	wm	426	diff_vonmises	-0.47923314490411695	-27.458036605787317	1.0463683680632891	131.99812888881806	1.0313469072405503	133.1868485480694	-0.03952086381027442	-0.2611535406930727	0.2216326768827983	76.18654882293198
12	5.0	ltm	426	diff_vonmises	-0.05280391292239715	-3.0254413522296657	1.2959099440878545	129.56544318464705	1.2772489190994643	130.15849860754952	0.2072443236017989	-0.20716947558369547	0.41441379918549437	76.82659810563567
13	5.0	perception	426	diff_vonmises	-0.08709920492833075	-4.990416841338412	1.9501978853681234	2.7503535048183276	0.35355001424600263	3.4217282888753098	0.6455110451928456	-0.3676614591488998	1.0131725043417454	86.5972982509073
14	5.0	wm	426	diff_vonmises	-0.0764532810900204	-4.380450336385516	1.6294698792074322	0.9241085171831648	1.2475812622488131e-17	1.4202627602830027	0.1948664559437022	-0.20986554103667115	0.4047319969803733	106.56977655217948
15	6.0	ltm	426	diff_vonmises	-0.371233880264273	-21.27013455140779	0.7468032581362309	44.36540421004466	0.7087808708990827	45.12284329540214	0.1050348220904489	-0.21346417388662564	0.31849899597707454	99.73643548750272
16	6.0	perception	426	diff_vonmises	0.10865190111149249	6.225295369761298	0.9211709827427695	1.9236179971165572	1.897944303027139e-13	2.6334665278355	0.20941397315161608	-0.31953769541964605	0.5289516685712621	131.8067890195704
17	6.0	wm	426	diff_vonmises	0.1649035169871384	9.448275550226906	0.00023460066194133078	3437.0206231179714	4.976929250835097e-32	3437.768086737197	0.009372045249278926	-0.24728205338817588	0.2566540986374548	179.03849747034138
18	7.0	ltm	426	diff_vonmises	-0.07302146523760551	-4.183821771976051	1.267868204334652	173.22528721423458	1.252682007652685	174.2533844771862	0.08162277949250552	-0.2719549039025395	0.35357768339504503	73.33719536927714
19	7.0	perception	426	diff_vonmises	-0.30772142202047664	-17.631138747537385	0.7464113218202817	203.92386673049708	0.731114037571347	205.0341985775994	0.27280151739166314	-0.3646890685929556	0.6374905859846187	101.10390990843116
20	7.0	wm	426	diff_vonmises	0.6730545612699216	38.56318574279578	12.10331534207504	0.2555804600078513	0.02149034939913274	0.9838941688544083	0.1908160443824337	-0.15768112489529368	0.3484971692777274	38.82690977359138
0	1.0	ltm	427	diff_vonmises	-0.09177325559816128	-5.258220217949996	0.2778059662089165	3.3958214851768393	8.187797846878097e-12	6.737089276664458	-0.3722795877990357	-0.6706561457588182	0.29837655795978246	164.05744695806857
1	1.0	perception	427	diff_vonmises	-0.056600224666331085	-3.2429539928730295	6.946206287965184	1.02580715680374	0.13172207974618205	4.362009961513123	0.2690717553287203	-0.7124615596317183	0.9815333149604386	49.605066732329135
2	1.0	wm	427	diff_vonmises	-0.042858611935216	-2.455617579676894	2.052664601903327	1.4418554025338628	0.24557427137539867	4.50284827434553	-0.1469217579502884	-0.6099129514075929	0.46299119345730455	78.52531132872576
3	2.0	ltm	427	diff_vonmises	0.05120025175257592	2.933558335429897	1.7285535112091721	0.5749643979286433	2.825912050611299e-17	2.3294107855145825	-0.09926337770260568	-0.36218014253539166	0.262916764832786	103.80213597433075
4	2.0	perception	427	diff_vonmises	0.021454701288903	1.2292638345680293	5.4179601955199175	1.6687608042813227	0.41159058641040447	3.238887008245607	0.7639913945502234	-0.5263168619100244	1.2903082564602477	54.26930280282127
5	2.0	wm	427	diff_vonmises	0.4181978954287916	23.9609744093231	3.5709861914080276	0.6178746451945166	0.007920558588947251	1.9372959340100577	0.13553887539563403	-0.3056578260583522	0.4411967014539862	72.1006916600416
6	3.0	ltm	427	diff_vonmises	-0.15828830088489398	-9.06925158700132	1.8021838792550904	0.8146650790404901	0.19759734395479078	1.9328899443904364	0.023336115717876638	-0.24985764127325139	0.273193756991128	87.9996938694839
7	3.0	perception	427	diff_vonmises	-0.08119244724297164	-4.651984555360872	3.8629125107384934	1.8366350389740256	0.19682712153551996	2.8466100371185745	0.8390232176600207	-0.42035033174358105	1.2593735494036018	66.3319811220693
8	3.0	wm	427	diff_vonmises	0.22637175601146603	12.970146220422226	0.6732750265991527	116.12927068964021	0.6570538343660334	116.50197837238652	0.25537881444844857	-0.20976825321166181	0.4651470676601104	110.37983206996574
9	4.0	ltm	427	diff_vonmises	-0.4130230571195213	-23.6644780145393	0.8005664128254107	121.6283508446951	0.7758764025132134	123.97815234838981	-0.1292041856093462	-0.47676820522469754	0.3475640196153513	85.93816810713852
10	4.0	perception	427	diff_vonmises	-0.03067775431235313	-1.7577058470370954	1.9684216707732953	2.923703266664658	0.30165207960047974	4.486603440761684	0.5499359549175634	-0.523797221768624	1.0737331766861873	85.6412376892088
11	4.0	wm	427	diff_vonmises	-0.3953280736289504	-22.650630141975917	0.7883873328017978	207.49341143202764	0.7745457913669379	209.85571265641326	-0.1573589610548325	-0.47024505933829985	0.31288609828346736	85.07382441249011
12	5.0	ltm	427	diff_vonmises	-0.37438511885125547	-21.450687222680653	0.7479188931456258	176.5250978974771	0.7330246601553546	177.78036413895555	0.13668710313774568	-0.3360053478140408	0.47269245095178647	98.01004787656355
13	5.0	perception	427	diff_vonmises	-0.11078969400418771	-6.3477818799857975	1.8723290936928596	3.9469068638545934	0.5079245008671115	5.171016564483256	0.6727596027226017	-0.4919428259015899	1.1647024286241916	83.24168632181821
14	5.0	wm	427	diff_vonmises	-0.14025130334423383	-8.035807752833646	0.3490617843005501	173.85743706867675	0.33769892775199556	174.6146425800853	0.19340085494568626	-0.33682888861427784	0.5302297435599641	139.64354774335885
15	6.0	ltm	427	diff_vonmises	-0.46808024138690624	-26.81902230493453	0.6103753834724408	174.20322596385932	0.599113470125642	175.36996273404927	0.061851672041932204	-0.29710018547388195	0.35895185751581415	106.8783872855707
16	6.0	perception	427	diff_vonmises	0.1678142644899638	9.615049097367047	0.13890983363027395	232.64039083006088	0.12899110094500002	233.8383635811763	0.17405357855844272	-0.508030147014459	0.6820837255729018	163.49339858635324
17	6.0	wm	427	diff_vonmises	0.3859926807855502	22.11575153195245	0.00023566690661473943	4741.845923514329	4.765925291117103e-28	4743.141335513677	-0.0283060704368836	-0.38401541853477283	0.35570934809788923	175.38621241477688
18	7.0	ltm	427	diff_vonmises	-0.606308002197622	-34.73888961093238	0.42420626967727915	2.929604520765594	9.70790133819503e-16	4.561786338083497	-0.04442206160363171	-0.43423566070237474	0.389813599098743	149.75541461630283
19	7.0	perception	427	diff_vonmises	-0.14967339263702079	-8.575653703505742	0.6463401520260115	198.36108967500346	0.6239750715822924	200.30996662817122	0.31582707899544715	-0.5958116556645336	0.9116387346599808	107.67991710775186
20	7.0	wm	427	diff_vonmises	0.18657360042748133	10.689879873054892	1.4086990433867363	2.3742396825746432	0.35779172195359094	3.9866374853390125	0.11104525008999078	-0.3949497067870825	0.5059949568770733	91.45618726163227
0	1.0	ltm	428	diff_vonmises	-0.06711494698603145	-3.845403204543867	1.0572038036553286	1.0987081973963306	3.7455706803082416e-18	3.5878112884436786	-0.18372123823168424	-0.5242689858007689	0.3405477475690846	126.20676749050374
1	1.0	perception	428	diff_vonmises	-0.06318913626984782	-3.620470819339314	9.78063311796891	0.8619552797936051	0.061246586267712705	3.4798437235789033	0.47249093682003984	-0.564086300142357	1.0365772369623967	42.83677441231907
2	1.0	wm	428	diff_vonmises	-0.06418814228340519	-3.6777096476243405	3.2251801886946807	0.6464467300482563	0.054698534205071536	3.0003311184568995	-0.06288934390496909	-0.4628519335513598	0.3999625896463907	72.62829631125078
3	2.0	ltm	428	diff_vonmises	0.07111229054114825	4.074434119515879	2.6316335879368813	0.468317160519411	4.8696365597843805e-18	1.764398321766225	0.0036072656550674154	-0.2793398793451487	0.2829471450002161	84.77960145038676
4	2.0	perception	428	diff_vonmises	0.006980675268624398	0.39996323104353027	5.863987629155823	1.5380684215845457	0.38143913861760187	2.626586584229549	0.8605189877642215	-0.4288085278670417	1.2893275156312631	53.034222823137526
5	2.0	wm	428	diff_vonmises	0.1860330136567342	10.658906532630475	2.561969327440167	0.9285681403257663	0.253278841076115	2.0149658666329566	0.1485708463199199	-0.2746905861031748	0.4232614324230947	76.06677034643408
6	3.0	ltm	428	diff_vonmises	-0.20207094353442587	-11.577812226748973	1.069608400570245	82.68446364405314	1.0452587769406516	83.54342460135867	0.0778870973818293	-0.2211432734349188	0.2990303708167481	80.78483493974716
7	3.0	perception	428	diff_vonmises	-0.05113788126712832	-2.929984769847567	4.023580750730005	2.04333896222464	0.2851551377657298	2.6681843195326493	1.0226099384019287	-0.38798554716604283	1.4105954855679714	64.51971195043129
8	3.0	wm	428	diff_vonmises	0.05755287685539148	3.297536942650089	0.8841242683254034	64.65568916419106	0.8501994431711152	65.10633277079302	0.27715003840462415	-0.20926959800824108	0.48641963641286523	96.31185166657573
9	4.0	ltm	428	diff_vonmises	-0.2612205380641064	-14.966834353209768	3.047836140898106	0.5523225034287762	6.420432808079325e-25	2.1886130688683605	0.016691682350673753	-0.347506344657106	0.36419802700777976	78.68320211656518
10	4.0	perception	428	diff_vonmises	-0.05506419153879131	-3.15494577747272	2.3178147134059617	2.835176000705975	0.22604741725490085	4.07836182063779	0.7944377475033275	-0.5234467678758212	1.3178845153791487	82.85379694823646
11	4.0	wm	428	diff_vonmises	-0.23644599284810175	-13.547357472976678	0.7204329213137618	219.6679791026333	0.709022895919902	221.3239129569355	0.003932319260471218	-0.3706681760751529	0.3746004953356241	95.17720386299465
12	5.0	ltm	428	diff_vonmises	-0.1396562502732362	-8.001713723279185	0.7910741299720859	147.20187183182784	0.7763132411690586	148.1285394830965	0.13776275949599892	-0.26077010551606605	0.398532865012065	96.1924170607465
13	5.0	perception	428	diff_vonmises	-0.06506966336659573	-3.728217085242959	0.9939258936987841	178.26634494515886	0.9657398880652335	179.11834947616845	0.6664700650555844	-0.43532051561046536	1.1017905806660497	91.22393613455628
14	5.0	wm	428	diff_vonmises	-0.03197914339353793	-1.8322699488933927	0.36993272957412743	145.55378844252706	0.3566713982069108	146.34916532139067	0.17592090880115308	-0.3295540871988809	0.505474996000034	137.3125771129682
15	6.0	ltm	428	diff_vonmises	-0.48054480662433685	-27.533189286504786	0.5933951195813875	171.15722096929193	0.5815277654846641	172.12694186384695	0.12981069005772383	-0.29119045044156167	0.4210011404992855	111.40336098981126
16	6.0	perception	428	diff_vonmises	0.03041352477958669	1.7425666099868646	0.4901375307009074	232.0698852989183	0.4777264690195435	232.8859411544305	0.33897324375376314	-0.4055504904999836	0.7445237342537467	125.68088446394036
17	6.0	wm	428	diff_vonmises	0.10613781421581579	6.081248801309877	0.33703614273890964	4.505121629015984	5.745425898914889e-11	5.471822938919026	0.10558831532090451	-0.3732370527742552	0.4788253680951597	160.6577814399542
18	7.0	ltm	428	diff_vonmises	-0.2633747979955073	-15.090264355253181	1.2466380840968534	1.7845343471375976	0.36335395938998877	3.1419210882739255	-0.004083543146105262	-0.2976877534854673	0.293604210339362	92.37213614160261
19	7.0	perception	428	diff_vonmises	-0.06792138424592423	-3.8916086559778176	0.5988241720559654	244.0292611419519	0.5832709257897519	245.49069929807976	0.33425324909559606	-0.5135241596956064	0.8477774087912024	113.14853438648986
20	7.0	wm	428	diff_vonmises	0.20067637879371353	11.4979095528484	0.721840376862061	112.66182820782544	0.7021054603433299	113.92005844666106	0.0654154540768559	-0.3081473834065136	0.3735628374833695	97.97714273117012
0	1.0	ltm	429	diff_vonmises	-0.35091833140566286	-20.10613934331761	0.00027358166800562874	2742.5794880954045	1.1127970284588253e-30	2744.0554410659797	-0.11548019645465502	-0.354313890575952	0.23883369412129696	176.4929795617296
1	1.0	perception	429	diff_vonmises	-0.06557563341728855	-3.7572070337076777	11.181886266112084	0.9583208016089391	0.10423262447702955	2.655759698048896	0.795555138011457	-0.4394048815272408	1.2349600195386978	40.03907836981375
2	1.0	wm	429	diff_vonmises	-0.007864811105065504	-0.45062048298787444	4.2625612681972544	0.3512740412103044	1.4716957118132762e-11	1.6471364967790563	0.01739316305433397	-0.26209443372923164	0.2794875967835656	66.26941782291178
3	2.0	ltm	429	diff_vonmises	-0.14155597942228504	-8.110560185737661	11.301790373382255	0.21086585441144134	4.343428420304364e-30	0.9046441718475313	0.1355601357994489	-0.14397859164616544	0.27953872744561437	40.344886115596495
4	2.0	perception	429	diff_vonmises	-0.02071231255718921	-1.1867280934827593	8.247923379579214	1.36863673863502	0.38403632820981093	1.8879234809908367	1.117465979262532	-0.32781026255835904	1.445276241820891	45.70776648992634
5	2.0	wm	429	diff_vonmises	0.09663103139351571	5.536550268844612	2.9645289316840207	0.5203470098159375	0.09441974851964545	1.2388957560339353	0.12224909964500794	-0.1841558662506003	0.30640496589560823	75.85148103978699
6	3.0	ltm	429	diff_vonmises	-0.18176281892397914	-10.414242396744616	1.6355410024724093	61.18238020212929	1.6168956175673503	61.44247285378263	0.07626117520807085	-0.09268389166176672	0.16894506686983757	67.26531795191735
7	3.0	perception	429	diff_vonmises	-0.04451582199861491	-2.5505687220762594	4.302241397761665	2.11046553675814	0.7952363979938046	1.9342737515447501	1.102392314547029	-0.2560312746585175	1.3584235892055463	59.943186807530594
8	3.0	wm	429	diff_vonmises	0.00799158702544797	0.4578842081696763	1.5233387015492146	112.21820134634105	1.5078049745780637	112.32715516938971	0.25657124430132683	-0.11061969791636628	0.3671909422176931	74.93961210787018
9	4.0	ltm	429	diff_vonmises	-0.37370269162196473	-21.41158702261749	20.764846141939	0.18160162988960896	0.0165010743358551	1.0806654310739239	0.15308681272476965	-0.17362807342017514	0.3267148861449448	29.641683039027725
10	4.0	perception	429	diff_vonmises	-0.08719265178952963	-4.995770952093853	3.8235975156276183	1.7332766345228499	0.013355836169783336	2.2937340139223323	0.9301860304550396	-0.35983159490492067	1.2900176253599602	69.75322976713736
11	4.0	wm	429	diff_vonmises	-0.2698706658273486	-15.462450166292484	0.8751933120124814	130.98416218971983	0.8614787478046797	131.92555001684698	0.04567274871810412	-0.22564432335402174	0.27131707207212585	88.09718141724997
12	5.0	ltm	429	diff_vonmises	0.04944466093389187	2.8329703909673833	1.2653965764735093	76.97749917737639	1.2401420290959437	77.5725658176662	0.1261595022753994	-0.1809357421329203	0.3070952444083197	76.26584897733616
13	5.0	perception	429	diff_vonmises	-0.08032716607872627	-4.602407596557446	2.358429208530038	2.081285835451841	0.18004563366779525	2.4211565605022125	0.7274433033478773	-0.3158910439006445	1.0433343472485217	84.46918192199666
14	5.0	wm	429	diff_vonmises	0.07130192899050422	4.085299602297383	1.220934486871575	1.0820708827966399	1.6288890195476965e-14	1.6229498628067007	0.15612998080854118	-0.2222457307467159	0.37837571155525707	119.87874399933705
15	6.0	ltm	429	diff_vonmises	-0.4269466810368022	-24.462242900526906	0.4981538056890622	87.65940403080711	0.4823148433621513	88.15770262391365	0.13778431907739375	-0.2041600167501505	0.34194433582754424	123.23204773144508
16	6.0	perception	429	diff_vonmises	0.19545702503176696	11.198862610503133	0.23624996105895646	150.39847918520832	0.22225034654798861	150.6763644751577	0.3140302296583073	-0.3279106534913474	0.6419408831496547	153.17405048528798
17	6.0	wm	429	diff_vonmises	0.09850786475607771	5.644084899368762	0.02646775900441497	47.373222759496386	1.0544328716832069e-09	47.88122294010976	0.12001248371147533	-0.27907350379617046	0.3990859875076458	178.11014113834216
18	7.0	ltm	429	diff_vonmises	-0.060737794718000365	-3.480019294273405	1.035315211187008	93.67060920650088	1.0184320328753838	94.37609357321516	0.054886937430104865	-0.17801296515744092	0.23289990258754578	81.65681396238062
19	7.0	perception	429	diff_vonmises	-0.13391759540035988	-7.672913018981188	1.8859379857946619	1.2960321412745177	6.425811280638642e-13	2.0029268463673175	0.326440825705821	-0.30392909964350767	0.6303699253493287	99.71352380494085
20	7.0	wm	429	diff_vonmises	0.21577066113557683	12.362748225816011	0.5671856427956323	56.45745985413108	0.5458190453200916	57.042491810014724	0.0778480859353774	-0.17947635969966225	0.25732444563503964	114.58417768848503
0	1.0	ltm	430	diff_vonmises	-0.05759300200550417	-3.299835944403875	0.00045419446509324175	2908.503377249343	9.334337429408922e-29	2909.381809426273	0.0704620058673413	-0.3500279080403743	0.4204899139077156	179.8798065083801
1	1.0	perception	430	diff_vonmises	-0.10248090631245238	-5.871723412379118	12.049239680717982	0.8143811939008685	0.13418540304379495	1.9254873419104375	0.7666749725851502	-0.32369400600210324	1.0903689785872535	38.55414390416405
2	1.0	wm	430	diff_vonmises	0.02134579757123708	1.223024111172488	2.0427010657628166	0.9358623649142765	0.1570193389214282	1.4912134550564864	0.21300780230703692	-0.1961886376152452	0.4091964399222821	88.99531520901411
3	2.0	ltm	430	diff_vonmises	0.08764898906624846	5.0219171520843355	4.471613234869738	0.3189077209560397	5.650110934772151e-18	0.6840169251583561	0.15160620762228455	-0.10883065234944712	0.26043685997173166	64.65514790572826
4	2.0	perception	430	diff_vonmises	0.00907337959141898	0.5198663565084428	5.712556985584572	1.3829643074378994	0.5501867338985813	1.4760798662831212	0.9086425147113424	-0.23365595132749095	1.1422984660388333	53.79603378979087
5	2.0	wm	430	diff_vonmises	0.40183057273713	23.02319589716219	2.8562185793082757	0.5388239892125175	1.1855183365894e-18	0.5077546934263991	0.26231215651905265	-0.07967777876881586	0.34198993528786853	81.28596773557396
6	3.0	ltm	430	diff_vonmises	-0.236395532264533	-13.544466294506421	1.9309398175075114	56.14797938141116	1.9050928754694634	56.33891785266165	0.13510361306550678	-0.09837762169033937	0.23348123475584615	63.84927729609436
7	3.0	perception	430	diff_vonmises	-0.05271640951256377	-3.020427776153209	5.259996163813274	1.4453696502928917	2.9946916024624793e-19	1.3929345133147213	1.0658961104597182	-0.22165765935953471	1.287553769819253	59.496012462025874
8	3.0	wm	430	diff_vonmises	0.13965669568557987	8.00173924352662	0.9031582237653848	40.25999479989584	0.8754605266506835	39.894556673030706	0.3287102589419444	-0.06471718374285551	0.3934274426847999	105.68683012025491
9	4.0	ltm	430	diff_vonmises	-0.31723338032680465	-18.176133813394387	18.945548111850485	0.27470836070623766	3.257745946870316e-29	0.6669691275212721	0.36760058580480137	-0.10615143353469914	0.4737520193395005	31.100379798585095
10	4.0	perception	430	diff_vonmises	-0.05974011983163802	-3.4228567339586484	2.812663950139544	2.230042116043462	0.12617513952956855	2.812346373713315	0.9017073833683619	-0.3979526183039643	1.299660001672326	78.75038485444045
11	4.0	wm	430	diff_vonmises	-0.3338374425386153	-19.127476500903793	1.0279618490385454	117.03101867899558	1.0144725443403992	117.39530962182926	0.17259085455451384	-0.1426403230977531	0.31523117765226694	87.77652399397608
12	5.0	ltm	430	diff_vonmises	-0.15010951769923797	-8.600641828910668	1.2611192928950032	92.52447422203396	1.244676275910339	92.83883640504789	0.15694277887788388	-0.1248670606138429	0.2818098394917268	79.07941381169746
13	5.0	perception	430	diff_vonmises	-0.011933821680026328	-0.6837576157272302	0.8914542697240063	189.73986220359237	0.8722211179522908	189.96829873408245	0.623058001264809	-0.30355572547399845	0.9266137267388075	98.64517952215951
14	5.0	wm	430	diff_vonmises	-0.0071569562765553384	-0.4100633888062853	0.9294621617750625	1.6443442536428028	1.4674736784530266e-10	1.5905410827163209	0.28673198141857675	-0.16900434062605701	0.45573632204463377	131.58509338795463
15	6.0	ltm	430	diff_vonmises	-0.48714747818567866	-27.911494500480725	1.265292826276122	1.5378735478975665	8.743799874984493e-20	2.119406676311046	0.26420526934509836	-0.289425518964283	0.5536307883093814	117.08072806429459
16	6.0	perception	430	diff_vonmises	0.010941802681382768	0.62691911390816	0.9554469376159123	320.23726185095325	0.944987797491977	320.5476801084154	0.5331942700377681	-0.27348036532373854	0.8066746353615066	94.42575030203864
17	6.0	wm	430	diff_vonmises	0.15180614665158315	8.697851507279749	0.00025734848884181806	5547.5627571850955	2.1561689482152662e-32	5547.852127434233	0.18117540301557256	-0.2732555785215709	0.45443098153714345	179.16746758698412
18	7.0	ltm	430	diff_vonmises	0.1345973856902732	7.7118621335471955	1.1983274047798316	158.49978164112014	1.1797683136819113	159.687918802955	0.09821967086569572	-0.31018304955066256	0.4084027204163583	75.71821349791739
19	7.0	perception	430	diff_vonmises	-0.18373831880243063	-10.527430202208494	1.6714954895939051	2.0929593293018742	7.34248205268656e-16	2.78781924682997	0.5244661508034651	-0.40948509379227055	0.9339512445957356	105.30809243537847
20	7.0	wm	430	diff_vonmises	-0.27423642191731445	-15.712589564631065	0.00016031617886249532	9021.356445852874	1.796900836289381e-28	9021.572000330172	0.19588069093583726	-0.26447536213663625	0.4603560530724735	177.85067299142884
0	1.0	ltm	431	diff_vonmises	-0.33666808425727446	-19.28966032469662	0.7274967532199544	1.5507592087834694	2.8310220193078105e-16	2.4571341795996946	0.05834381069428596	-0.2861702272971695	0.34451403799145547	139.4710654751212
1	1.0	perception	431	diff_vonmises	-0.10537071638821821	-6.037297333314881	13.81078624996799	0.7628983660362316	0.0003950818601570702	1.8518101080941305	0.8256267929317807	-0.2947332379926971	1.1203600309244777	36.46092167046268
2	1.0	wm	431	diff_vonmises	-0.13759972556701647	-7.883883537148412	4.145041116677865	0.43184111127720326	1.6230494014908938e-19	1.1273635388242709	0.15910043474703942	-0.1793405105058198	0.3384409452528592	67.22036782629874
3	2.0	ltm	431	diff_vonmises	-0.021604120520967225	-1.2378249259433953	3.4483642395596763	0.5089736125826214	0.22541232837017916	0.9435929773125333	0.1747888071127933	-0.13697560500435335	0.31176441211714667	68.7312491375323
4	2.0	perception	431	diff_vonmises	0.011441213185478121	0.6555332280373247	5.2457870372362505	1.600519989598877	0.5741412957232434	1.787581933864141	0.9576607829698167	-0.27562345052390863	1.2332842334937253	55.602457892711584
5	2.0	wm	431	diff_vonmises	0.2892554724649896	16.5731177733065	2.696916905614717	0.520293612113166	0.009225673040768682	0.7672786147058895	0.19725269887909422	-0.1195354907241881	0.3167881896032823	83.38589489226129
6	3.0	ltm	431	diff_vonmises	-0.17813580374071744	-10.206429734513852	1.8034800872302017	138.8978476958604	1.7881884675570858	139.26136981597188	0.17249474873057125	-0.15574888831267586	0.3282436370432471	65.09339896325838
7	3.0	perception	431	diff_vonmises	-0.03370818328737206	-1.931336637419836	4.341388005876196	1.9756203810340092	0.28996918931114984	2.1586504326502984	1.1384389541915543	-0.3158569156424397	1.4542958698339938	62.72060232300251
8	3.0	wm	431	diff_vonmises	0.16254955214616343	9.313403299716857	0.7675453843479607	91.5463940790456	0.7517129659278111	91.47503415582788	0.2977368484321481	-0.12252065717473748	0.4202575056068856	108.31952546282105
9	4.0	ltm	431	diff_vonmises	-0.3340971300847255	-19.142355501288016	13.079428930997299	0.3324499542436197	2.5519855746105304e-29	1.009588764693446	0.3142051503191512	-0.16068104238893227	0.47488619270808347	37.47812469984041
10	4.0	perception	431	diff_vonmises	-0.07802612233248984	-4.470567501423127	2.132741407753031	3.2123915766524225	0.2872037814772773	4.039552397330761	0.8831310273299214	-0.47540527371910407	1.3585363010490255	85.12877787456992
11	4.0	wm	431	diff_vonmises	-0.38171945512382605	-21.87091373662866	1.0599996565307133	157.87273363433715	1.046066829792904	158.56048594827868	0.17300654951964844	-0.21414005159767058	0.387146601117319	84.18789919720699
12	5.0	ltm	431	diff_vonmises	-0.06911103954560201	-3.9597708837247256	1.3014146919563359	101.1295849883282	1.2849009712586832	101.27091512557952	0.24813757080094234	-0.11602063513526595	0.3641582059362083	80.87415359989913
13	5.0	perception	431	diff_vonmises	-0.05924597583123343	-3.394544368263755	0.9756246056303682	73.86495481406662	0.9252549876935394	73.78999607646702	0.7310132795050741	-0.27258993866897097	1.003603218174045	96.83047968381541
14	5.0	wm	431	diff_vonmises	0.07267079035230169	4.1637295810669075	0.46969595495008515	46.649024748719825	0.43774153847682284	46.646987805265496	0.2769024114028422	-0.17473160954193734	0.45163402094477956	131.7722631592499
15	6.0	ltm	431	diff_vonmises	-0.46060651636170213	-26.39080940374903	0.5882326701007347	109.84029271648662	0.5750002040656879	110.1021004382545	0.20628103150457378	-0.17387911567504233	0.3801601471796161	117.43003237140222
16	6.0	perception	431	diff_vonmises	-0.05309596892031767	-3.0421749282919928	0.7333611116547233	170.2729278406834	0.7201505939173919	170.37172783085236	0.40067206952024037	-0.2110391495024171	0.6117112190226575	108.77512556878109
17	6.0	wm	431	diff_vonmises	0.10766549661022405	6.168778554945909	0.000279609945477155	4322.646616033908	9.909381988296501e-30	4322.796102409791	0.16858453023735365	-0.2161406286361398	0.38472515887349346	179.53644735034544
18	7.0	ltm	431	diff_vonmises	0.07646766651833992	4.381274560714711	1.3666436767542796	149.01604955511746	1.347611159595648	149.97047332281662	0.12269834570188465	-0.2724496873372786	0.39514803303916324	71.65246985573222
19	7.0	perception	431	diff_vonmises	-0.18368955596365596	-10.524636297349629	1.1015828406963208	7.202467702972324	0.5922268765197488	7.814041673840594	0.5352494152369509	-0.3546322908951149	0.8898817061320659	98.8955568850964
20	7.0	wm	431	diff_vonmises	0.31449115550150336	18.019015904428624	1.0006383432824404	56.63754274992015	0.9736339214459425	57.05589116812797	0.14878038218816414	-0.14639960576304567	0.2951799879512098	88.32873744112891
0	1.0	ltm	432	diff_vonmises	-0.8398093787323042	-48.117532996864746	0.27055834187963973	40.36677441244631	0.24470121574523643	42.33558326170228	-0.20989163080626838	-0.3841192757340135	0.17422764492774512	132.39861226251284
1	1.0	perception	432	diff_vonmises	-0.0813413412513774	-4.660515553637308	11.753637606726942	0.738407458112623	1.3883383929255746e-18	3.08027243335117	0.508303467631492	-0.49024058377581364	0.9985440514073056	39.5602114231925
2	1.0	wm	432	diff_vonmises	-0.07847397116576998	-4.496227349429937	5.089544688177607	0.4066602285746822	0.12244390439060245	2.359211399206853	-0.06688844597058052	-0.37800680651804525	0.3111183605474647	56.482235512182115
3	2.0	ltm	432	diff_vonmises	-0.16697239708667463	-9.566813648248939	5.5834473661478965	0.27295736242790425	0.0090594565449285	1.1197163146534055	0.07110177036547902	-0.177573893279012	0.248675663644491	57.40253735913842
4	2.0	perception	432	diff_vonmises	0.025482372296838255	1.460032384589922	6.533845832727019	1.8296649397647076	0.6525678366331653	2.677611407174769	1.0890549798667952	-0.4649975604199036	1.554052540286699	49.31048960046249
5	2.0	wm	432	diff_vonmises	0.09298291747328515	5.327528738032475	2.5964391435715037	0.6955716924570507	0.2108704653750546	1.767371465056357	0.07562722306942743	-0.248372800067362	0.32400002313678944	75.87383581017178
6	3.0	ltm	432	diff_vonmises	-0.14923977855671303	-8.55080944676666	1.6772159199593983	135.30352368866042	1.6616224123124732	135.97061011038852	0.048159837606306155	-0.19842882896229952	0.24658866656860567	63.05638985409598
7	3.0	perception	432	diff_vonmises	-0.00885140054344214	-0.5071478939190379	4.52634942442942	2.6221423191614868	0.987633194201294	2.995697755943482	1.1387651391779048	-0.4213027674783357	1.5600679066562404	56.23972390580698
8	3.0	wm	432	diff_vonmises	0.17189844696371742	9.84905551587443	1.2762684853692172	120.37824257166189	1.2571791933885683	120.94592841740376	0.19885196411566852	-0.1979911602096749	0.3968431243253434	77.46970843073785
9	4.0	ltm	432	diff_vonmises	-0.6835594064109317	-39.16506903381418	1.0122616297149212	126.1198106964275	0.9897670354787308	127.80396088755553	-0.03559490703821666	-0.3721817568850092	0.33658684984679255	78.41680250511625
10	4.0	perception	432	diff_vonmises	-0.014627886089721272	-0.8381161361391539	2.701225636691554	2.4997270769199105	0.31840764173466213	3.4994119519345923	0.7946224172547751	-0.4493098557115404	1.2439322729663156	75.8913419086121
11	4.0	wm	432	diff_vonmises	-0.016937401266759657	-0.9704416085048626	0.6328529938112415	152.61207807696348	0.6184133146964185	154.59788184276184	-0.1162141892139843	-0.3981261641709608	0.2819119749569765	96.63633591669861
12	5.0	ltm	432	diff_vonmises	0.005693477431565565	0.3262122275816909	1.2714457467599136	111.6616575799293	1.247288286793491	112.3590683766829	0.22317791158385347	-0.2362194978098806	0.4593974093937341	77.41061543981141
13	5.0	perception	432	diff_vonmises	-0.12068697592703594	-6.914854362816125	1.105210104759955	211.87683663364817	1.083409954217621	212.39325671258908	0.6807785881472341	-0.3570011712697756	1.0377797594170097	87.49092490544734
14	5.0	wm	432	diff_vonmises	0.2707146928828165	15.510809354365652	0.925137767930619	1.7458353395954878	3.576032280037495e-11	2.3638193433800594	0.19554124702958547	-0.28633113774900404	0.4818723847785895	131.0574489012746
15	6.0	ltm	432	diff_vonmises	-0.5208010647198402	-29.83970297436648	0.7859968097749596	94.06420434784349	0.7725818327711869	94.31782631247805	0.16529198640987985	-0.12721746221820762	0.2925094486280875	101.82067674740462
16	6.0	perception	432	diff_vonmises	-0.04838562458921098	-2.7722920780662066	0.47962925592920447	126.45714911774897	0.46290439579414416	126.81394788389585	0.3078630879532156	-0.2784360709422309	0.5862991588954465	128.3741409700874
17	6.0	wm	432	diff_vonmises	0.1381004955367688	7.912575542922116	0.21117917287924823	6.954998946594139	1.5337166018929512e-16	7.402569381011686	0.17392469310510594	-0.2918677148094959	0.46579240791460186	167.41608446825978
18	7.0	ltm	432	diff_vonmises	0.09294603181415696	5.325415345439873	1.3999614873649417	102.58859969413638	1.378351483729899	103.68202332179816	-0.053573780652634184	-0.2645984187119268	0.2110246380592926	64.94825177529938
19	7.0	perception	432	diff_vonmises	-0.0981238585076095	-5.622082962024881	2.5912555863337006	1.10662793669186	2.2678755213147883e-17	2.268750925925888	0.3049265806896228	-0.3573435980457547	0.6622701787353775	85.44301887392771
20	7.0	wm	432	diff_vonmises	0.3043019661187628	17.43521835613808	0.6786924424650652	92.70827958594018	0.6634899345240904	93.89046595283136	-0.05995468154265993	-0.24018091031452293	0.180226228771863	93.97804745168946
0	1.0	ltm	433	diff_vonmises	-0.0814162166688246	-4.664805599046312	1.133890626691951	0.6710123088751151	8.29216830583326e-33	3.188890134483351	-0.26135981666966135	-0.4820380153579127	0.22067819868825134	123.16683431098744
1	1.0	perception	433	diff_vonmises	-0.07940367887460667	-4.549495677327056	12.314933850538115	0.6695314282365448	0.04937143745419909	3.4024778722680074	0.3585206638809241	-0.5527692851409751	0.9112899490218992	38.26006210376494
2	1.0	wm	433	diff_vonmises	-0.027553967078047602	-1.5787260224145445	2.9364815744499895	0.6633897964822649	0.06857610548724888	2.943932504754895	-0.07202854134855835	-0.4491086795572172	0.3770801382086589	75.10703848464016
3	2.0	ltm	433	diff_vonmises	-0.011592234975190284	-0.6641861392023438	3.996357558297829	0.31859031146988664	4.250668486466017e-45	1.4447196636290889	0.014877613728934369	-0.2298515387939715	0.24472915252290586	68.49547057529338
4	2.0	perception	433	diff_vonmises	0.00898745092686517	0.5149430066903142	6.986679206399235	1.4467961709361123	0.49401206263104536	2.5153318256540618	0.8781111678886695	-0.4387471613996767	1.3168583292883462	48.325976293151115
5	2.0	wm	433	diff_vonmises	0.17506549522677456	10.030514014861842	3.096420707350533	0.7204014383150822	0.26683501163644985	1.6906899365800165	0.13519373524747175	-0.24266406180131683	0.3778577970487886	69.79312960066568
6	3.0	ltm	433	diff_vonmises	-0.23571969696972644	-13.505743784468025	1.434091663863356	59.635405998798134	1.4042442914799476	60.26108540502688	0.05604575983440441	-0.17471423870060576	0.23075999853501017	69.13129870285636
7	3.0	perception	433	diff_vonmises	-0.04578391814404096	-2.6232252792259803	5.127557427151743	1.7794604358686748	0.498793934170267	2.253367554333422	1.0082221378223328	-0.34892016981899737	1.3571423076413303	56.266045358767684
8	3.0	wm	433	diff_vonmises	0.1282119008025524	7.346000799336225	1.3007176711864408	14.314549247340368	1.160378524681334	14.660104812633618	0.2407984512511705	-0.16003108723586235	0.40082953848703284	80.85302390914032
9	4.0	ltm	433	diff_vonmises	-0.37512496829390585	-21.493077473219625	2.9188478947615732	0.4394820410681611	5.452859578104958e-19	1.892066722151556	-0.01779516539467524	-0.3003055100223469	0.28251034462767166	80.41745824306793
10	4.0	perception	433	diff_vonmises	-0.03342793402859644	-1.915279537680323	2.707911311081732	2.42940759722828	0.31723944971321255	3.5667276870887386	0.7398086032636829	-0.46147309930499336	1.2012817025686764	75.54086767632376
11	4.0	wm	433	diff_vonmises	-0.07771712981457618	-4.452863534245553	0.7072776427018377	164.1406758239931	0.6952940446347244	165.6137415583832	-0.04293217677955852	-0.3114072659922513	0.2684750892126928	93.83723448445505
12	5.0	ltm	433	diff_vonmises	-0.06357262002413079	-3.64244281997156	0.9998403198660977	128.0608740517757	0.9790569327825688	129.3005533390667	0.08522606352131845	-0.3078374681021838	0.39306353162350227	82.968966141399
13	5.0	perception	433	diff_vonmises	-0.06141584217633375	-3.5188685519454808	0.9799964080435029	339.92549014246396	0.9654751390783041	341.1678102417254	0.5194022221224657	-0.4645853978610788	0.9839876199835444	89.57930639230187
14	5.0	wm	433	diff_vonmises	0.061727711194645096	3.5367373304556087	1.0509319321055461	1.6186327323451846	4.168553218557282e-15	2.513540461553347	0.16860075535689983	-0.3305332727668771	0.49913402812377694	126.45179919866743
15	6.0	ltm	433	diff_vonmises	-0.4875907165985864	-27.936890190858414	0.7395102533694828	176.45191692322814	0.7246355696367027	177.62301150578892	0.16209552732728127	-0.3294143740243456	0.49150990135162687	99.41832644367189
16	6.0	perception	433	diff_vonmises	0.019233853044219536	1.1020186032086299	0.7247839522788778	209.3351447589873	0.7069984219459806	210.54876556211295	0.36312033659525866	-0.43317145911515453	0.7962917957104132	103.51577963314816
17	6.0	wm	433	diff_vonmises	0.110905933672734	6.3544419224055	0.646054420662389	2.7179791403707707	5.028797335552841e-16	3.9482572275877637	0.117122380013019	-0.4235955987701858	0.5407179787832048	144.539891547919
18	7.0	ltm	433	diff_vonmises	-0.0611567590906631	-3.5040241845933258	1.0445544851445785	156.6059476473123	1.0286925784398484	158.2693426821085	-0.10912087283178806	-0.3518135538077658	0.24269268097597774	73.8571548189706
19	7.0	perception	433	diff_vonmises	-0.10641243300565743	-6.096983298942792	1.2375732556963777	1.953681009062839	3.114682229646852e-15	3.6113144657217706	0.1794741557110463	-0.5112891431483194	0.6907632988593657	119.25419678659163
20	7.0	wm	433	diff_vonmises	0.37714131504845944	21.60860563229045	0.7419945175013702	79.34298878205995	0.7147075120867515	80.74952410563165	0.008885644128088899	-0.31663039302261353	0.32551603715070243	94.47316556342753
0	1.0	ltm	434	diff_vonmises	-0.2232935774241062	-12.793779578778965	0.0004522307923723804	1747.6903992342877	2.7687435690629893e-30	1750.9716584527773	-0.3964256124147596	-0.6480031937330182	0.2515775813182586	178.5525716705856
1	1.0	perception	434	diff_vonmises	-0.038615236684179245	-2.212490086902222	6.523345254535091	1.227574309615278	0.16343265286799893	4.58234359432287	0.37174225163781827	-0.7495295975569107	1.1212718491947289	50.87778949946997
2	1.0	wm	434	diff_vonmises	-0.04249593486078796	-2.4348377139860156	3.1685801197855277	0.742577498298894	0.12141949646258898	3.820846460761034	-0.18244993446079316	-0.5848740833637182	0.402424148902925	69.33686281169554
3	2.0	ltm	434	diff_vonmises	-0.039633249972326354	-2.2708179518012868	2.025208488053158	0.48669562733109256	1.890890293044821e-17	2.245007830630628	-0.10432356338895177	-0.3528982100570758	0.248574646668124	96.44224989194242
4	2.0	perception	434	diff_vonmises	0.0008340614539918463	0.04778820116827768	6.274627893262566	1.610233859330205	0.3355507673732916	3.2942000110215828	0.8611960992452478	-0.5470165234153683	1.4082126226606162	51.370199559912436
5	2.0	wm	434	diff_vonmises	0.3683806655049372	21.106657387653414	3.427071138343218	0.5995082230231886	1.774718165592728e-10	2.137896220267268	0.08299504269690383	-0.33981018301017385	0.4228052257070777	74.0959599858268
6	3.0	ltm	434	diff_vonmises	-0.1028023488936495	-5.8901407156375045	2.1643279128428374	0.497191441128093	0.034263298170821514	1.4750895069874728	0.02610238398137299	-0.2232472047726856	0.24934958875405858	90.44208529324933
7	3.0	perception	434	diff_vonmises	-0.0793581667113856	-4.546888022457979	3.3059909716591163	2.267746570117725	0.3971821572812333	3.0745211984456398	0.8689323209058196	-0.41306217671579903	1.2819944976216187	68.73622172403435
8	3.0	wm	434	diff_vonmises	0.1191437578537476	6.826434480348393	0.8639180765233742	135.45486384731757	0.8496870562143641	135.86858430512387	0.2382070951841655	-0.18626370992239494	0.42447080510656043	96.68726705233877
9	4.0	ltm	434	diff_vonmises	-0.43581786613159934	-24.970524365738143	0.883116144802806	106.40580396663387	0.854566429182889	108.83531235367352	-0.1836856010922503	-0.48553073094568866	0.30184512985343837	79.6095883048513
10	4.0	perception	434	diff_vonmises	-0.062272556892278376	-3.5679546894158567	2.6315508453235137	1.9894713053542064	0.10890667573187644	3.3956541455011195	0.6073107468821933	-0.4870653323379678	1.0943760792201611	80.75087356149103
11	4.0	wm	434	diff_vonmises	-0.4567836457242048	-26.171775050595947	0.8177015340311495	200.34964602998517	0.8027457912888298	202.86679847377647	-0.19346913333233573	-0.49595115442265936	0.3024820210903236	82.30594662602952
12	5.0	ltm	434	diff_vonmises	-0.3348971680280656	-19.188194298891727	0.6943959917168303	175.29040280279727	0.6814149147009564	176.45414691674938	0.10642655677677482	-0.30759554784829035	0.41402210462506517	101.3009622692804
13	5.0	perception	434	diff_vonmises	-0.12279998038990583	-7.035920600630877	2.602349355860522	2.4794508157822377	0.26837892298993155	3.5480772443705515	0.770626115157816	-0.4610078016389504	1.2316339167967665	77.96105184639168
14	5.0	wm	434	diff_vonmises	-0.14527178052010484	-8.323459906152815	0.36852635217282564	183.26219584527448	0.35842575559578044	184.10276683351353	0.15130195463616758	-0.3242168825643539	0.47551883720052146	136.7473860556484
15	6.0	ltm	434	diff_vonmises	-0.432072883927581	-24.75595269109629	0.5367468572909176	123.61630284145622	0.5249861204791031	124.56243565025639	0.035074246471364035	-0.2427970375746753	0.27787128404603934	113.73498856093305
16	6.0	perception	434	diff_vonmises	0.20731193341412582	11.878098827326557	0.0002324669229188004	8544.380144792978	8.365203765467483e-30	8545.295764317438	0.1704194790704605	-0.4618334814629179	0.6322529605333784	178.54587971827283
17	6.0	wm	434	diff_vonmises	0.34184594173056	19.586329704836153	0.0004509887080885314	2143.389035343404	1.7621991655127228e-23	2144.512356404043	-0.024922557016054725	-0.33260695410956487	0.30768439709351014	176.31780713302282
18	7.0	ltm	434	diff_vonmises	-0.6098156046964227	-34.93986043032321	0.4854983029541157	2.442390101100316	6.0165414634940956e-15	3.6102566397578597	0.021428629431706092	-0.3488745060542263	0.3703031354859324	146.89807218915732
19	7.0	perception	434	diff_vonmises	-0.12989962636146826	-7.442700350838462	0.7051772503646491	232.88134531306784	0.6879520954091215	234.46943648636162	0.31616884056758465	-0.497715915553286	0.8138847561208706	103.40434147332587
20	7.0	wm	434	diff_vonmises	0.15554367103250571	8.911995880133857	1.7157566294052347	1.3288500446163312	0.16593185260413187	2.77213738124289	0.1073280927601249	-0.3565772727698542	0.4639053655299791	92.81130841715529
0	1.0	ltm	435	diff_vonmises	0.008440603747214089	0.4836109712576749	4.21630421422571	0.45860055001049965	1.246318304400788e-15	3.0569742995649714	-0.12373817295455669	-0.48645358366258995	0.36271541070803326	66.6412383112272
1	1.0	perception	435	diff_vonmises	-0.06763005458951235	-3.874916696218421	16.627112898831633	0.6193979375111092	0.012903711168495523	3.3328356513129034	0.46246841676498207	-0.5336515921243432	0.9961200088893253	33.13635878759192
2	1.0	wm	435	diff_vonmises	-0.15865601856879225	-9.090320258341015	4.408119208815397	0.4482660739461064	0.0013826890775243965	2.9331770498068566	-0.10416449056799187	-0.46618414534099845	0.36201965477300657	64.99423346541909
3	2.0	ltm	435	diff_vonmises	0.003907176802582404	0.2238647405993914	3.2889847086137025	0.5137231564427729	5.799471345604561e-25	1.9383997245458586	0.04592156962163063	-0.3080129813480569	0.3539345509696875	75.69307603765785
4	2.0	perception	435	diff_vonmises	-0.0038975398879164897	-0.22331258606150678	6.5148024934465365	1.4085725084208212	0.3406460623405115	2.755039141483311	0.8055115624190099	-0.4601718499311109	1.2656834123501208	50.574321922007016
5	2.0	wm	435	diff_vonmises	-0.021465359375674533	-1.2298744979577225	3.039158604116958	1.0452022053065968	0.368820869009483	2.4236511622363723	0.15033270598358361	-0.3422759926495015	0.4926086986330851	67.96402836881222
6	3.0	ltm	435	diff_vonmises	-0.2356075910035182	-13.499320585746057	1.21279388806631	107.2398158218546	1.18500490220827	108.3669219122442	0.12632266260337843	-0.3047919598035005	0.4311146224068789	76.14870177812404
7	3.0	perception	435	diff_vonmises	-0.038838905857372166	-2.2253053865333574	3.5996202139558258	2.8382983683210594	0.5362536438144963	3.7998304850245628	1.09588034423819	-0.5143122962882912	1.6101926405264813	64.7373422819731
8	3.0	wm	435	diff_vonmises	-0.042609588789548236	-2.44134960442906	3.597526164425364	0.8524049532641387	0.050517246884883335	1.8885578324873227	0.3022477724845284	-0.29035723474263153	0.5926050072271599	70.62184702240518
9	4.0	ltm	435	diff_vonmises	-0.21148727035432444	-12.117328012045004	0.952173298562333	2.7639841067669564	0.28797978893101606	4.61717120059208	-0.04065168775084882	-0.4063032742433174	0.3656515864924686	104.66731433896432
10	4.0	perception	435	diff_vonmises	-0.08525858797588624	-4.88495725826311	1.7813357776691106	5.268021701450164	0.5109321992958945	6.9332306914147654	0.8084207092674085	-0.6377880070886769	1.4462087163560855	84.42132795180848
11	4.0	wm	435	diff_vonmises	-0.1581172413684918	-9.059450598665926	0.6341257296717804	202.69332681028445	0.622217594611432	204.5193278215683	-0.03459677295025898	-0.39758556831887404	0.36298879536861506	100.38102196791863
12	5.0	ltm	435	diff_vonmises	0.031035250461216562	1.7781888675591506	0.8408141054054771	141.1579135169881	0.822019128670098	142.24995254694076	0.17027252833624829	-0.30733568733520933	0.4776082156714576	93.43717630252922
13	5.0	perception	435	diff_vonmises	-0.03371613812492211	-1.9317924160381659	0.9090362271255034	386.53480460192725	0.895774734084042	387.72652014890565	0.5925451270788784	-0.49004226411781815	1.0825873911966966	93.69421349206556
14	5.0	wm	435	diff_vonmises	-0.019303269745180717	-1.105995887201427	1.0259620375681144	1.689065565152194	6.147908038087706e-14	2.909770445875477	0.12235200333940521	-0.3878802939840942	0.5102322973234994	127.50852755693846
15	6.0	ltm	435	diff_vonmises	-0.45292813637627416	-25.950870637086286	0.7114639160275292	171.30283947551024	0.696414165656366	172.61326382523148	0.1194721378144834	-0.3443237608854215	0.4637958986999049	100.06926318773488
16	6.0	perception	435	diff_vonmises	-0.022562675288340984	-1.2927460685460561	0.6727275493043388	241.55764038900364	0.6579915437594338	242.72440203916506	0.35453388982985246	-0.43230092015430444	0.7868348099841569	107.53690283420966
17	6.0	wm	435	diff_vonmises	0.04049629604905354	2.3202668495230783	0.3042576994015973	5.644877264570074	8.581172395099423e-15	6.90808854921439	0.09073442933245746	-0.45179824822352	0.5425326775559774	162.6978367250154
18	7.0	ltm	435	diff_vonmises	-0.20245494490429705	-11.599813884569834	1.122176034473063	175.39453880524766	1.1057686440153234	176.96415639056255	-0.02975180100110464	-0.357771302177472	0.32801950117636736	74.33830289493528
19	7.0	perception	435	diff_vonmises	0.05032322500951392	2.8833084045323396	0.3365644926954933	184.8721767013734	0.3205621723165072	186.63351073477455	0.15694636306712795	-0.5818308120749549	0.7387771751420829	139.90093926896208
20	7.0	wm	435	diff_vonmises	0.3076931881570765	17.62952106632521	0.7988365909480003	128.44939576726452	0.7825821439018577	129.94079984807033	-0.04918066205001992	-0.31358573770030773	0.2644050756502878	87.77173837689489
0	1.0	ltm	436	diff_vonmises	-0.5617277680255758	-32.184630343169246	1.286738952165084	0.9244472609317479	2.0412448315191993e-32	1.2477198686990043	0.16662140662935768	-0.1707265055026193	0.337347912131977	115.93889422990681
1	1.0	perception	436	diff_vonmises	-0.07967091015497704	-4.564806901846156	11.691063212565613	0.9573721803017192	6.071353088603668e-13	1.3310646406109088	1.0791025700908135	-0.21184551703747123	1.2909480871282848	39.67169925477256
2	1.0	wm	436	diff_vonmises	-0.012000030156399461	-0.6875510819914024	3.4853687398650313	0.4061801682262627	1.6381429106095068e-16	0.448562207237307	0.2180662664320563	-0.07111907564629272	0.289185342078349	73.47754656748933
3	2.0	ltm	436	diff_vonmises	-0.1270315963426632	-7.278374335244106	2.4896055913407373	41.84459582428452	2.459090383634793	41.81818731211082	0.1932923098751047	-0.05864214171965454	0.25193445159475925	59.845002795007474
4	2.0	perception	436	diff_vonmises	0.002467506349418888	0.14137769974343528	6.498133402331662	1.504411209136461	0.8065902568571937	0.8326487771788675	1.2441616413736416	-0.1286457785783464	1.372807419951988	51.16360645281952
5	2.0	wm	436	diff_vonmises	0.20137569910849024	11.537977655412865	1.3268549333072404	10.390020561768408	1.2484978563068871	10.17847657554038	0.23036521931559317	-0.03583711748824314	0.2662023368038363	88.46126628885065
6	3.0	ltm	436	diff_vonmises	-0.1462104218622665	-8.377240093535171	2.7095888248307958	49.566279060409975	2.6912363361771794	49.58777854466675	0.1072463396820389	-0.045589671436708556	0.15283601111874745	55.754291712898436
7	3.0	perception	436	diff_vonmises	-0.021441772523105463	-1.2285230708535175	5.525014127604254	1.5897160205040306	0.5009333816663696	0.906639093997391	1.2296204565140596	-0.13296617016542822	1.3625866266794877	56.11371413242935
8	3.0	wm	436	diff_vonmises	0.09098388194289889	5.212992439044647	1.4828826749791906	48.06503486528931	1.4660069697105975	47.73142021984586	0.28515635588222565	-0.02569132183583278	0.31084767771805843	85.81173327376192
9	4.0	ltm	436	diff_vonmises	-0.35716576357899193	-20.46409083964361	19.412171908634424	0.23428713937845286	1.9816403156330894e-13	0.3477458610269218	0.3534878084792645	-0.05534547272217296	0.4088332812014374	30.731492386910617
10	4.0	perception	436	diff_vonmises	-0.059531198103866895	-3.4108864007087822	3.409606359795199	1.996271124953098	3.209834335258928e-16	1.9285192592024485	1.0983025627494187	-0.30539776997455775	1.4037003327239765	74.31286103253262
11	4.0	wm	436	diff_vonmises	-0.3312591051835644	-18.97974865229845	1.1538080958153643	97.09039962158748	1.1368292445254753	97.23151816761086	0.2550197281293691	-0.12100832878215151	0.37602805691152064	86.08104710823922
12	5.0	ltm	436	diff_vonmises	0.10535064151798305	6.036147127976133	2.041160299106686	43.885520843766535	2.012627041870322	43.85233951188295	0.21115526223009695	-0.061213481380089974	0.2723687436101869	66.52797014291505
13	5.0	perception	436	diff_vonmises	-0.0717793461424893	-4.1126535901732835	2.024361382845962	2.01434287781372	0.10081184828427235	1.3365404229484787	0.8121117013869275	-0.17356935207758603	0.9856810534645135	94.48093616131288
14	5.0	wm	436	diff_vonmises	0.3012721552762394	17.261622982138515	0.48532777339565075	71.68116166778329	0.46885304484830664	71.39128572928361	0.28973625098761957	-0.10851421291707286	0.39825046390469243	131.24952106820768
15	6.0	ltm	436	diff_vonmises	-0.4634806128417217	-26.55548300196756	0.39329359448601736	70.37894487557426	0.3774913702307285	70.16994135019698	0.2501944298500387	-0.11598579636397766	0.36618022621401636	137.35778244207714
16	6.0	perception	436	diff_vonmises	0.01796863231161021	1.0295267950776654	0.6375124038654036	99.45702185351226	0.619633981417977	98.96294882321632	0.4704496693180964	-0.13961423255131233	0.6100639018694087	120.76690840973471
17	6.0	wm	436	diff_vonmises	0.07997125360159678	4.58201531374188	0.0003004175176515614	4634.909803429614	1.403003088051906e-29	4634.534775140206	0.2813069809587887	-0.16189848482758862	0.4432054657863773	179.71269354007617
18	7.0	ltm	436	diff_vonmises	0.18027367749442597	10.328920877733141	1.4920778221481157	104.06092885580587	1.473048037386193	104.5744988652396	0.127627039267729	-0.16973918928342613	0.29736622855115513	70.18825205300493
19	7.0	perception	436	diff_vonmises	-0.1525771060901856	-8.742024229287445	2.819478933714042	1.3327573305870501	1.0758301988665796e-19	1.360442691494448	0.6258578131762333	-0.2135250256015881	0.8393828387778215	81.87309975518548
20	7.0	wm	436	diff_vonmises	-0.1588389657182997	-9.100802357881742	0.0007461696106898627	1175.6355610324933	2.4725386322963457e-19	1175.794476079542	0.11434816685459737	-0.16488030968625367	0.27922847654085103	179.23657630143185
0	1.0	ltm	437	diff_vonmises	-0.007831345938387973	-0.4487030701765501	5.838693467160139	0.4049661920396392	0.03439086693598151	3.5580678653154107	-0.20476399812559615	-0.5664586013960226	0.3616946032704264	54.79372378142642
1	1.0	perception	437	diff_vonmises	-0.0942442909586557	-5.399800115133915	13.479179810978197	0.6224902964390605	0.01931285570290957	3.767653675865806	0.2914200126499864	-0.6043519625152601	0.8957719751652465	36.74937447307033
2	1.0	wm	437	diff_vonmises	-0.17553949134831057	-10.057671992131425	3.7041655177153925	0.671687082930671	0.12962343214430744	3.6676829464921825	-0.16662408501219395	-0.5714558347683696	0.40483174975617564	64.50139503378483
3	2.0	ltm	437	diff_vonmises	-0.029029204078196667	-1.6632508763046265	2.500798137876452	0.6306114614894978	1.6533856040380124e-19	2.463954889812768	-0.020438912070281368	-0.38964980539088495	0.3692108933206036	86.98129003837963
4	2.0	perception	437	diff_vonmises	0.015808521458954585	0.9057615599400924	5.881920488190765	1.5861607316315023	0.3836464800328705	3.395120427855018	0.7343481347558837	-0.5636721434019645	1.298020278157848	52.32660198655495
5	2.0	wm	437	diff_vonmises	0.12762701712470995	7.3124894330897625	2.895251063628418	0.842560867507498	0.1722482659686264	2.5679119066391993	0.058781115169783626	-0.37641447895863356	0.4351955941284172	72.8437654626947
6	3.0	ltm	437	diff_vonmises	-0.19152743459553853	-10.973713663292271	1.022280011501663	166.3889551746953	1.000948857390316	168.15342930596086	0.06748001639633117	-0.42206931831363903	0.4895493347099702	80.89671620222907
7	3.0	perception	437	diff_vonmises	-0.04469570311998264	-2.5608751511447108	3.331858024354538	3.0599376529613274	0.4990393529381154	4.734569188475616	0.9590152386281006	-0.6391250227234119	1.5981402613515123	66.31265109730413
8	3.0	wm	437	diff_vonmises	0.08584981990707527	4.91883235263361	1.9971907286874304	1.3862486616003609	0.15403678479882085	2.7292188784838456	0.21082335742674485	-0.3644475519566911	0.575270909383436	88.52452904960933
9	4.0	ltm	437	diff_vonmises	-0.3232066874055579	-18.518379098742567	0.6123628287122913	190.3335026900747	0.5969454485985226	193.12438352050728	-0.18389378560219427	-0.5518142679053213	0.367920482303127	97.45325710407403
10	4.0	perception	437	diff_vonmises	-0.06961976973433087	-3.9889189764497837	0.9521369043479195	431.9224747379219	0.9361120223056221	434.1710885474267	0.5738208220305694	-0.7072762748474588	1.2810970968780282	89.1794355822326
11	4.0	wm	437	diff_vonmises	-0.19471536227492864	-11.156368464714259	0.5697425518892945	113.81954244444249	0.5473233464653634	116.63670031827182	-0.23931577803455184	-0.5360099518464789	0.2966941738119271	98.55772777032838
12	5.0	ltm	437	diff_vonmises	-0.12075255788363616	-6.918611932141528	1.1359744630414976	4.56055515196137	0.5281087954339869	5.781849359912286	0.2178458611732348	-0.355088727004962	0.5729345881781969	94.90988902984138
13	5.0	perception	437	diff_vonmises	-0.08570300174633619	-4.910420291667387	0.9903558985188455	406.7633454431104	0.976390695348606	408.11477109769004	0.6203423694494461	-0.5250578873290124	1.1454002567784585	89.39414195054047
14	5.0	wm	437	diff_vonmises	-0.04128547239667938	-2.365483323533588	0.41921027347542195	123.35167419286012	0.4011312178175729	124.47933800171674	0.152424934161143	-0.38676316526564847	0.5391880994267915	130.91216370289538
15	6.0	ltm	437	diff_vonmises	-0.43292509479543145	-24.804780777079305	0.7750381039205995	182.10615489258805	0.7625954056678786	183.3011572921122	0.0783554215325708	-0.2962403158254965	0.3745957373580673	94.62378238211284
16	6.0	perception	437	diff_vonmises	-0.07274944423506248	-4.168236116591418	0.48813251675887576	239.06890190418702	0.47630176874384444	240.3499863938036	0.21669131198358116	-0.44369802918536294	0.6603893411689441	123.3660965973746
17	6.0	wm	437	diff_vonmises	0.14877759233146837	8.524328126711058	0.48446661715237926	2.7758215245397913	4.82339573611408e-15	4.065226666352854	0.02984040518318143	-0.3901394208125936	0.41997982599577505	152.57121579285717
18	7.0	ltm	437	diff_vonmises	-0.3416442983727877	-19.574776391468955	1.002864986961806	113.42037987173124	0.9767587583776359	115.2143055615499	-0.044516413833186164	-0.39359469457048846	0.3490782807373023	78.64870876641679
19	7.0	perception	437	diff_vonmises	-0.04884882772343092	-2.798831662714241	0.47303114570325455	269.1863067098171	0.4596944835270042	271.4075979124338	0.13586313766120384	-0.6287210657040916	0.7645842033652954	122.4732551102003
20	7.0	wm	437	diff_vonmises	0.2587946613867709	14.827841857979223	0.9499822954602368	171.65561484430805	0.9335561052570618	173.67561763707715	-0.12904328825207756	-0.41702792253716225	0.2879846342850847	77.63333502172435
0	1.0	ltm	438	diff_vonmises	-0.5665991940546757	-32.46374249484685	0.1650720157844006	3.7894002969331133	2.1704521296573646e-07	5.999278522046663	-0.24829471497565814	-0.44694805678611604	0.1986533418104579	162.97923532295584
1	1.0	perception	438	diff_vonmises	-0.07113170619727634	-4.075546554668496	11.713641848976442	0.8827492156924488	0.07684315891923858	3.294774407894147	0.6264617563086196	-0.5407082660714881	1.1671700223801076	39.14728043451973
2	1.0	wm	438	diff_vonmises	-0.1105134421668475	-6.331953815623469	6.395156855763999	0.31011631302304277	0.038592696869688324	2.4166060632053665	-0.09339534871655569	-0.385676595584288	0.2922812468677323	52.47074803949994
3	2.0	ltm	438	diff_vonmises	-0.14470187530343487	-8.290806742515137	4.7887415866409855	0.38543382607312376	3.436855176504755e-20	1.6825844927781555	0.058793589615345476	-0.2677690134955825	0.326562603110928	62.426000556904114
4	2.0	perception	438	diff_vonmises	-0.02063506922013152	-1.1823023762738472	7.5826824784667535	1.4448247292663063	0.3028259744149335	2.79632745168958	0.9703346028110535	-0.47484382822506693	1.4451784310361204	47.4411693765567
5	2.0	wm	438	diff_vonmises	0.0025699745777373185	0.14724869676026425	2.7204744111870953	0.6435430387625569	0.07697766390805999	2.1258833249414746	0.0335719484866851	-0.3187732346305433	0.3523451831172284	78.40175000204957
6	3.0	ltm	438	diff_vonmises	-0.16445192200724473	-9.422401063829705	1.1625903440751615	91.68115100537803	1.1384489240845048	92.54329401205018	0.09467444365884603	-0.23041866454958537	0.3250931082084314	77.76632260346642
7	3.0	perception	438	diff_vonmises	-0.04484939559658185	-2.5696810813967588	2.9950591010383487	3.829446890633016	0.8938537623314969	4.406966167717059	1.0885247637331095	-0.46638155652229885	1.5549063202554083	66.46280015740135
8	3.0	wm	438	diff_vonmises	-0.03733449932332571	-2.139109241460591	1.2528739763178411	198.51893535963526	1.2380292741887202	199.2691589602331	0.2508650351004178	-0.2571828930297215	0.5080479281301393	78.01103559302643
9	4.0	ltm	438	diff_vonmises	-0.29222043242152285	-16.742997465241146	4.911004826898569	0.41483240860403947	0.17637348041032608	2.2938857088016578	-0.07586522120202882	-0.37071333498895936	0.29484811378693054	56.13464878731537
10	4.0	perception	438	diff_vonmises	-0.11787490327598654	-6.75373446822683	2.63706312030228	2.561800567552557	0.21822837522884989	3.896583224025083	0.7953809746714648	-0.5235633469023264	1.3189443215737913	78.29918403247618
11	4.0	wm	438	diff_vonmises	-0.30932979558897544	-17.72329176489276	0.7407942410853703	184.10036020903476	0.7281542033722662	186.04367589510292	-0.11934989379606264	-0.38797393239543254	0.2686240385993699	88.45353776572433
12	5.0	ltm	438	diff_vonmises	-0.005603654792923982	-0.32106576948279947	1.7393910079641404	1.5809188729244898	0.4655713468016641	2.3934767696519472	0.1740696813053536	-0.2362366613022686	0.4103063426076222	84.00845338216658
13	5.0	perception	438	diff_vonmises	-0.0955760175230745	-5.476102426740569	2.070847487461992	2.926807689961647	0.34531481990869345	3.6441909929510983	0.7465384184035153	-0.4055874884027143	1.1521259068062295	84.80152839510166
14	5.0	wm	438	diff_vonmises	-0.03163173274351054	-1.8123647848889266	1.2278240704368502	1.1868041688584874	1.6476390314636526e-13	2.106057192743681	0.12085608569688033	-0.29605674497773893	0.41691283067461926	119.66328927499177
15	6.0	ltm	438	diff_vonmises	-0.38881192019250993	-22.27728205140821	0.6165366183367619	113.40188777056846	0.6046173176901309	114.09909773934076	0.07032492573026516	-0.1941692324272335	0.26449415815749866	108.19880374859343
16	6.0	perception	438	diff_vonmises	0.09333480228069373	5.347690252371761	0.10709348873884844	125.70859794907169	0.09258080239877993	126.30824767849187	0.19960946425301884	-0.36199054594894875	0.5616000102019676	168.13740158613678
17	6.0	wm	438	diff_vonmises	0.0856681157463821	4.908421471105925	0.04125376367806172	25.092389297475105	5.7854741044092474e-12	25.885241716646846	0.04023887364347978	-0.2892142163447238	0.32945308998820355	177.34506246203344
18	7.0	ltm	438	diff_vonmises	-0.31117243879789497	-17.828867443912294	0.9188430297621946	82.59902649236724	0.8976859118933573	83.45991749207235	0.05524622213589225	-0.211280491100581	0.26652671323647326	86.62592865876181
19	7.0	perception	438	diff_vonmises	-0.11626578207383391	-6.6615386146184665	0.6651607747337385	205.63500163053428	0.6508455600785711	206.78438081547785	0.24346433781646937	-0.3751026008741647	0.6185669386906341	106.74352000481952
20	7.0	wm	438	diff_vonmises	0.2553146856094041	14.62845393312835	0.8045864602635799	86.50733945589403	0.7857430380058752	87.50417470861025	0.011321449437069475	-0.2254803514688568	0.23680180090592629	90.47185475078794
0	1.0	ltm	439	diff_vonmises	-0.2537075275465256	-14.53637055911499	2.8047004684200694	0.40541037998543134	1.1027500533634442e-23	2.6025094422395845	-0.15875067212534805	-0.4132662839640655	0.25451561183871746	82.08223151553052
1	1.0	perception	439	diff_vonmises	-0.07248251627218115	-4.152942270884293	12.155283389123245	0.7320168191470232	5.885356652153195e-17	3.18251400252759	0.5007129568796692	-0.5065128349335634	1.0072257918132326	38.89112424721753
2	1.0	wm	439	diff_vonmises	-0.13322750508796477	-7.633373756598083	4.934525997121094	0.4393156344423729	0.07288210116816592	2.6304895706175606	-0.07146981680861386	-0.41701616949004555	0.3455463526814317	58.58124857502921
3	2.0	ltm	439	diff_vonmises	-0.03908509489727363	-2.239410979482089	3.239852672821115	0.4377752578661172	0.02834043760053672	1.5120634526760903	0.051963340972575545	-0.2349106502119942	0.28687399118456974	74.51305557552081
4	2.0	perception	439	diff_vonmises	0.019025053323327868	1.0900552604380276	6.104964352633985	1.6987340909520532	0.4969079986593595	2.7037185393259127	0.9715544248012222	-0.45200689367647257	1.4235613184776947	51.48183375605299
5	2.0	wm	439	diff_vonmises	0.03555919500796233	2.0373917968389073	2.4239077811627707	1.033326090916111	0.34181942436814383	2.228080589373032	0.1131670768022256	-0.2917175763261771	0.4048846531284027	74.97145999067081
6	3.0	ltm	439	diff_vonmises	-0.18260882430828648	-10.46271493471077	1.3954332861502938	192.93144009174503	1.3820774944223304	193.84950208301055	0.08235765028098285	-0.25415012702093165	0.3365077773019145	69.93149406407824
7	3.0	perception	439	diff_vonmises	-0.016004133376117984	-0.9169692972160178	4.124065019140047	2.612591636871993	0.6567715218027498	3.2595639437480974	1.1417046959906785	-0.4578615536936231	1.5995662496843015	60.46229739885882
8	3.0	wm	439	diff_vonmises	0.08104879314264928	4.643753781702651	1.1634839408193884	10.822989316835962	0.9250237649613203	11.631039245130701	0.22117558142221672	-0.25761658458906256	0.4787921660112793	84.94090500185615
9	4.0	ltm	439	diff_vonmises	-0.5049309057935994	-28.930409847691017	0.6979984993911275	28.34495388489362	0.6179593976030894	30.13604100019321	-0.050357787567863355	-0.38082893496913073	0.3304711474012674	97.20230141353404
10	4.0	perception	439	diff_vonmises	-0.037808632266254125	-2.166275058018506	2.150434130781652	3.5013521834956705	0.3670385842971818	4.764926926332153	0.8282303130449225	-0.5417699538069957	1.370000266851918	82.23093746193189
11	4.0	wm	439	diff_vonmises	-0.1116201008284836	-6.395360686296814	0.6423619932037745	216.94398483162075	0.630553971685559	218.92979155275577	-0.05246410033310411	-0.42504315207429855	0.37257905174119443	99.05665058596767
12	5.0	ltm	439	diff_vonmises	-0.0033461132459803723	-0.19171816676749562	1.0486528117872356	111.83984447028291	1.0260128611886419	112.58106690556501	0.2204014292147889	-0.24274275394949818	0.46314418316428707	85.44892456935685
13	5.0	perception	439	diff_vonmises	-0.08598477333587112	-4.926564614534432	1.0123694638986853	292.38517636971255	0.9960479952366261	293.0145250242984	0.6878483003019795	-0.39299408770863664	1.0808423880106162	90.94796345461523
14	5.0	wm	439	diff_vonmises	0.17734288313158794	10.16099873012179	0.3688854720096015	98.14689764425724	0.34934609391818777	98.93710011512285	0.17547963902773134	-0.32893770353943275	0.5044173425671641	137.47037778928836
15	6.0	ltm	439	diff_vonmises	-0.50758661981657	-29.08257105280094	0.7271317831968873	136.01664499978278	0.7151565341697531	136.53462849437307	0.16181923272743148	-0.187524142004035	0.3493433747314665	103.29290394360477
16	6.0	perception	439	diff_vonmises	-0.0801164903815395	-4.590336768262668	0.5583744051606437	187.88492707656815	0.5448514124942355	188.40354128740708	0.34597438403886116	-0.31813357947313925	0.6641079635120004	120.27450056072374
17	6.0	wm	439	diff_vonmises	0.08942439968408462	5.123640687389061	0.19930768747498756	7.979502619344354	6.374356551962875e-11	8.611865563851945	0.16417874612830774	-0.34038749990634765	0.5045662460346554	168.37307041076772
18	7.0	ltm	439	diff_vonmises	-0.04947988446688274	-2.8349885507473003	1.209904088777727	116.88902127141803	1.1896494444569456	118.13584127339864	-0.03298249727199476	-0.28906675419671046	0.2560842569247157	71.16461879557295
19	7.0	perception	439	diff_vonmises	-0.024001228473238916	-1.3751690946458104	1.0929165074663252	3.484838923504967	0.24685615904764432	4.837130640804615	0.2811946913219109	-0.45171017537936464	0.7329048667012755	109.37772696081532
20	7.0	wm	439	diff_vonmises	0.2503795947747195	14.345694056787227	0.7391003194433322	122.7486463502496	0.7250711041730883	124.07377778461213	-0.05481345645566904	-0.2738805190128275	0.21906706255715847	90.65919886269631
0	1.0	ltm	440	diff_vonmises	-0.24126340301210716	-13.823374743557613	0.9502635447832326	1.039862007004768	5.926982302507842e-33	3.5722727077612038	-0.22301817125607443	-0.5168916761862955	0.2938735049302211	130.2065115911298
1	1.0	perception	440	diff_vonmises	0.009847987166078966	0.5642481013153249	6.869516889210724	1.0516736692122277	9.185663070893558e-22	3.8774860481899096	0.46076421665445233	-0.6171199073243597	1.0778841239788122	51.932078406184814
2	1.0	wm	440	diff_vonmises	-0.028446186141674393	-1.629846409161474	4.16176299054492	0.5414473486166897	0.054754673706728194	3.22613209298378	-0.11660202011453835	-0.5064436963610398	0.38984167624650146	64.02162444006353
3	2.0	ltm	440	diff_vonmises	0.2110589957121598	12.092789682576495	0.6641072092866017	14.10098974689616	0.5779383282436489	15.035041625785494	-0.01376624190754816	-0.2055434693419722	0.19177722743442405	101.3922581060051
4	2.0	perception	440	diff_vonmises	0.03151685715258869	1.805782898360033	5.608443174690769	1.9387706126561404	0.5747986345312169	2.617042139892497	1.1042380068291222	-0.42310068750150087	1.527338694330623	53.40455487902713
5	2.0	wm	440	diff_vonmises	0.08663844044435258	4.96401698105694	1.64734565317396	2.452301670034998	0.6661569592326364	3.489496962669895	0.15396951216797294	-0.2828590779160017	0.4368285900839746	79.70840555123371
6	3.0	ltm	440	diff_vonmises	-0.18567857331238435	-10.638598596810066	1.2596062302121258	83.72084793564653	1.2437034565556138	84.27877164938467	0.02794527840872263	-0.1426409447904451	0.17058622319916772	72.74488930752966
7	3.0	perception	440	diff_vonmises	-0.015713314252667785	-0.9003065888406273	5.463937344776615	1.6903821206665974	0.3663839604841001	1.8553397489393968	1.124501990724148	-0.28795644489178135	1.4124584356159293	55.86201953708732
8	3.0	wm	440	diff_vonmises	0.11863016309473798	6.797007668277103	0.9540307695825334	108.15945099711568	0.9369769133597614	108.58967505600683	0.2085185120808717	-0.1727046500063647	0.3812231620872364	91.40172697120323
9	4.0	ltm	440	diff_vonmises	-0.6113967749678918	-35.03045481356994	0.5623313220437659	125.80437214699116	0.5450584674617638	127.4263200800691	-0.0047118988000534046	-0.37490539297113656	0.37019349417108316	108.74114320245334
10	4.0	perception	440	diff_vonmises	0.01669905939588306	0.9567856252223815	2.9649457892122717	2.290799779477877	0.10364221145713816	2.9229106310318405	0.9757330160215505	-0.4231987554831862	1.3989317715047367	77.23509779655322
11	4.0	wm	440	diff_vonmises	-0.038097516899854966	-2.1828269282900177	0.617771157345054	183.81128699797543	0.6014192343338575	185.78178107432842	0.04559041992602886	-0.4710899659535954	0.5166803858796243	104.90149962543104
12	5.0	ltm	440	diff_vonmises	-0.028612543092892656	-1.6393779603589442	0.8986478594305031	119.60897013180836	0.8817680844439698	120.3744802661035	0.14029940917404105	-0.2215979110674624	0.36189732024150345	90.73198248083744
13	5.0	perception	440	diff_vonmises	-0.09503081371887157	-5.444864549785264	1.067678295703605	219.08994923764382	1.0459747513810558	219.50097706040665	0.7505161626106371	-0.3638733780880159	1.114389540698653	89.65617976013931
14	5.0	wm	440	diff_vonmises	0.2730210149145883	15.642951872984211	0.29159753667820265	160.00090589866065	0.27926500549548106	160.7463146222016	0.1977140239775892	-0.35201460142865315	0.5497286254062423	145.4825955650449
15	6.0	ltm	440	diff_vonmises	-0.6245799517707546	-35.78579520494875	0.6524896877862005	143.23041263952265	0.6418996808831527	143.48249373835512	0.21928366657286347	-0.16833020532874698	0.38761387190161045	112.01446933273046
16	6.0	perception	440	diff_vonmises	-0.023963225076496494	-1.3729916604053085	0.43536045517708066	158.96950109259126	0.4188753655117053	159.14359694865044	0.4431522485110335	-0.33186983732575115	0.7750220858367847	133.6959352100783
17	6.0	wm	440	diff_vonmises	0.08799330178818535	5.04164481788398	0.4140924600353776	5.117882465201978	7.876041608472881e-12	5.521843034478079	0.3023807173336326	-0.36282728115081897	0.6652079984844516	156.56689868947132
18	7.0	ltm	440	diff_vonmises	-1.010993239342027	-57.92564573055764	0.00014494986540712108	4253.438399192839	5.359724189842911e-29	4254.521568656364	-0.07426365702451676	-0.270512780075137	0.19624912305062026	152.87087288884635
19	7.0	perception	440	diff_vonmises	0.015088597912817088	0.864512979174322	2.2022220978453926	1.6174490345632715	6.893531934794036e-12	2.7401463705893025	0.4480790101705131	-0.42530038084814265	0.8733793910186558	92.61980833183938
20	7.0	wm	440	diff_vonmises	0.037914469358965	2.1723390767467743	0.45444703540286885	127.00638011189967	0.4417322722462018	128.29862838772596	-0.005690426560647666	-0.31641223462742474	0.31072180806677707	121.52355974521757
0	1.0	ltm	441	diff_vonmises	-0.315226026898804	-18.061120933978835	31.563176356865082	0.07832962849002303	1.3879056634464095e-17	3.3135747001754896	-0.35251981473203053	-0.5273717928371742	0.17485197810514364	24.061858786232676
1	1.0	perception	441	diff_vonmises	-0.04377459425761087	-2.508099500858712	11.17060065496551	0.7165379337732457	0.03903030747462697	4.21585502249746	0.24644639197035256	-0.6806049365153932	0.9270513284857458	40.174780190143935
2	1.0	wm	441	diff_vonmises	-0.008583579802604118	-0.4918028958029522	4.433957552347227	0.4497586024068586	0.06190430361128609	3.550558310613155	-0.23498486909846467	-0.5613871426711939	0.3264022735727293	61.188302230638925
3	2.0	ltm	441	diff_vonmises	-0.09389942039475367	-5.380040487344032	19.017888065817935	0.176288373873128	7.10133631857278e-54	1.5027372367723661	0.06534024444720204	-0.239168059400578	0.30450830384778005	31.045420824571096
4	2.0	perception	441	diff_vonmises	0.0014840574715329362	0.08503022967369356	7.868257420987217	1.56944285716829	0.48188119373603067	3.112568374794997	0.9690846047994789	-0.5616042249984343	1.530688829797913	45.61928794175563
5	2.0	wm	441	diff_vonmises	0.06622778515372785	3.7945725758077775	3.2792372864937374	0.6917052605472847	0.19776800832616484	2.172380625693561	0.05916577610056506	-0.32465471557091813	0.3838204916714832	68.33643646324077
6	3.0	ltm	441	diff_vonmises	-0.20908512370853413	-11.979695147469712	1.311084595185804	59.33541740092354	1.28392689309625	60.031834301900126	0.018272865833775853	-0.17584028555257447	0.19411315138635032	70.5897310379437
7	3.0	perception	441	diff_vonmises	-0.032891563487034266	-1.8845477693936645	4.470960160871199	2.391207171263086	0.8983386572577934	2.906785772018931	1.0157055643719082	-0.4158838788903695	1.4315894432622778	56.75632304055512
8	3.0	wm	441	diff_vonmises	0.09477375743310268	5.430136309513398	1.4010598974170863	130.8972808276895	1.3825121216508047	131.49313344386894	0.18826923790509653	-0.20529307313408296	0.3935623110391795	73.36642166809372
9	4.0	ltm	441	diff_vonmises	-0.522492151384942	-29.936595103067667	0.6668671095527796	98.720014907306	0.6459315251925412	100.81510263931449	-0.18163135977497902	-0.3976031681586605	0.21597180838368146	90.18079642167646
10	4.0	perception	441	diff_vonmises	-0.0356737796527867	-2.0439570133843494	3.100754332141446	2.147836354246571	0.302462415348931	3.3556714871034723	0.7269578284471532	-0.45923648655652616	1.1861943150036793	71.32764527087696
11	4.0	wm	441	diff_vonmises	0.2250095862994957	12.892099644945773	3.5369429468686153	0.3656908993210783	2.0400916471524497e-17	2.6531724636922407	-0.1595137632714002	-0.42204297586890044	0.2625292125975002	72.91959053648063
12	5.0	ltm	441	diff_vonmises	0.03304202702773344	1.8931686952463223	0.9826414984386187	55.37200489391796	0.9271351518077735	56.97868488093752	0.056641339506033006	-0.37986862424567036	0.43650996375170337	83.26886394280314
13	5.0	perception	441	diff_vonmises	-0.0976361928554472	-5.594141778342486	1.0559267524242582	319.17003841381444	1.038204471638417	320.67859987645505	0.5388465278006294	-0.5257870016288884	1.0646335294295177	85.68500672705156
14	5.0	wm	441	diff_vonmises	0.12883711718236285	7.381823059181812	1.1101714993108944	1.4729775831761776	4.245918782871113e-15	2.80257078888578	0.08780796296799309	-0.38807894401568827	0.47588690698368136	123.99619658263349
15	6.0	ltm	441	diff_vonmises	-0.4630923083729253	-26.533234794739457	0.7632916487337048	176.6019494123707	0.7504257557198013	177.74372905912014	0.09789533089313807	-0.2931872465164318	0.39108257740956986	96.14956893564262
16	6.0	perception	441	diff_vonmises	0.16179965474365632	9.270437343485376	0.590292539635241	4.087023119293837	1.1939172913521699e-14	5.37553640177885	0.2222776193406012	-0.5245411349677953	0.7468187543083965	147.09625368381646
17	6.0	wm	441	diff_vonmises	0.13369919911209338	7.660399833402194	0.8095561944218039	2.273166675388814	6.162259758504679e-16	3.7202933749315727	0.10226987949009081	-0.4545616375704069	0.5568315170604977	136.70519318659433
18	7.0	ltm	441	diff_vonmises	-0.26260620259370054	-15.046227082576493	0.9615713420911076	85.49355039541257	0.9395075716066452	86.92719265527452	-0.11523840283564724	-0.2909270598009446	0.17568865696529734	75.61425540395501
19	7.0	perception	441	diff_vonmises	-0.04949258161869896	-2.8357160439582065	1.4479403098170336	1.3214430265331192	2.853197144215604e-14	2.9540987078195737	0.09012496011124982	-0.43920313607493805	0.5293280961861879	112.09854112973932
20	7.0	wm	441	diff_vonmises	0.3268270695062543	18.725811713337176	0.5992699263463088	98.58285376795412	0.5819466470151282	100.10887837965564	-0.07711116026074905	-0.312600961713299	0.23548980145254994	100.6529524077755
0	1.0	ltm	442	diff_vonmises	-0.5449908892105748	-31.22567782484777	0.00022645578046781275	1918.6120569341613	6.723115987686895e-31	1921.9650058700172	-0.4644852535278119	-0.6027837111855092	0.13829845765769733	171.68146424408098
1	1.0	perception	442	diff_vonmises	-0.04860897643190417	-2.7850891959989963	9.04583754385767	1.148216581202373	0.19519198195355314	4.550612419760644	0.4854999191857511	-0.7763858556286296	1.2618857748143806	43.42654908899294
2	1.0	wm	442	diff_vonmises	-0.06508807765420575	-3.729272146205753	8.473700912423087	0.2662020583134116	0.023029304102651086	3.4184011795357	-0.25237550145764165	-0.5471766510837455	0.2948011496261038	45.84392633359613
3	2.0	ltm	442	diff_vonmises	-0.2058260645705081	-11.792964813677276	2.9172411836336236	0.5245444177943768	4.883303345217465e-35	2.64648976333983	-0.08310163604577803	-0.4202129679857697	0.33711133193999165	80.46227521652342
4	2.0	perception	442	diff_vonmises	-0.05274568744878606	-3.0221052783316	9.740757620472916	1.2768794011931879	0.162176483101848	3.5791372510704007	0.9028619961608685	-0.6018254765774013	1.5046874727382697	42.503796055116595
5	2.0	wm	442	diff_vonmises	-0.06824856649897407	-3.910354818209155	2.826623300469709	0.6374148203870317	0.0030860008245475945	2.9903119601723094	-0.07391233215346843	-0.47304070865883774	0.3991283765053693	81.43301153495759
6	3.0	ltm	442	diff_vonmises	-0.2075819134349834	-11.89356754307455	2.1571492460057904	0.7073246333738166	2.8173314028128904e-17	1.914020800060196	0.07727754761372035	-0.29951752026937667	0.376795067883097	93.51143000275744
7	3.0	perception	442	diff_vonmises	-0.08495651059343652	-4.867649499162382	1.5552262026140877	235.53153186352432	1.5209864221950364	236.44218694128523	1.0016848501161064	-0.5509045095402989	1.5525893596564053	72.99876080995918
8	3.0	wm	442	diff_vonmises	-0.11299395178219239	-6.4740765476243505	1.2830581006465007	240.3991170902231	1.267414024823008	241.45763631968538	0.27199838505572416	-0.33802424134054476	0.6100226263962689	76.17726443436723
9	4.0	ltm	442	diff_vonmises	-0.05451990247939663	-3.1237603115342596	2.6800261210066734	0.8655750880683062	0.3618707077805897	3.547370081973447	-0.2535564082568056	-0.5278268653522199	0.2742704570954143	64.44787289189415
10	4.0	perception	442	diff_vonmises	-0.17441364301349702	-9.993165634174776	2.6282555806454746	2.6554555803803783	0.26259039219497704	4.402421281356377	0.7159488784247638	-0.584815907281522	1.3007647857062858	76.88955413978317
11	4.0	wm	442	diff_vonmises	-0.380389552952565	-21.794715955050115	0.6353493193662569	156.41988891470317	0.6211119267915773	159.04631610545565	-0.2853981755023298	-0.478347771623163	0.19294959612083318	87.67681243928588
12	5.0	ltm	442	diff_vonmises	-0.04921354451360444	-2.819728395508742	2.1166017884093042	0.7958313089763944	2.1010461182798474e-16	2.214188054993016	0.07242082598942429	-0.34623647440710914	0.4186573003965334	94.41799582831405
13	5.0	perception	442	diff_vonmises	-0.09023026982803861	-5.169813645473225	2.7194276873730607	2.3946493921112504	0.17860547935845691	3.8441839347494793	0.7566494591730966	-0.5324711832633366	1.2891206424364332	77.92985465465839
14	5.0	wm	442	diff_vonmises	-0.2829488269691299	-16.211773603508547	0.9627365834225281	2.624319238687333	0.26520262081259993	4.1659042871405925	0.028844386046437354	-0.3721858974040379	0.40103028345047526	108.309573555982
15	6.0	ltm	442	diff_vonmises	-0.2733182017568783	-15.65997942477425	0.5772885550369272	55.24861087391564	0.5496143621592537	56.51579496089103	-0.03621392599420048	-0.27482859007009175	0.23861466407589127	105.5903100571346
16	6.0	perception	442	diff_vonmises	0.18894857534212375	10.825955912113345	0.00014213147342675452	13190.721575927342	2.4884598548899497e-30	13191.833222613655	0.12147150418695674	-0.47529842973017367	0.5967699339171304	178.77611166612655
17	6.0	wm	442	diff_vonmises	0.10061559985460648	5.764849224846051	0.38298120695483334	2.164453605586231	1.4882117242103986e-18	3.531196865488477	-0.07480180867670949	-0.33551075230186667	0.2607089436251572	158.18945677361262
18	7.0	ltm	442	diff_vonmises	-0.5351406079251636	-30.661298280177007	0.751178972685551	81.67914062211007	0.7295795119859839	82.50819013191675	0.09612207792035576	-0.2244523642457441	0.32057444216609987	98.22411999042357
19	7.0	perception	442	diff_vonmises	-0.12797937352247685	-7.332677967566239	0.5498694836947773	220.55908373880993	0.5383461831297596	221.9310975650053	0.1296140012315945	-0.39429683491537304	0.5239108361469675	114.7601438198396
20	7.0	wm	442	diff_vonmises	0.2239125472300365	12.829243936304804	0.8239209328794554	76.69557553581222	0.7993984901550072	77.83585374710225	0.013022934111738493	-0.25792235524785134	0.27094528935958984	89.49879001084807
0	1.0	ltm	443	diff_vonmises	-0.0044414911973087385	-0.2544787003502975	6.908694125208482	0.25868723220179873	9.267021313425868e-15	3.1346282425095704	-0.23293441434422607	-0.4988913140564252	0.2659568997121991	51.77598712844406
1	1.0	perception	443	diff_vonmises	-0.1650081999922878	-9.454273444608715	16.084255875127354	0.5681848631467998	0.0832885244653519	3.3984486711407516	0.31451058408235755	-0.5667469583517323	0.8812575424340898	33.345516045886654
2	1.0	wm	443	diff_vonmises	-0.1217879657186226	-6.977936431161029	2.092968983442256	1.3006450155039497	0.3038026643294984	3.6033418223054454	-0.06982754467467511	-0.4755245783502496	0.40569703367557447	76.81565006804544
3	2.0	ltm	443	diff_vonmises	-0.08645976064688361	-4.953779382777715	1.6879053410520166	0.6825051641783199	4.112502302961341e-31	2.4500502005569067	-0.07232285540408678	-0.37907821646501466	0.3067553610609279	104.91223528280021
4	2.0	perception	443	diff_vonmises	0.027947944273647128	1.6012992529467975	5.759121693090825	1.5266955220666567	0.4758855094054139	3.2587139745158624	0.6372681866668584	-0.5484551989472348	1.1857233856140932	51.998377078220216
5	2.0	wm	443	diff_vonmises	0.5244621656178902	30.0494686041963	4.235447051220951	0.5054456636093634	4.110810304602632e-12	1.7069344834681475	0.12922904683035252	-0.2715830815872462	0.4008121284175987	66.47109263680224
6	3.0	ltm	443	diff_vonmises	-0.23951577765783053	-13.723243186587506	3.216929918805581	0.6665684318125971	0.1956645111068855	2.1238741267011534	0.047006616585618555	-0.3167408165870973	0.36374743317271585	68.84380569539371
7	3.0	perception	443	diff_vonmises	-0.09519676423039755	-5.45437281370374	4.372486639091949	1.7825149512954919	0.24114269356982648	3.406975251640094	0.7580091375734069	-0.5194530759685412	1.277462213541948	61.57571628336248
8	3.0	wm	443	diff_vonmises	0.3995582752165136	22.893002839432828	0.8055109184342346	26.53963788025049	0.7280642761061626	26.940954179093737	0.27608574421036014	-0.20944413321701116	0.4855298774273713	102.82728861139728
9	4.0	ltm	443	diff_vonmises	-0.4886258851886253	-27.996200982152153	1.089829747045241	152.71793996944126	1.0641996243664629	155.15786034544774	-0.12850216960991645	-0.5297226081975879	0.4012204385876714	73.47071149211652
10	4.0	perception	443	diff_vonmises	-0.05987316949584801	-3.430479918183514	0.9646879262559148	346.86551398949774	0.9490872672215969	348.95495414060105	0.333275928586815	-0.5835516883880203	0.9168276169748353	86.89202276948248
11	4.0	wm	443	diff_vonmises	-0.6561976030650578	-37.597353182228666	1.012293053755001	197.48382761447985	0.9978951770603693	199.75031024773077	-0.2359491498679347	-0.4568595661741526	0.22091041630621788	70.81658324760103
12	5.0	ltm	443	diff_vonmises	-0.3713699380128784	-21.27793008617293	2.5900975066399186	1.2349621101657324	0.20823657271206344	2.565817150424828	0.24557967652813356	-0.3543568358585125	0.599936512386646	77.3847766874906
13	5.0	perception	443	diff_vonmises	-0.12080910466652811	-6.921851824146279	1.0819388716274998	131.48683796689224	1.038984672168621	133.0207737143779	0.5267093533661154	-0.5267354147801608	1.0534447681462762	84.98048825936087
14	5.0	wm	443	diff_vonmises	-0.15757163914268676	-9.028189893834353	0.46187133916109874	138.7187775274745	0.4477603033683822	139.29124332403163	0.2273895604625622	-0.2849153052895179	0.5123048657520801	128.4261501741015
15	6.0	ltm	443	diff_vonmises	-0.381041647397381	-21.832078214582	0.8619789994943708	174.1516683460627	0.8470405320955752	175.52444997828692	0.06718879078056972	-0.32924883395383375	0.39643762473440347	88.85661765072845
16	6.0	perception	443	diff_vonmises	0.06975783466967356	3.996829514543666	0.44318822530589874	106.59004737799464	0.4193681929465799	108.27800611010642	0.07760332740845399	-0.47268974691778354	0.5502930743262375	126.1522183851119
17	6.0	wm	443	diff_vonmises	0.6651480707033451	38.11017720257095	0.0002308794175930781	3280.9901070021983	3.3750744060121186e-26	3282.4544995406823	-0.11249662385978354	-0.35362008085996877	0.24112345700018523	167.12412405236668
18	7.0	ltm	443	diff_vonmises	-0.35120493315635753	-20.122560414033476	0.8173236303691056	85.35618068248155	0.7825602577768268	87.51960592925975	-0.08306379625848237	-0.4512620400486025	0.3681982437901201	86.79635422616981
19	7.0	perception	443	diff_vonmises	-0.38301588349643007	-21.945193610819885	0.6504274512342418	242.60029807868722	0.6320459852643086	245.05715090004819	0.17965892663112015	-0.6398484878731168	0.8195074145042369	104.44438571156192
20	7.0	wm	443	diff_vonmises	0.7083202825826788	40.583762735501324	16.02855140402222	0.4838567302661793	0.3406326263652604	2.083375959494766	0.31337551736832286	-0.4030805669808177	0.7164560843491405	32.6413008004435
0	1.0	ltm	444	diff_vonmises	-0.5074487364732665	-29.074670919164493	0.0006977437591428992	1123.2530634042562	5.492978047329398e-23	1124.320022554825	-0.04505363231206161	-0.2945264965468368	0.24947286423477522	172.7398454781862
1	1.0	perception	444	diff_vonmises	-0.10770630106429632	-6.171116477949586	12.086233514482007	0.862883661168361	0.1214539204778033	2.1305859122559694	0.8023528903210784	-0.35628958906470487	1.1586424793857832	38.5227388669133
2	1.0	wm	444	diff_vonmises	-0.06270912130058028	-3.5929679874971816	4.0341730687139155	0.37013286352405944	5.731148944199188e-10	1.182949277667045	0.09760199379797752	-0.18818264194172543	0.2857846357397029	68.16764608723119
3	2.0	ltm	444	diff_vonmises	-0.13936533899029896	-7.985045734554144	9.086848573888716	0.23352300860714625	3.1399865332383213e-22	0.7383035201146523	0.15925133073858488	-0.1175046511854771	0.276755981924062	45.052465817497165
4	2.0	perception	444	diff_vonmises	-0.004186898526463176	-0.2398916148158834	7.222562058878382	1.4155933806050707	0.5352744704234424	1.7466929457402776	1.0469472949118042	-0.3018805526053666	1.3488278475171707	48.140808187721774
5	2.0	wm	444	diff_vonmises	0.41895941078009236	24.00460602498706	3.1089392932478073	0.4163673302051004	6.7638273544905e-17	0.8094894492600944	0.14945359648246956	-0.12827948883270554	0.2777330853151751	77.86263699444294
6	3.0	ltm	444	diff_vonmises	-0.1530252091426259	-8.767698642979203	1.9741717785755108	70.95539006300535	1.9544970623107552	71.1955379114427	0.09735565814852976	-0.10222203317194634	0.1995776913204761	61.575515947565805
7	3.0	perception	444	diff_vonmises	-0.051204466046731054	-2.9337997966986125	4.907450160208314	1.7428322618745609	0.5552057668281113	1.6979281423221602	1.0597455996976644	-0.250533622543374	1.3102792222410384	57.80687433410219
8	3.0	wm	444	diff_vonmises	0.1769326055440039	10.137491555924415	1.4150448051411646	105.69973934703788	1.404232135485815	105.54863817806168	0.2664966821656378	-0.05652169754262992	0.32301837970826774	82.32318750121391
9	4.0	ltm	444	diff_vonmises	-0.3581295522290473	-20.519311861634392	9.836635711919802	0.34601339760054295	0.40588406688881873	1.0936405986278122	0.17625398250461305	-0.2048395565321174	0.3810935390367305	40.85054681558867
10	4.0	perception	444	diff_vonmises	-0.08021452987187813	-4.595954017284685	3.2417074080856847	1.7904303032132844	0.1216854182070717	2.4672574946265504	0.7833211082175238	-0.35957149923246995	1.1428926074499937	73.51616176849367
11	4.0	wm	444	diff_vonmises	-0.47789603531606767	-27.381425869645618	1.2094134110576487	112.28323467779718	1.1924731389658845	113.04487235338216	0.06358825646648825	-0.19955133119289314	0.2631395876593814	75.34624458522953
12	5.0	ltm	444	diff_vonmises	-0.07725643712097251	-4.426467787249549	1.4619861960290574	95.97278051047147	1.4426499954302894	96.32502419972946	0.17877206290015835	-0.14397608947116147	0.3227481523713198	73.18065454754412
13	5.0	perception	444	diff_vonmises	-0.1063546965881479	-6.093675245895291	2.4596078739171334	1.874403503335323	0.16155433504051822	2.026975490700948	0.7174576082871298	-0.2696530465879533	0.9871106548750831	83.55563467259614
14	5.0	wm	444	diff_vonmises	0.051583873225995176	2.95553822678741	1.312696193833578	1.0604760748361373	4.170125179067682e-18	1.1414792923371897	0.2422747395226384	-0.15097349163559173	0.39324823115823015	116.61363403204976
15	6.0	ltm	444	diff_vonmises	-0.4295831782749611	-24.61330306497131	0.5941971244280425	63.55714670876201	0.5740076743326016	63.87630775644864	0.15927894899284212	-0.16050064386044927	0.3197795928532914	116.18698268114409
16	6.0	perception	444	diff_vonmises	0.16725474405141313	9.582990937686784	0.31587869142990305	115.75098578097727	0.30018469392161823	115.9780877136643	0.27802784020814286	-0.2652830638238157	0.5433109040319586	144.94923042348373
17	6.0	wm	444	diff_vonmises	0.23641175580336046	13.545395834810002	0.00019691787827958321	4720.777755069475	2.437793740318436e-31	4721.085464147757	0.09898052102084876	-0.19691279741141443	0.2958933184322632	178.15433988130633
18	7.0	ltm	444	diff_vonmises	0.045945628362296737	2.6324905922361754	1.2554532803354277	114.76056424445437	1.2364496599649477	115.57099601053612	0.08727927004636626	-0.2203180642863778	0.30759733433274405	74.5068191257397
19	7.0	perception	444	diff_vonmises	-0.24510388084797818	-14.04341791486656	2.139631281811707	1.4817387227496213	0.07531835697473364	2.1373174805755357	0.4298726402636705	-0.3040096373853971	0.7338822776490677	90.77728752404641
20	7.0	wm	444	diff_vonmises	0.330014549055871	18.908440838814474	0.8909042260548079	27.8389777773798	0.837230545845828	28.243270517389025	0.15935272343760332	-0.15150229379203983	0.31085501722964315	94.98613625373463
0	1.0	ltm	445	diff_vonmises	-0.09233399884289063	-5.29034843926346	8.13144895450733	0.1721383762737978	0.03710644227352184	3.156919822226306	-0.32864621612680384	-0.5085273598165251	0.17988114368972125	45.925640277117
1	1.0	perception	445	diff_vonmises	-0.10800020811116637	-6.187956111304393	14.849532690845168	0.5792391707933934	0.05730611692888814	3.7154511613555923	0.25698038346784224	-0.6091915820276326	0.8661719654954748	34.774456404441025
2	1.0	wm	445	diff_vonmises	-0.0986802105465204	-5.653959585777974	3.4353939552254333	0.574676152572041	0.11794754073993882	3.2147334702493304	-0.16744560625614663	-0.49747580462539187	0.33003019836924524	66.85790644935025
3	2.0	ltm	445	diff_vonmises	-0.07878713468994399	-4.514170297662551	16.197658887375315	0.23710548062672027	3.9679499236339067e-50	1.7402058263259905	0.10049033086468084	-0.2769623592570945	0.37745269012177535	33.66436582154924
4	2.0	perception	445	diff_vonmises	0.006746356875749487	0.3865377760695095	7.425286174645025	1.5016776433408374	0.48669763718819115	3.2257993021609574	0.8148810450600792	-0.5786135974447676	1.3934946425048467	46.5784550406955
5	2.0	wm	445	diff_vonmises	0.18762816381074973	10.750301904145209	3.763882868422871	0.5126488562759957	0.09511001963880523	1.9663284293478855	0.03781324348948084	-0.30345686250968235	0.3412701059991632	66.66651488879592
6	3.0	ltm	445	diff_vonmises	-0.19235021168461816	-11.020855317976594	1.353423963314749	41.752193952049254	1.292520021541637	42.82781070991584	0.034303113015418774	-0.27526676085259005	0.3095698738680088	70.07489213621375
7	3.0	perception	445	diff_vonmises	-0.040040188558398214	-2.2941338153042254	4.2440806493449434	2.5574230640727653	0.7683604076554006	3.6068114860194043	0.9571749146255462	-0.5232648811332135	1.4804397957587596	58.054315219822854
8	3.0	wm	445	diff_vonmises	0.16197359298506636	9.2804032706141	1.3287855198749627	122.91596575186838	1.3057429784972585	123.6720343492786	0.21197008998969125	-0.2486834520496206	0.46065354203931186	75.15408572852019
9	4.0	ltm	445	diff_vonmises	-0.48666350621289545	-27.883764949037626	0.8706529836476837	115.06068405209153	0.8465523537309686	117.34939905978277	-0.1862912290458283	-0.45291080111449133	0.26661957206866305	79.39201175865148
10	4.0	perception	445	diff_vonmises	-0.058833117504811426	-3.3708893286229396	2.0463066864966764	3.755600512731507	0.567078255387371	5.465863050025166	0.5468640482385774	-0.552830835162226	1.0996948834008033	77.88394770458024
11	4.0	wm	445	diff_vonmises	0.18769232231521116	10.753977915670719	122.4976827707368	0.2357816644512415	2.1368123163353486e-44	2.4247111629549565	0.6529350876802834	-0.3859047671543795	1.038839854834663	12.216993884152686
12	5.0	ltm	445	diff_vonmises	-0.0751523455581799	-4.305912220992448	1.2788488035035805	6.983682481743132	0.8189334102150895	8.543995688916798	0.12362419053186224	-0.3933284354198705	0.5169526259517327	81.1623895427094
13	5.0	perception	445	diff_vonmises	-0.1034910027927887	-5.929597677603408	1.0404853584950724	341.7715162566034	1.0239997649934343	343.41930577596946	0.4921579642019509	-0.5405221341048971	1.032680098306848	85.68350271324974
14	5.0	wm	445	diff_vonmises	0.017752357822122637	1.017135179613681	1.3746551030741707	1.25984683137407	5.232183880708004e-15	2.3673888182686365	0.1409470995279365	-0.3436614998591438	0.4846085993870803	114.51015778135188
15	6.0	ltm	445	diff_vonmises	-0.3975063778616976	-22.775437781007817	0.8769631308166651	215.49604948608223	0.8647666473744516	216.8126145332616	0.08514335460426992	-0.3232402399329608	0.4083835945372307	88.58201451871453
16	6.0	perception	445	diff_vonmises	0.06769485844885408	3.8786296838548613	1.1965832668589171	1.8970090341662877	3.2483078881225343e-11	3.493889031785777	0.16195719552312593	-0.4904847844014071	0.652441979924533	120.78412718909858
17	6.0	wm	445	diff_vonmises	0.21016905806997646	12.041800011649567	0.9151406290566564	1.4936414331569958	9.17725795798186e-19	3.0362639221930916	0.003101178841027896	-0.40524316501834245	0.40834434385937035	131.75313355976687
18	7.0	ltm	445	diff_vonmises	-0.19510246398224687	-11.178547758785902	1.1409895339955767	183.78752683701262	1.1254920193541993	185.58510019447894	-0.12560718521716296	-0.3902389034321381	0.2646317182149751	70.33154443534352
19	7.0	perception	445	diff_vonmises	-0.20271544894339805	-11.614739666556432	0.48541612876680085	99.20272784868403	0.4575081077232417	101.24067542036265	0.028303318215197493	-0.5149777200036763	0.5432810382188737	119.61988667656563
20	7.0	wm	445	diff_vonmises	0.7111376631928829	40.745186753748015	10.884062931689533	0.298329717183003	0.08055154942057492	2.1107080419266224	0.024374836895824148	-0.3476991508292165	0.37207398772504063	40.1789936388316
0	1.0	ltm	446	diff_vonmises	-0.000986447753499867	-0.05651929298570376	8.281548523399527	0.1627429964244143	0.005307758374004377	3.2499801431683584	-0.33615409334842794	-0.5175663731209444	0.1814122797725165	46.85047462998784
1	1.0	perception	446	diff_vonmises	-0.11265447310233313	-6.454625852033742	12.621724171059933	0.6894831331785006	0.1476111922642187	3.802654741376921	0.269122963222335	-0.6516169238975484	0.9207398871198834	37.154567778794046
2	1.0	wm	446	diff_vonmises	-0.1023451303384121	-5.863944022107332	2.9772298227503327	0.6452043820937823	0.11687511401825405	3.2179536504114408	-0.1529430323935046	-0.48902541997047083	0.33608238757696623	71.4675233093779
3	2.0	ltm	446	diff_vonmises	-0.0647273341458409	-3.7086030656897053	13.942572373077228	0.2696733783798769	4.9801070293289545e-46	2.046774026164716	0.07216622981456255	-0.3257542036559061	0.3979204334704687	36.29366689405424
4	2.0	perception	446	diff_vonmises	-0.010848087543439315	-0.6215496320275139	7.929258959196699	1.3259046382933597	0.38885182994552603	3.2423133010364693	0.7309396910565236	-0.5760100595989162	1.3069497506554397	45.56951319736598
5	2.0	wm	446	diff_vonmises	0.30311749876695276	17.36735337590833	4.068379039415656	0.45720047595626195	0.023584256227075592	1.978631693019235	0.03237741768284835	-0.31085470347819194	0.3432321211610403	66.60632947233091
6	3.0	ltm	446	diff_vonmises	-0.3466403951410478	-19.861031650329206	7.202891425223289	0.3216116378987708	3.0957829729194206e-25	1.469380968967641	0.1040701920990249	-0.2338590572159162	0.3379292493149411	50.688535733494945
7	3.0	perception	446	diff_vonmises	-0.07579338850357936	-4.342641276250472	3.921289378260765	2.3774122262530253	0.5842462326580441	3.563328293298712	0.8723779119045779	-0.5083808733853373	1.3807587852899152	61.37472880796102
8	3.0	wm	446	diff_vonmises	0.13654797423292658	7.8236226246078076	1.2682759734199311	163.17389505251916	1.2521631663158679	163.80104391739667	0.23732254441247846	-0.22430513592771817	0.46162768034019663	77.93674036742445
9	4.0	ltm	446	diff_vonmises	-0.32076215918756723	-18.378317948951064	1.6273201586860109	1.9931259704736732	0.5510750524063032	4.274096602204679	-0.18843274286680145	-0.4583953492999593	0.26996260643315784	72.76692835520865
10	4.0	perception	446	diff_vonmises	-0.10894513126657415	-6.242096220073444	1.7466224489353155	4.949152254069115	0.6582178418052841	6.799034887488463	0.47096647431536254	-0.5673900268819537	1.0383565011973164	79.87016969084635
11	4.0	wm	446	diff_vonmises	-0.36341950610664103	-20.82240389263938	0.7097830476096134	134.12290623159112	0.6965996245522849	136.23043105734536	-0.2612791045841476	-0.38165124837166786	0.12037214378752026	79.0971964243118
12	5.0	ltm	446	diff_vonmises	-0.18908455509738537	-10.833746978189058	2.2637348190709665	1.2638522175185287	0.2840273050868827	2.9422101144575845	0.09263078978837347	-0.3879359720827115	0.480566761871085	77.86956332742204
13	5.0	perception	446	diff_vonmises	-0.09753895892716917	-5.588570684626678	1.047777362351943	170.47774976780568	1.013230389105438	172.31297676778235	0.47923211033246815	-0.5777123806059095	1.0569444909383776	85.28469406433226
14	5.0	wm	446	diff_vonmises	-0.15505788538603113	-8.88416241284283	0.5523453333515034	99.94296083953424	0.5307250274945311	101.03913620425226	0.1294825741374126	-0.33060418204959063	0.46008675618700323	115.77305161445206
15	6.0	ltm	446	diff_vonmises	-0.3483416830195831	-19.958508265506048	0.8507666597645291	216.96027836308897	0.8374100644406427	218.64959499336928	0.02802491796070683	-0.38547394127654755	0.4134988592372544	87.93946532390855
16	6.0	perception	446	diff_vonmises	0.22796804915367003	13.061607080336191	0.6396448101479872	3.1534085268683065	3.615125488475952e-15	5.032228199741043	0.060206542275419106	-0.5613128268826681	0.6215193691580873	144.27929773473656
17	6.0	wm	446	diff_vonmises	0.2697951186671164	15.458121632856983	0.8448110812995938	1.1115748098299547	4.8084223376652626e-30	2.9145961138234227	-0.11684824620964429	-0.3998119925685956	0.28296374635895133	134.5286329988041
18	7.0	ltm	446	diff_vonmises	-0.3667011121190496	-21.010426067175146	0.960941757225927	193.87890361206266	0.9462869689757073	195.67162586992944	-0.054899130110186434	-0.38734097379615307	0.33244184368596663	79.78473012453537
19	7.0	perception	446	diff_vonmises	-0.3240106310235348	-18.56444167501912	0.473962291175661	232.39635795947737	0.4612071959268516	234.52634967526316	0.04089252422767231	-0.5466181779435537	0.587510702171226	120.24299428695682
20	7.0	wm	446	diff_vonmises	0.661694221136476	37.91228619931627	6.925521568366781	0.4516971381340757	0.13946726596250833	2.1432983999158552	0.07474053360188976	-0.35164087141560496	0.4263814050174947	49.38537500749692
0	1.0	ltm	447	diff_vonmises	-0.8324840786193022	-47.69782421672303	0.00031152239096268465	1626.3553000472564	5.261963303145587e-27	1627.6450527690204	-0.12463013365515963	-0.28589834927385027	0.16126821561869065	161.16985345424166
1	1.0	perception	447	diff_vonmises	-0.10720422875296934	-6.142349853500171	18.689291981932765	0.6423208428770417	0.10510449112138606	2.2277699834938263	0.7073660422214687	-0.3770796934084409	1.0844457356299095	31.05176796471926
2	1.0	wm	447	diff_vonmises	-0.11562301072917712	-6.624710529377684	4.146269802837948	0.30015254574542616	1.1916204236849785e-16	1.322855287795556	0.024773539401924977	-0.21048003054246747	0.23525356994439245	67.21262052065191
3	2.0	ltm	447	diff_vonmises	-0.16157560380430308	-9.257600170264494	102.82060712750317	0.37792160365305044	2.0248193489681738e-50	0.8400661557915833	1.391650984640283	-0.13370068121843673	1.5253516658587196	13.332318634389395
4	2.0	perception	447	diff_vonmises	-0.014164205840372143	-0.8115492148078752	8.388721634109924	1.3529219091198283	0.591313664773599	2.0778149401059274	0.9901267261287431	-0.3854709590243957	1.3755976851531388	44.35340895687179
5	2.0	wm	447	diff_vonmises	0.057878700133025894	3.31620524132566	5.17017568709311	0.3049419198640233	0.03877794832718778	1.0128335186484398	0.10165026462771073	-0.1596436097965689	0.26129387442427965	59.01221181924515
6	3.0	ltm	447	diff_vonmises	-0.20485559261379868	-11.737360866422025	2.430251023969118	57.25269983189158	2.3913046515192398	57.55797084193267	0.13995621728420105	-0.1514959823735662	0.29145219965776725	55.355991247450646
7	3.0	perception	447	diff_vonmises	-0.03270766919113914	-1.8740114023623438	3.5728415485518625	4.091450347753198	1.530178268401258	4.20800038642157	1.111403838631508	-0.39251628357692475	1.5039201222084326	58.35400358148215
8	3.0	wm	447	diff_vonmises	0.11554032904526929	6.619973217846731	1.9369889583141575	131.76437405166277	1.9184034208672522	132.0148682573794	0.2624772353983076	-0.1567506046267937	0.4192278400251013	64.58782889883943
9	4.0	ltm	447	diff_vonmises	-0.4532915629933699	-25.97169344840859	31.06476396423636	0.1915110951842402	0.14312948712494789	1.1034664213957313	0.22247881764065727	-0.1950715060101786	0.4175503236508359	24.03528735005986
10	4.0	perception	447	diff_vonmises	-0.10484024130585563	-6.00690334995865	2.8793903012460356	2.479246320549495	0.4237488061684955	3.460801852191076	0.7812217113189631	-0.43870031971813866	1.2199220310371017	72.13503753566738
11	4.0	wm	447	diff_vonmises	-0.19227282643900706	-11.016421470006494	0.9179394203785176	103.73886048975042	0.9046925596758509	104.6397043157153	-0.029946339467329608	-0.19236164286438218	0.16241530339705257	81.49310389511601
12	5.0	ltm	447	diff_vonmises	0.03610121046566019	2.0684469949958464	1.6317822878533068	134.40678357040957	1.6099502187124055	135.0737928089964	0.1985109677465573	-0.23821863268418042	0.4367296004307377	67.42334998105227
13	5.0	perception	447	diff_vonmises	-0.06390343052688953	-3.6613968655982365	0.9942596554617544	152.195887360781	0.9667450172093744	152.96362327822982	0.5359212053795872	-0.36764099448773635	0.9035621998673236	90.86673785770625
14	5.0	wm	447	diff_vonmises	0.05746135333988454	3.292293031485341	2.4853967614819146	0.6855024402861288	1.6123060218635172e-26	1.271773617282098	0.2001977920605546	-0.199615735355312	0.3998135274158666	87.24686151313244
15	6.0	ltm	447	diff_vonmises	-0.4117448406263358	-23.591241604175757	0.8517873513331832	53.14325403470321	0.8132481558383486	53.883721372778936	0.16422902169112064	-0.22797726623096892	0.39220628792208956	94.67009198370333
16	6.0	perception	447	diff_vonmises	0.07990770778566467	4.578374406683254	1.7776121004731935	1.332055012053427	3.279068354084886e-09	2.0713590395632706	0.31004917653485403	-0.31138539933922493	0.6214345758740789	102.48713181672301
17	6.0	wm	447	diff_vonmises	0.09599415095448015	5.500059707633436	0.000811153833079024	1413.2133453424756	2.882483583711469e-25	1413.9606016649084	0.06354512982619553	-0.3013302207134245	0.36487535053962006	179.58769088733186
18	7.0	ltm	447	diff_vonmises	0.07186896378974757	4.117788303131074	1.5693946020429943	185.14208260943514	1.553480217372456	186.24519962977095	0.02067213284399827	-0.30150389785041654	0.3221760306944148	63.8723657961076
19	7.0	perception	447	diff_vonmises	-0.2977951288184153	-17.06240404084987	0.6911523513475132	122.60223942218639	0.6710549299148894	123.63107570738325	0.1821169407223593	-0.3141235636324673	0.4962405043548266	104.15873021361878
20	7.0	wm	447	diff_vonmises	0.7259336836030565	41.59293627684039	11.889923219944768	0.22404633982477062	0.020317422540496448	0.9492225891931231	0.15058195049761514	-0.15204744802089437	0.3026293985185095	39.166922416612294
0	1.0	ltm	448	diff_vonmises	-1.1551478689745316	-66.18509760577167	0.004395020848276132	103.18353360830045	3.557178599643273e-16	105.1808434560956	-0.24562714937171393	-0.3899777176888435	0.14435056831712956	145.18115583858884
1	1.0	perception	448	diff_vonmises	-0.1428337762689896	-8.183772552128959	17.11428563612736	0.5914396615222856	0.10120445022238028	2.859868594835407	0.4663523371628987	-0.4824804907158197	0.9488328278787184	32.34139727308744
2	1.0	wm	448	diff_vonmises	-0.07320094399080103	-4.194105147046424	3.2456478263613247	0.505688011994681	0.14464120114269963	2.0749864417679573	-0.03335545351279001	-0.3150862054653077	0.2817307519525177	68.92787247650514
3	2.0	ltm	448	diff_vonmises	-0.1524659796662442	-8.73565715420322	115.4738295638137	0.3442249752194439	7.167126849132786e-50	1.2421848756829466	1.2745730248817138	-0.19769986319893246	1.4722728880806462	12.581359766000162
4	2.0	perception	448	diff_vonmises	0.0033808020715898244	0.19370569007118255	7.711972780867082	1.4658508092743263	0.6042656870583821	2.7388294497043058	0.8663142082667604	-0.5066148814520074	1.3729290897187678	45.50119274157552
5	2.0	wm	448	diff_vonmises	0.41438913187182563	23.742748332345716	4.327892458891946	0.34071464769407056	5.446170366740612e-11	1.2873388016312264	0.06851917975724889	-0.20483872508908338	0.27335790484633227	65.7450944232285
6	3.0	ltm	448	diff_vonmises	1.396438585488295	80.0100372976979	2.7333714348139746	0.8281249663177503	2.7331346880047995	1.3304650395046431	-0.0013191612201560008	-0.31183843040707393	0.3105192691869179	133.9966984258027
7	3.0	perception	448	diff_vonmises	-0.04952684381802501	-2.837679123376425	4.78299005721105	2.133983908801628	0.8559850415071076	2.789904442739979	0.9301249734488114	-0.422684984764326	1.3528099582131374	55.16170472537033
8	3.0	wm	448	diff_vonmises	0.2752887590964179	15.772884043618397	1.6508589307126547	101.7824912992512	1.63128021420816	102.00593699720483	0.23624275364143443	-0.13376867888840138	0.3700114325298358	70.44090432527088
9	4.0	ltm	448	diff_vonmises	-0.48871530879853164	-28.001324577588612	8.59295282898	0.38979806634953745	0.3731595567048985	1.9286646954818376	0.01815400627983682	-0.35662093774688486	0.3747749440267217	42.43590940853605
10	4.0	perception	448	diff_vonmises	-0.07267299983497055	-4.163856175098741	2.3453761291591095	2.7027686133908917	0.549488119968686	4.02372124163907	0.5038121604640418	-0.4479432234968045	0.9517553839608462	74.7004868775162
11	4.0	wm	448	diff_vonmises	-0.4873266567263973	-27.921760674643217	0.9551022427497611	114.51884096480671	0.9406940505336261	116.02158430974153	-0.18321306563304773	-0.29311544899381303	0.1099023833607653	69.87308582609369
12	5.0	ltm	448	diff_vonmises	-0.1471458837836938	-8.430838113528155	1.4035578706236707	143.53380075662477	1.3796195265884224	144.65116457260496	0.15402375044629224	-0.32483978540611247	0.4788635358524047	70.88625015051974
13	5.0	perception	448	diff_vonmises	-0.12204094392763438	-6.992431014846183	1.1027680795351247	152.63324554462298	1.0701046496587068	153.88843592577734	0.48939204145947457	-0.45103202398349573	0.9404240654429703	84.3526635046114
14	5.0	wm	448	diff_vonmises	0.026447414490195734	1.5153252293213533	1.7890399853852652	0.9193821365150987	9.875557286705112e-19	1.4799903450062073	0.20770129726337866	-0.22316657027141765	0.43086786753479633	102.20467545745694
15	6.0	ltm	448	diff_vonmises	-0.3819349539053006	-21.883260907297363	0.9353503102946372	120.0985692521906	0.916323695998917	121.06024402984333	0.12126575612608548	-0.2572349049038216	0.3785006610299071	87.62194736734116
16	6.0	perception	448	diff_vonmises	0.24835765440008845	14.229845406893768	0.6148739022479045	2.8382043718241206	4.1411897891456516e-32	4.099633940972604	0.10921721552332275	-0.42978108017218697	0.5389982956955097	145.3469318535614
17	6.0	wm	448	diff_vonmises	0.4318078046234726	24.740764765734617	0.00040372843710488924	2109.490420921142	2.690066036434422e-26	2110.6206115743807	-0.04431703686259425	-0.31540646054889976	0.2710894236863055	174.291623522265
18	7.0	ltm	448	diff_vonmises	-0.0029259411951255278	-0.16764408158415683	1.3301338115934416	182.4085276576487	1.3134685992746444	183.9499687769399	-0.06597800942998333	-0.36620549022242344	0.3002274807924401	66.90786074787258
19	7.0	perception	448	diff_vonmises	-0.4151023773787805	-23.7836142896509	0.7024235987791917	145.7891849773131	0.6813678764187792	147.3838467875571	0.13675159919524305	-0.41676357620601756	0.5535151754012606	100.79723339048374
20	7.0	wm	448	diff_vonmises	0.7399693064522987	42.397118228939355	14.552375781622288	0.38975611887180855	0.2511120082148267	1.5688309849535491	0.2717322730030429	-0.28600897808133435	0.5577412510843773	34.52390556870779
0	1.0	ltm	449	diff_vonmises	-0.09763623824777183	-5.59414437913111	4.519137201842121	0.3745341437407289	7.252657331853691e-18	2.692229098296333	-0.12086537572104916	-0.42844502334023776	0.3075796476191886	64.31090598514223
1	1.0	perception	449	diff_vonmises	-0.08433634158871327	-4.83211643260691	15.859685752178157	0.6477637285264113	2.6635461678588528e-20	3.118981419550867	0.5243164277633536	-0.4964013103332801	1.0207177380966337	34.008829007929876
2	1.0	wm	449	diff_vonmises	-0.18851579591839593	-10.801159477673638	5.159368277942591	0.4373778321180722	0.08051335842775156	2.7023986344660744	-0.07976370595637627	-0.43018299307144636	0.3504192871150701	57.1109157016723
3	2.0	ltm	449	diff_vonmises	-0.05981248399727211	-3.4270028952374676	3.5034513567246264	0.5304404986880278	2.069985459110869e-17	1.9035694182468341	0.07611906885043507	-0.30261911589202384	0.3787381847424589	73.28458036950775
4	2.0	perception	449	diff_vonmises	0.00435772061990237	0.2496789998175386	6.086452736740717	1.5631760412943954	0.37759465738193226	2.9384536487089847	0.8454489103208352	-0.48661395974350685	1.332062870064342	51.95177629260573
5	2.0	wm	449	diff_vonmises	-0.022695656612303626	-1.3003653371631774	2.7416250657811134	0.9473926777437001	0.26614424885183335	2.4321856109889226	0.09289882047141962	-0.3423617405322507	0.43526056100367033	72.48654172421243
6	3.0	ltm	449	diff_vonmises	-0.18173068716647528	-10.412401382651307	1.2382135740238793	247.04773908781146	1.2242756027029527	248.3545581211154	0.13168531217534962	-0.3514080838190381	0.4830933959943877	74.80654077425876
7	3.0	perception	449	diff_vonmises	-0.024806495960224148	-1.42130752302917	3.2097086156817256	3.5807156523300483	0.6780640449407679	4.758426780441498	1.102434309980855	-0.5905228614607826	1.6929571714416376	66.00250168809899
8	3.0	wm	449	diff_vonmises	-0.012192338543179297	-0.6985695409188564	2.4286085150058825	1.2584101259737037	0.24264846320791633	2.52294245896047	0.22473202634594225	-0.3374511953073463	0.5621832216532885	78.58242361189485
9	4.0	ltm	449	diff_vonmises	-0.33475681018509634	-19.18015238686803	2.7084254123061147	0.5835213469743504	1.422535725645785e-14	2.706255029505829	-0.07035670979504893	-0.42911343641887545	0.3587567266238265	83.51624011774963
10	4.0	perception	449	diff_vonmises	-0.09291206143621161	-5.32346898615514	1.0178830374824397	125.05043164546407	0.9606762490972139	126.87699799205289	0.7438658593713825	-0.673814605313197	1.4176804646845795	88.71320756377085
11	4.0	wm	449	diff_vonmises	-0.20941395356881448	-11.998535710641654	0.635615347264762	228.03251524175067	0.6242758911787187	230.22519018532213	-0.1016485078889886	-0.45068502147265477	0.34903651358366616	97.67553496790376
12	5.0	ltm	449	diff_vonmises	-0.01203927097614062	-0.6897994153472043	0.973367171607892	71.0438210013915	0.9352890629698696	71.83530531916584	0.25281227668176953	-0.26758411554725825	0.5203963922290278	89.5032935487904
13	5.0	perception	449	diff_vonmises	-0.07160176255243722	-4.102478799952517	0.9661703430694034	346.2054962413848	0.951586919945439	347.0405352842339	0.6805344806035549	-0.4399390971669739	1.1204735777705288	92.33979851107088
14	5.0	wm	449	diff_vonmises	0.04172758455569414	2.3908144843165506	0.4438212248894233	31.619904545967426	0.38044492590282725	32.59497392171992	0.14951571582598788	-0.34573023820725357	0.49524595403324145	130.99014167346706
15	6.0	ltm	449	diff_vonmises	-0.44357507359864135	-25.414979614407017	0.7411606080592493	141.42949512398025	0.7282571610030479	142.23378877182898	0.11504165957381929	-0.22768422097858654	0.3427258805524058	99.35253434575155
16	6.0	perception	449	diff_vonmises	-0.09040365311394419	-5.179747775993724	0.5158295843948578	212.43166318332152	0.5039829347729295	213.20015787962402	0.2808796200155115	-0.3507777030438888	0.6316573230594003	122.72073331388816
17	6.0	wm	449	diff_vonmises	0.04993061347101956	2.860813420388475	0.0214126997429546	63.08311458326112	6.898404332535033e-12	63.93499149051413	0.08054476462812232	-0.34940410085281215	0.4299488654809345	178.64616988789436
18	7.0	ltm	449	diff_vonmises	-0.1757263729875297	-10.068379521327167	1.2055222145007287	157.60398706529503	1.1878092600621537	158.94357206278363	0.011061844434671286	-0.3221802362819197	0.333242080716591	72.91579562440418
19	7.0	perception	449	diff_vonmises	0.00035487801827420223	0.020333012689078292	0.478995571352804	191.84305986286085	0.462380246377921	193.43722271898972	0.21073400637817485	-0.5203011931929886	0.7310351995711635	123.94678620120038
20	7.0	wm	449	diff_vonmises	0.23457678162621773	13.440259558944232	0.9089626701035562	123.0396835737554	0.8925216809962737	124.4781024356667	-0.07691597964163321	-0.29813607253004903	0.22122009288841582	80.36903434985044
0	1.0	ltm	450	diff_vonmises	-0.06608292247876593	-3.7862725559234844	5.801879735769129	0.32995130795970234	3.3841465911619095e-24	3.459788719103556	-0.2410779146088966	-0.5506396496222048	0.3095617350133082	56.59098055774564
1	1.0	perception	450	diff_vonmises	-0.07934055603208288	-4.545879004859574	11.192110505453954	0.6686906784128316	1.410655373496488e-16	3.893886071149279	0.26202361502069993	-0.6197312158924737	0.8817548309131736	40.55445621998388
2	1.0	wm	450	diff_vonmises	-0.13863299836419557	-7.943085707512452	3.651821389267162	0.6927653181491029	0.1327827000801963	3.745494878361731	-0.17112096020133893	-0.5827142539297081	0.41159329372836917	64.79552942901216
3	2.0	ltm	450	diff_vonmises	0.011877987972920698	0.680558579955508	2.3512433359170393	0.5438422989147009	6.088040140880437e-16	2.1345735125384	-0.03061848321582139	-0.33692326733759875	0.30630478412177736	89.69020418267544
4	2.0	perception	450	diff_vonmises	0.028258330930441458	1.6190830983982882	5.7487298755250125	1.7264624995866782	0.45834267023686115	3.3110971947297427	0.8205357608651941	-0.5499308389596009	1.3704665998247951	52.55467977899045
5	2.0	wm	450	diff_vonmises	0.15994474927315452	9.164159088629896	2.6483800285680776	0.9057536103775415	0.2152782481867462	2.43657694766183	0.07669728091323835	-0.34519798546775193	0.4218952663809903	74.73233847850867
6	3.0	ltm	450	diff_vonmises	-0.18476501056071948	-10.58625530681931	1.086254899492048	185.76359639347757	1.0703115136883292	187.2263293449525	0.03665602819003766	-0.3483529624568682	0.38500899064690586	77.71319998616053
7	3.0	perception	450	diff_vonmises	-0.03336466871942251	-1.9116547024750667	4.020591842167388	2.4580534946751005	0.45994997413102695	3.752542668060667	0.997288999713432	-0.5456480188072949	1.542937018520727	62.03385110187932
8	3.0	wm	450	diff_vonmises	0.15959095959142097	9.143888433031286	0.8543834946361821	46.281622496043155	0.7952063765933873	47.327494631315595	0.20624340574659605	-0.3121496769529166	0.5183930826995127	94.69228703685854
9	4.0	ltm	450	diff_vonmises	-0.47859418035561635	-27.42142663389975	0.6561968025282883	212.181585196095	0.6421664749166367	214.80524725736717	-0.1519487703807485	-0.5259688661897854	0.37402009580903695	94.82528081337753
10	4.0	perception	450	diff_vonmises	-0.020877837086335838	-1.1962119504087512	1.1775550795020997	17.817042205277225	0.8228711598680984	19.66589702426893	0.6237635457638007	-0.632812076236448	1.2565756220002486	87.72503702472133
11	4.0	wm	450	diff_vonmises	-0.06288723218315052	-3.603172989353807	1.724625811745203	0.8419038798664087	0.04641868433036315	3.6355984891877795	-0.20884326035876705	-0.5396646776493653	0.3308214172905983	96.882011916493
12	5.0	ltm	450	diff_vonmises	-0.12074886807620835	-6.918400521748699	0.8530272174662354	115.54364036203688	0.827691090924789	116.71100994956271	0.19809358060076931	-0.33437687462165044	0.5324704552224198	93.21951727465448
13	5.0	perception	450	diff_vonmises	-0.09884439990168957	-5.663366942870142	1.0261362842675592	342.56453779881275	1.009994882543522	343.7465968802644	0.6381370559187758	-0.4917366934482317	1.1298737493670075	88.34929619122741
14	5.0	wm	450	diff_vonmises	0.053731576036267485	3.0785925334643998	0.37683568469573825	78.45289239394374	0.3496955838160218	79.45638749224372	0.1675338594875555	-0.37803953864376716	0.5455733981313227	136.7734299335685
15	6.0	ltm	450	diff_vonmises	-0.48522970930962894	-27.80161443780153	0.7558552313869457	177.42382854170557	0.7444493861921954	178.3600483525676	0.11197131539105953	-0.2542397095088802	0.36621102489993973	97.65219644170766
16	6.0	perception	450	diff_vonmises	-0.07484995350266747	-4.288586432453299	0.4961900430442382	207.40991783902587	0.4826655994774702	208.47914017035077	0.2630371988904727	-0.4184514842793341	0.6814886831698068	123.69776588299915
17	6.0	wm	450	diff_vonmises	0.15552104156291263	8.910699307033553	0.5234766853902642	2.9366116548909895	2.6534516123613276e-17	4.054938530328999	0.09211910259818157	-0.38650272434854005	0.4786218269467216	150.51540279521063
18	7.0	ltm	450	diff_vonmises	-0.3700003747265204	-21.19945989008855	1.9295922728698387	0.9834442982364494	0.32265751942671655	2.7057775659935817	-0.08298993513456565	-0.3475853507867189	0.2645954156521533	77.59217715276324
19	7.0	perception	450	diff_vonmises	-0.04026158595998574	-2.306818952010354	0.5655921505024735	206.08330876017928	0.5471146733399805	208.1299828079349	0.19419084367478945	-0.5834528012848352	0.7776436449596247	113.44682807901319
20	7.0	wm	450	diff_vonmises	0.2590735298710271	14.843819845166315	0.8353129736007141	161.81557723534473	0.8193665671337883	163.8095497603325	-0.12021049647335502	-0.4036413102803209	0.2834308138069659	83.28201690325437
0	1.0	ltm	451	diff_vonmises	-0.3451970302177189	-19.778332931925238	0.00032690665507945944	1987.3140702153948	8.564364164991092e-32	1988.9900108924785	-0.16332898139586405	-0.37012260460397783	0.20679362320811379	176.6022625134971
1	1.0	perception	451	diff_vonmises	-0.08098983383470561	-4.640375662194467	14.377255586714279	0.7603285971494961	0.10577960366512912	2.684505314347672	0.6658875902174742	-0.4503636102118349	1.1162512004293093	35.316030215506004
2	1.0	wm	451	diff_vonmises	-0.0723190352361797	-4.143575497490984	3.8309546041571045	0.3769201757902314	1.7404626360874222e-14	1.8237918978259693	-0.007241151540047397	-0.2901323554654788	0.2828912039254314	69.9945490992103
3	2.0	ltm	451	diff_vonmises	-0.11846583724183474	-6.7875924904408595	15.03251969878229	0.24297062266313513	1.301391184697934e-21	1.088814746064746	0.19926794739576786	-0.17329024894751846	0.37255819634328635	34.94132560147875
4	2.0	perception	451	diff_vonmises	-0.01981948779999901	-1.1355730030509683	8.184549862731798	1.306518991942283	0.4066875553753166	2.148924791037183	0.9738855336684293	-0.37828629318903717	1.3521718268574665	45.52817252876656
5	2.0	wm	451	diff_vonmises	0.04019863005399084	2.3032118443014236	3.794930618273567	0.508082663721548	0.15828457858589626	1.3651238819817395	0.12658196202081673	-0.20739087365813294	0.33397283567894964	65.88994712625757
6	3.0	ltm	451	diff_vonmises	-0.21557897266782597	-12.351765285632558	1.7123409965174887	59.41085017618212	1.6818412674059153	59.82064641031669	0.113238645653567	-0.1467368457739031	0.2599754914274701	65.56395307077102
7	3.0	perception	451	diff_vonmises	-0.04535470128024585	-2.598632964434679	4.019396444186261	2.5302448502515866	0.8641190957631949	2.6800289667426824	1.1037880164844749	-0.34708989121686246	1.4508779077013374	60.35275962456345
8	3.0	wm	451	diff_vonmises	0.020050423048605298	1.1488046181369131	1.564134695953328	122.30662104902201	1.5448459833607822	122.60467367492399	0.2765260682824149	-0.16400998919784548	0.44053605748026037	72.19322857209858
9	4.0	ltm	451	diff_vonmises	-0.39603095523066656	-22.690902291251646	25.74513789478213	0.18099451326236862	3.7929512411215957e-14	1.2386579845100214	0.16728719700123065	-0.19713854103501133	0.364425738036242	26.66178097946718
10	4.0	perception	451	diff_vonmises	-0.10056497461837337	-5.761948612473041	3.098499628461804	2.2450603055239013	0.24194169884502845	3.200066853476169	0.8583126066621448	-0.44187640092704655	1.3001890075891913	72.8145877640734
11	4.0	wm	451	diff_vonmises	-0.20821693895955945	-11.92995182551584	0.8166437529655377	137.7444186565118	0.8045221957177595	138.77979183658982	0.003552844599759908	-0.231191608261339	0.2347444528610989	89.10893515043163
12	5.0	ltm	451	diff_vonmises	0.05855702318786899	3.3550702895145905	1.2300154496268525	97.30211316096735	1.2053785827521664	98.10733383949686	0.13552734127181054	-0.23243484001134718	0.3679621812831577	76.6899756670521
13	5.0	perception	451	diff_vonmises	-0.05080102268584282	-2.9106841948471436	1.274333286501425	7.488477814373514	0.6942833592038518	8.29318641015589	0.5905333647265136	-0.39557107564440036	0.986104440370914	91.22064863162586
14	5.0	wm	451	diff_vonmises	0.004864633179832497	0.2787229500837073	1.578203741989341	0.9452803448937468	2.9428194551920396e-19	1.719829887958676	0.14854923237921225	-0.2557392197026929	0.40428845208190517	108.08206958709715
15	6.0	ltm	451	diff_vonmises	-0.42096265774244956	-24.119383621252528	0.6772258594003817	77.34210333577738	0.6509259726918969	78.25362002006327	0.13609401319679648	-0.26849607095243666	0.40459008414923314	104.89828947715881
16	6.0	perception	451	diff_vonmises	0.11033193391282581	6.321554158721238	1.3114880237106907	1.8720737200594264	8.417106513350594e-12	2.625626193388804	0.3300926152062621	-0.3635863146502002	0.6936789298564623	116.60396034868091
17	6.0	wm	451	diff_vonmises	0.0647451322453477	3.7096228216747984	0.1643854654057631	8.07854584035037	1.7822259139054354e-09	8.95945223082627	0.0793313262124653	-0.34242956412326864	0.42176089033573394	170.45158437860596
18	7.0	ltm	451	diff_vonmises	-0.042860151341451234	-2.4557057811571297	1.224529122760916	159.8651728971991	1.2099126797379676	160.92691236536083	0.025996334028384638	-0.2614798599267587	0.28747619395514334	72.92343015661572
19	7.0	perception	451	diff_vonmises	-0.15403178304949958	-8.82537107961106	0.7699007524033674	5.779520021209762	0.355707588914748	6.855806524914601	0.2125530215529663	-0.3717385814323621	0.5842916029853285	116.4595860830218
20	7.0	wm	451	diff_vonmises	0.39145459721548365	22.4286962914408	0.7866766162063273	31.9138286460895	0.7396481121496128	32.72289188959083	0.05020629602770299	-0.19958900868351437	0.24979530471121736	94.86551078119743
0	1.0	ltm	452	diff_vonmises	-0.8415287842345721	-48.21604767541627	0.0003105952842265435	1442.8400428941077	1.1382499637548813e-27	1445.776771859526	-0.3960663140706231	-0.5387124725945114	0.1426461585238883	160.77925359083716
1	1.0	perception	452	diff_vonmises	-0.08471336605028836	-4.853718343028355	11.178494263013366	0.7321723785150734	0.0431897589661278	3.8797888602988806	0.32072538785752014	-0.6272798591830415	0.9480052470405617	40.147511089563494
2	1.0	wm	452	diff_vonmises	-0.08502064939834597	-4.871324381986706	4.146054839086442	0.522673401910288	0.11875173479276073	3.260871192305072	-0.17258327590339667	-0.5147299832702755	0.34214670736687885	61.42636603792161
3	2.0	ltm	452	diff_vonmises	-0.136278867561886	-7.808203948118368	3.617316783764629	0.37600146215688496	1.9283291286533518e-20	1.8699955660573608	-0.024076745984185466	-0.2974217589932043	0.2733450130090188	72.08690837920184
4	2.0	perception	452	diff_vonmises	0.009942172387821432	0.5696445170136719	6.978415534987048	1.6241040612752453	0.45249352235283335	3.3062611451706534	0.891767673929111	-0.5772866362647335	1.4690543101938447	48.2164490542057
5	2.0	wm	452	diff_vonmises	0.21367622185418586	12.242745694545896	3.2807222413352353	0.5517106949693744	0.059866158127630575	2.089212873220762	0.02739060469126331	-0.32099023973722224	0.34838084442848555	72.37720767229703
6	3.0	ltm	452	diff_vonmises	-0.172468353851837	-9.881708775279115	1.1606735973889912	84.0253816969747	1.1337744419602667	85.11102338734001	0.02236931175107415	-0.2613148343875604	0.2836841461386346	75.05389747097851
7	3.0	perception	452	diff_vonmises	-0.04121466401035744	-2.3614263018432093	4.063212389529957	2.5051915037203125	0.6781086700035441	3.4577794332746405	0.973013182807958	-0.4909401671968059	1.463953350004764	60.04803861944012
8	3.0	wm	452	diff_vonmises	0.14405692187734853	8.253853633217886	1.1532054665813383	174.57076719994163	1.1385876684318492	175.30752442960915	0.2040457332890071	-0.23652924202730574	0.44057497531631284	80.86299797051112
9	4.0	ltm	452	diff_vonmises	-0.5859643934831286	-33.57328669152635	0.9339045600131238	190.86328845783206	0.9171224589303438	193.32925797794792	-0.19466128664724636	-0.4978187280306159	0.30315744138336953	76.77788272558902
10	4.0	perception	452	diff_vonmises	-0.05013342090460387	-2.8724334303867356	2.300123651130658	2.8083544267018037	0.3776065092783866	4.39201347035137	0.5912529146500882	-0.5260066078860149	1.117259522536103	78.61737972300213
11	4.0	wm	452	diff_vonmises	-0.1645944837500501	-9.430569250012482	0.5970095646086243	129.2157263446385	0.5807349615080817	131.84303885092015	-0.290559479214636	-0.47464415967182916	0.18408468045719317	90.09244009618887
12	5.0	ltm	452	diff_vonmises	-0.1054750661193593	-6.043276132502591	1.0991960269674848	9.877840078072868	0.8140113456468716	11.132719622690253	0.14964918835992513	-0.332089104066394	0.48173829242631916	86.12305442253
13	5.0	perception	452	diff_vonmises	-0.12181499717419543	-6.9794852194794474	1.1035588998861037	192.31579900086976	1.0740644429193087	193.55473388586574	0.6227254983080428	-0.4942466331265898	1.1169721314346326	85.10919948812068
14	5.0	wm	452	diff_vonmises	0.03454892108572919	1.9795073649428205	1.0998343532807984	1.4711660810614162	1.6797784698215293e-14	2.42780699097486	0.1439645046423278	-0.32761221991219075	0.47157672455451854	124.51880746922203
15	6.0	ltm	452	diff_vonmises	-0.42483608548800855	-24.34131468332193	0.7756788862256228	145.98347247837313	0.7636065954200283	146.86033900440975	0.07635845903838856	-0.2250712623918698	0.30142972143025837	95.34910053936743
16	6.0	perception	452	diff_vonmises	0.13499563993789185	7.7346804211089015	0.12623756212347947	132.3825786301126	0.1111997200440714	133.43551303728253	0.14773724916546982	-0.4464726517496409	0.5942099009151107	165.527876838772
17	6.0	wm	452	diff_vonmises	0.21048898602159818	12.060130533025756	0.5712679063780708	2.0934257953801745	4.427634915212917e-15	3.2219440029867865	0.03176567791347895	-0.3390705544170307	0.37083623233050966	147.76408467157836
18	7.0	ltm	452	diff_vonmises	-0.542286106957494	-31.070705217244356	3.0982218529130168	0.34239848417936875	6.512962131318405e-15	1.7372439917827502	-0.04808981076989477	-0.2760257907835686	0.22793598001367382	77.97299174565224
19	7.0	perception	452	diff_vonmises	-0.14781366468561152	-8.469099140847481	0.6377285046984127	122.92064490157713	0.6113289642628258	124.65958519959233	0.15000022921086043	-0.4677840964343769	0.6177843256452373	106.41802881433026
20	7.0	wm	452	diff_vonmises	0.33886883213311214	19.415753889754498	0.8165942518853815	99.93741546128986	0.7941279806199879	101.59497390259472	-0.07271509395280518	-0.34295888131992314	0.27024378736711796	86.02121165908937
0	1.0	ltm	453	diff_vonmises	-0.845899596828186	-48.46647679007298	0.00023293392414281254	2019.8322888190305	1.641222209160312e-31	2022.029359454476	-0.2747923689268532	-0.4245482150424209	0.1497558461155677	160.594221652323
1	1.0	perception	453	diff_vonmises	-0.11489111653229939	-6.582776080846473	11.800124748001227	0.8296414855271285	0.22140454226163936	3.214052250959413	0.4935181901329062	-0.5671191798967	1.0606373700296063	38.261330972281286
2	1.0	wm	453	diff_vonmises	-0.056331274330588245	-3.227544273736338	3.460903873059493	0.45066617217970284	0.07961277031654798	2.1815776304544987	-0.055475916009931736	-0.3368481583080991	0.2813722422981674	69.02049011122409
3	2.0	ltm	453	diff_vonmises	-0.10719136220686805	-6.141612654711657	31.937728363265904	0.20863150014435797	6.434756256214539e-27	1.513231700384198	0.22762146128045946	-0.24083830515949906	0.4684597664399585	23.923155855750082
4	2.0	perception	453	diff_vonmises	-0.0255211338185518	-1.4622532561916126	9.10017504199073	1.2549950042425453	0.39398905368775566	2.7532629149935866	0.8627377733840198	-0.49900606235441586	1.3617438357384357	42.99832303011078
5	2.0	wm	453	diff_vonmises	0.41676209854619806	23.87870930771245	4.270251759599508	0.37080642714518974	9.653627279572745e-19	1.5185964105891603	0.05371916125103576	-0.24163440324395483	0.2953535644949906	66.19570076478865
6	3.0	ltm	453	diff_vonmises	-0.3421058414609829	-19.601220862485974	8.497939643650804	0.20884132128257232	4.338880616977738e-10	0.8306951884151551	0.10683164469872919	-0.13220923544046395	0.23904088013919314	46.613289599571516
7	3.0	perception	453	diff_vonmises	-0.0820407529852216	-4.700588894128507	4.068173064536138	2.1794811457087873	0.6951565683762196	2.7830754464249057	0.9017603253026991	-0.38864996853285305	1.2904102938355522	60.3222911265413
8	3.0	wm	453	diff_vonmises	0.1469212101122104	8.417965260384449	1.5348529564737858	132.4687907965314	1.5204614547975643	132.66769065328438	0.24467313003039237	-0.12863408765960216	0.37330721768999453	73.50765261517026
9	4.0	ltm	453	diff_vonmises	-0.3435637412964099	-19.684752370008756	5.157088502857134	0.5403479633000422	0.5098887404691174	2.1170368563635735	-0.049967265837272845	-0.3719491944626648	0.32198192862539193	50.65830963120328
10	4.0	perception	453	diff_vonmises	-0.12656513727528548	-7.251648199367754	2.5178048692743094	2.3947158395002432	0.4483759400077534	3.727791048236456	0.5332419828489382	-0.45131683815545853	0.9845588210043967	74.53289840546532
11	4.0	wm	453	diff_vonmises	-0.5694286293186822	-32.6258571938799	1.039419358582932	100.87577720011846	1.0211920578997045	102.3159869640724	-0.15104807183826097	-0.2925813576677143	0.14153328582945335	69.92202305048772
12	5.0	ltm	453	diff_vonmises	-0.16900550156596827	-9.683301954221607	1.1619917863204257	66.37132137557582	1.120034025247609	67.57934935630476	0.07860328832202867	-0.3058706338808381	0.3844739222028668	76.8591662901704
13	5.0	perception	453	diff_vonmises	-0.11200249173624509	-6.417270071435723	2.298566994764081	2.5064856833212845	0.3578403018665462	3.8306365910067264	0.5608607518099552	-0.46077760032721315	1.0216383521371684	79.34396378290933
14	5.0	wm	453	diff_vonmises	-0.15668125471321426	-8.977174623881414	0.7331345249896958	7.909290816569078	0.5141957167241552	8.623676564733238	0.14993905855726064	-0.23832362488610814	0.3882626834433688	109.96705810476043
15	6.0	ltm	453	diff_vonmises	-0.35147516365496556	-20.138043481099434	2.3319153277944515	0.7223935682260517	0.11281594836848736	1.9404759349275305	0.06397882827715468	-0.27872551203040413	0.3427043403075588	82.97244007798905
16	6.0	perception	453	diff_vonmises	0.41108682533885144	23.553540105347814	0.0005203858555073508	3411.1593606156343	7.377821216834246e-28	3412.4624028080034	0.07516153741300968	-0.48985924884868837	0.565020786261698	174.79162411888194
17	6.0	wm	453	diff_vonmises	0.47218818684780384	27.054390242313886	0.00026528651939966867	2373.974259526664	9.020951575974908e-25	2375.2806870060217	-0.10768465310178499	-0.3081508339341781	0.2004661808323931	173.2502483578923
18	7.0	ltm	453	diff_vonmises	-0.25161418048171946	-14.4164306072455	0.9528506763156863	143.30229325969125	0.9371110611279897	144.54118735098808	0.01989335007979065	-0.2849038358711731	0.3047971859509637	82.8549317382296
19	7.0	perception	453	diff_vonmises	-0.3925517320944351	-22.491557489561316	0.606207918291562	194.32651173728925	0.5916721831695416	195.77129860888274	0.1531472130081113	-0.4090445742469093	0.5621917872550206	109.4762414787412
20	7.0	wm	453	diff_vonmises	0.6811422117771748	39.02657398303823	9.915947870623828	0.3716450001203844	0.044627206201868136	1.3444229206475227	0.23707581407041073	-0.21653693035905938	0.4536127444294701	42.71435437971164
0	1.0	ltm	454	diff_vonmises	0.16588185307167005	9.504330078815926	2.819956593879271	0.6304982784927643	1.8284309181608628e-29	4.4721387094512055	-0.31324372369014797	-0.7103466735223912	0.39710294983224326	81.86822846315206
1	1.0	perception	454	diff_vonmises	-0.032738227522254935	-1.875762265764242	7.7941124947482905	1.0110579035577185	0.14485342162498238	4.741209257442958	0.23916251544328693	-0.7859786842965967	1.0251411997398836	46.7415905547808
2	1.0	wm	454	diff_vonmises	-0.024617329513956943	-1.410469084032571	2.5719157115520415	0.8639227108706005	0.07074061347392574	4.515624449029008	-0.2527361540882139	-0.6844603102916496	0.4317241562034356	78.54895120019785
3	2.0	ltm	454	diff_vonmises	0.055009560201087514	3.1518156323931388	1.6184785446615324	0.7011717828813822	9.280399847503714e-25	2.738128101143179	-0.11772333625287301	-0.4232919209356845	0.3055685846828115	106.8867476222423
4	2.0	perception	454	diff_vonmises	-0.015431681874168919	-0.8841702421784113	6.723536030141711	1.3617304033190694	0.25245862768181976	3.14468000326517	0.7462801827948317	-0.5208749152102329	1.2671550980050645	50.185895085519974
5	2.0	wm	454	diff_vonmises	0.1251632853527485	7.171328000704085	2.77062961147902	1.0710694401089427	0.24678606581574852	2.789466170290235	0.11052821016489434	-0.3954254174765136	0.5059536276414079	72.68459635054688
6	3.0	ltm	454	diff_vonmises	-0.22313125869585562	-12.784479400714277	2.19394814792646	0.6871287322486072	0.03099533546217353	1.8916810487244564	0.0643001725756307	-0.2871543226745712	0.3514544952502019	90.32670092936742
7	3.0	perception	454	diff_vonmises	-0.07755188751509735	-4.44339584788838	3.1733749083507674	2.56245421694048	0.3780211935800968	3.5391139162755025	0.9390764909965923	-0.4716243352192152	1.4107008262158076	70.09628496295116
8	3.0	wm	454	diff_vonmises	-0.05015119690519989	-2.8734519201975095	2.223643014663173	1.258619007915042	0.19151182161717786	2.035083792776657	0.30333613309657714	-0.26700683067009834	0.5703429637666755	84.58399385202597
9	4.0	ltm	454	diff_vonmises	-0.061003609088499416	-3.4952493358369274	2.5979873106511064	0.6383575506862835	9.378557165821781e-14	2.952889467181108	-0.08521291163421102	-0.4678354597768969	0.38262254814268587	85.33694848027025
10	4.0	perception	454	diff_vonmises	-0.08325884435749922	-4.770380388821314	2.320234581070626	2.907845312551506	0.23592370688296502	4.584470589729721	0.7287608069148492	-0.5911729497977194	1.3199337567125686	81.96127028877405
11	4.0	wm	454	diff_vonmises	-0.19730068360743971	-11.304496465752282	0.5993629551912456	207.2622762175197	0.5873072968375788	209.46334198590242	-0.10661417237110982	-0.4527743729740834	0.3461602006029736	100.64211576041849
12	5.0	ltm	454	diff_vonmises	-0.16643330804417616	-9.535926121332029	0.5172198172045656	140.3898280842069	0.5005436933109908	142.04671176026872	0.029158467941812205	-0.41228121353326586	0.44143968147507806	115.2704749587441
13	5.0	perception	454	diff_vonmises	-0.05167993445986927	-2.961042130063215	1.4171215803452055	6.864572560248386	0.6010023033837754	8.548241520470132	0.6013781934799369	-0.5851107660106195	1.1864889594905565	88.3182905939048
14	5.0	wm	454	diff_vonmises	-0.21556565536284378	-12.35100226026259	0.40450351622971775	208.9991172019087	0.3932708170343699	210.5216016688246	0.0850042952933805	-0.4455718205715016	0.5305761158648821	130.24315553211943
15	6.0	ltm	454	diff_vonmises	-0.4316015407137988	-24.72894671424444	0.5684303387486969	225.1293798687644	0.5565974114568423	227.06926643724444	0.0029169852680723807	-0.45117919795242756	0.45409618322049994	108.13199236979388
16	6.0	perception	454	diff_vonmises	0.1279138531966526	7.328923929424188	0.374945421498069	83.51143791710138	0.3352391935628698	85.18204881825264	0.24043247628151576	-0.6062147292146545	0.8466472054961702	137.33261252800793
17	6.0	wm	454	diff_vonmises	0.06442222346047843	3.691121511134092	0.5035034389310641	5.815460064850142	0.17068874740309256	7.728016751293767	-0.009605243698860066	-0.5038649548721492	0.49425971117328915	138.01789105394244
18	7.0	ltm	454	diff_vonmises	-0.5152459322068407	-29.521417326735705	2.3634003203650695	0.6781149745719104	3.163024659467251e-22	2.3192936681746614	0.017462672983741212	-0.36570332984955245	0.38316600283329366	89.24736925726053
19	7.0	perception	454	diff_vonmises	-0.04602310825783497	-2.6369298632476306	0.4648284368639685	312.73152018142633	0.4532301163279462	314.7802068242197	0.18561816271902387	-0.6207417508671647	0.8063599135861885	124.26889625240588
20	7.0	wm	454	diff_vonmises	0.21274809143221635	12.189567738529346	0.7351417830176923	124.75287293144281	0.7122607116373328	126.52498559658396	0.036139937441753034	-0.4093419288739053	0.44548186631565834	95.59807850633337
0	1.0	ltm	455	diff_vonmises	-0.2067898917665679	-11.848188044191431	1.2211225904260072	0.8171670544846849	2.2246469940909877e-34	3.100729550256671	-0.18049608712381626	-0.46627600783564255	0.2857799207118263	119.68570555698956
1	1.0	perception	455	diff_vonmises	-0.09287834187599409	-5.321536997667638	10.749535853077122	0.9246628366008907	0.14687394624899047	3.2619949063766165	0.5964787349512111	-0.5505267253747629	1.1470054603259738	40.45965533273312
2	1.0	wm	455	diff_vonmises	-0.16966487106892958	-9.721081043880929	5.456640775938835	0.38956468901098534	0.029136809659506283	2.4726105753123413	-0.051243383216669935	-0.39203752653531526	0.3407941433186453	57.161759355814496
3	2.0	ltm	455	diff_vonmises	-0.08918288118209991	-5.109802696551015	3.1960954164691553	0.5724792502932622	3.227792491958804e-24	2.1856313313676057	0.040800498643451644	-0.3472031880834488	0.38800368672690044	76.80995940889866
4	2.0	perception	455	diff_vonmises	-0.02874353598777702	-1.6468833003820191	6.2475620115431605	1.401200729886108	0.23284701852271691	2.9783394718016423	0.7764088420095381	-0.48431901713163367	1.2607278591411717	52.224333528375155
5	2.0	wm	455	diff_vonmises	0.15717465352584445	9.00544429346189	2.8298370265277755	0.5868260371668291	3.882214805148646e-17	2.096731591567269	0.03799714533345172	-0.33241031541908184	0.37040746075253356	81.716181244061
6	3.0	ltm	455	diff_vonmises	-0.15134752939054236	-8.671574673810262	2.0656733500183697	1.2177467546789675	0.22111999260189388	2.4831816264344186	0.15352548609736372	-0.3219554680935788	0.4754809541909425	84.22883337814173
7	3.0	perception	455	diff_vonmises	-0.07831876122786878	-4.48733447504971	2.239765447288915	4.83214605371536	0.6807830961366474	5.992686302439604	0.9848522522342256	-0.5696218643235309	1.5544741165577565	75.6609930302537
8	3.0	wm	455	diff_vonmises	-0.08441721863216703	-4.836750345856307	0.9472657077606039	161.66460541410197	0.9292207966683199	162.4827428477248	0.2858385177401743	-0.28660461664915005	0.5724431343893244	90.61654665695625
9	4.0	ltm	455	diff_vonmises	-0.18280083378427234	-10.473716267311278	4.86212694609105	0.5606372381431881	0.1798449835015272	2.6371686998633597	-0.019507451807420084	-0.4234985398270179	0.4039910880195978	56.91520901941095
10	4.0	perception	455	diff_vonmises	-0.16775059090213576	-9.611400869518045	0.9678987490283509	161.2282258670337	0.9261933474731917	163.09065076091144	0.666769971043145	-0.6574854451728012	1.3242554162159461	90.27367767819828
11	4.0	wm	455	diff_vonmises	-0.5013040779201483	-28.72260791752186	0.8951930415584499	199.19050780070097	0.880716402365497	201.15100595993334	-0.07599503302607502	-0.4136809220309523	0.3376858890048773	82.18013385124198
12	5.0	ltm	455	diff_vonmises	-0.17087232363343427	-9.790262979789295	0.7760389904356314	131.9844719592019	0.7592671182464997	132.75409002260088	0.19498414325397562	-0.25229667036691694	0.44728081362089256	99.23752243649817
13	5.0	perception	455	diff_vonmises	-0.08463514274102421	-4.849236477547973	2.2992587174111483	2.474830269367738	0.17839712009240422	3.2806029937146484	0.7689717255647797	-0.4303761297345991	1.1993478552993788	84.86023147918976
14	5.0	wm	455	diff_vonmises	-0.22412790841867697	-12.841583223484824	0.5190422173343597	113.1708610502666	0.5017771182428717	114.00274519157301	0.1602335864191673	-0.29370093111657525	0.45393451753574254	120.62367327367687
15	6.0	ltm	455	diff_vonmises	-0.33832550946726336	-19.384623794087567	0.5735842658376942	71.46664813843874	0.5524894046405274	72.41866013849562	0.03992362763264623	-0.24212322674717424	0.28204685437982047	110.49859737959747
16	6.0	perception	455	diff_vonmises	0.03984052708466994	2.2826940555282333	0.16718545787423178	112.3690848638855	0.15084245853305134	113.15752417553942	0.1684182210728622	-0.37467621136173435	0.5430944324345965	161.26161456264524
17	6.0	wm	455	diff_vonmises	0.11489987265743737	6.583277769861768	0.00036542061425056776	2180.3640295939194	8.862435970991169e-29	2181.272425874793	-0.017760835525677976	-0.27136751481043575	0.2536066792847578	179.47965234461685
18	7.0	ltm	455	diff_vonmises	-0.34650775085256413	-19.85343169242258	0.846100415325642	115.06989571647581	0.8258462660810365	116.1082435257234	0.12445784188356157	-0.2772412885408766	0.40169913042443817	92.27232744380417
19	7.0	perception	455	diff_vonmises	-0.16813271688859985	-9.633295075784709	0.6309346448078208	296.0122588380425	0.6187049569969727	297.4191783011278	0.3080998617917885	-0.47449482992054826	0.7825946917123368	109.77630809352722
20	7.0	wm	455	diff_vonmises	0.24097967354148517	13.807118242367492	1.0693619321986498	96.60863107887239	1.0445313484395962	97.67173660868947	0.079095312639204	-0.26817729350763564	0.34727260614683964	80.3141964703652
0	1.0	ltm	456	diff_vonmises	-0.26659671680178004	-15.274866704786438	0.0003017112187654857	3397.6402589442564	2.849262731909185e-30	3398.3590443879643	0.04876288679645313	-0.2775347885062729	0.326297675302726	177.95972620948004
1	1.0	perception	456	diff_vonmises	-0.06938329685860264	-3.9753700787012343	11.175316058153406	1.0306443318545484	0.09607707115150062	1.8488031441943178	1.0352953400789713	-0.3036428367808336	1.3389381768598048	40.23127740798685
2	1.0	wm	456	diff_vonmises	0.014216966058751595	0.8145721526472064	3.347237469140267	0.4100982729711631	1.4634760172890351e-15	0.8886351453055515	0.1443053075762175	-0.1410769991284669	0.28538230670468445	75.01570904957734
3	2.0	ltm	456	diff_vonmises	-0.12016343364029448	-6.884857599389212	5.079336676686455	0.32973139209794095	0.3698373735783469	0.5848486991716858	0.15808364464816543	-0.09235679994929771	0.2504404445974632	56.48792846899474
4	2.0	perception	456	diff_vonmises	-0.021239007305636718	-1.216905479660506	7.47662819924369	1.3543175678640917	0.3777622118385505	1.1819127087290993	1.18594519553486	-0.1960183288663546	1.3819635244012147	48.44779071082644
5	2.0	wm	456	diff_vonmises	0.1389244254592836	7.959783250096754	2.352653661474288	0.5675115378396702	0.1707843127364603	0.6978359772587573	0.19189631533358034	-0.09204316577370333	0.2839394811072837	84.53860380223804
6	3.0	ltm	456	diff_vonmises	-0.16040955942647372	-9.190790748689915	2.020767311031519	54.41828968368806	2.003863261005191	54.50025511499093	0.10066014745878604	-0.05697338695918308	0.15763353441796912	63.42411927510207
7	3.0	perception	456	diff_vonmises	-0.03771012771992395	-2.1606311632509363	4.571562388130701	1.804050494562593	0.548323119160257	1.27864672125355	1.1640058158566409	-0.17531801703366195	1.3393238328903028	60.649152955843704
8	3.0	wm	456	diff_vonmises	-0.026193468902190382	-1.5007752189026786	1.5484482315588939	70.959247346718	1.53124755376138	70.76940536338111	0.294957826185847	-0.0549526009841621	0.3499104271700091	79.4309881220534
9	4.0	ltm	456	diff_vonmises	-0.3293558798359182	-18.870701872416003	20.76826900401514	0.20847920508578022	9.435850818892202e-13	0.5925555086446164	0.2823693885560119	-0.09430813825707016	0.3766775268130821	29.693014815784665
10	4.0	perception	456	diff_vonmises	-0.08982024055701152	-5.146320698766546	3.535972111338791	1.9285674319972836	1.5018082608993096e-14	2.09190761549256	1.052534731979704	-0.331761724093725	1.384296456073429	72.93439161482812
11	4.0	wm	456	diff_vonmises	-0.358401721652717	-20.534906020923177	1.0684983702116313	108.33055714215186	1.0526562521739553	108.72098486492303	0.18543531198232444	-0.15231796472005676	0.3377532767023812	86.0919529285495
12	5.0	ltm	456	diff_vonmises	0.08203845454186655	4.700457203024813	1.5684461702363945	41.611435174153684	1.5346680971423539	41.79677960079183	0.16179798928413192	-0.09867587377164178	0.2604738630557737	72.12023994651949
13	5.0	perception	456	diff_vonmises	-0.06922790696703869	-3.966466893735624	2.3872325754244947	1.8416194005211968	1.4122561409704028e-13	1.5315917217323731	0.812479455774533	-0.23484297716405766	1.0473224329385906	89.01343164954935
14	5.0	wm	456	diff_vonmises	0.12580149636510418	7.207894798150837	0.49963039689518246	50.71593946361967	0.4755859240667589	50.78575240863989	0.21055626438264596	-0.14555344475174525	0.3561097091343912	128.01109440078295
15	6.0	ltm	456	diff_vonmises	-0.38723084318728185	-22.186693011923456	0.27715921808660055	79.11360762265984	0.2622159787492333	79.2635722475538	0.17914374796229993	-0.17800699544443788	0.3571507434067378	147.3669967593117
16	6.0	perception	456	diff_vonmises	0.1404767387928863	8.048724252594072	0.3525134257296831	146.27464575995523	0.3392254329042656	146.08407230478403	0.39345369479205416	-0.22770585818403255	0.6211595529760867	142.45222690189223
17	6.0	wm	456	diff_vonmises	0.07170267517225691	4.108260667167794	0.0002848070811055353	4369.572024062031	8.132068028530458e-32	4369.603175551701	0.1931217819953872	-0.2030094040359245	0.3961311860313117	179.7562748854401
18	7.0	ltm	456	diff_vonmises	0.05937448986294711	3.401907679889159	1.169791750540375	88.74154128169343	1.151639757827859	89.24259108114751	0.11374206678409848	-0.1528112160650199	0.2665532828491184	79.64246592616433
19	7.0	perception	456	diff_vonmises	-0.14076277404538054	-8.065112865353951	2.1648841994684958	1.3943474374483251	7.271145886190178e-18	1.661693644770019	0.4899978963288154	-0.2545299794333323	0.7445278757621476	93.37435258556944
20	7.0	wm	456	diff_vonmises	0.08263685686373361	4.734743130518624	0.39528101452943787	41.08975874275606	0.3705324572649558	41.34974955780968	0.12791270798889265	-0.15404290502446205	0.2819556130133547	136.42717806165672
0	1.0	ltm	457	diff_vonmises	-0.3763725813817941	-21.564560437620905	0.9046232405227244	0.9694090711452268	3.1427907614813467e-23	2.090528928887098	-0.0190222736174796	-0.28133902445302583	0.26231675083554623	131.3987123560915
1	1.0	perception	457	diff_vonmises	-0.09736034504012005	-5.578336862736337	17.987360414443724	0.6779965774484463	0.03272190631368219	2.0254477262018806	0.805426548258066	-0.3278520473227668	1.1332785955808329	31.845218747356057
2	1.0	wm	457	diff_vonmises	-0.1667244694375308	-9.552608440328397	4.544753000297654	0.346648673978583	2.9936788269299715e-16	1.2673137800587166	0.08387386468978714	-0.20166701845836227	0.2855408831481494	64.12617659906195
3	2.0	ltm	457	diff_vonmises	-0.11022859218996854	-6.315633114153906	8.590438418141376	0.33584521942156487	7.956086664131341e-23	0.9189340775614937	0.24034314702590215	-0.1462528874593747	0.38659603448527685	46.35637416190596
4	2.0	perception	457	diff_vonmises	-0.011543387408466806	-0.6613873797896048	6.877944543237649	1.3556363737108525	0.4291688508025956	1.9011681875830204	0.9463526976116696	-0.3208421798546567	1.2671948774663262	49.48116333593097
5	2.0	wm	457	diff_vonmises	0.0058242478895228645	0.3337048229076371	3.465733778369527	0.5265070107621396	0.21621062939452537	1.111462975824378	0.15697907330411806	-0.1631846752287789	0.320163748532897	68.23275280218894
6	3.0	ltm	457	diff_vonmises	-0.20370047671377992	-11.671177600502494	1.9307375241250069	114.4861448206106	1.9089477867765352	114.89069827341565	0.1935993109414369	-0.17931662673387194	0.37291593767530884	62.79741111367821
7	3.0	perception	457	diff_vonmises	-0.03213621618308815	-1.8412695568109667	3.7316625369282304	2.827760504323024	0.7746761296362527	3.089975250097291	1.169568821712987	-0.3911173720287885	1.5606861937417755	62.7014813239382
8	3.0	wm	457	diff_vonmises	-0.0037198443486394775	-0.21313138162263284	1.4042560012687089	39.56711327638826	1.3468552532370393	39.87072623135705	0.28398263326032946	-0.165214899857681	0.4491975331180105	77.0303569546814
9	4.0	ltm	457	diff_vonmises	-0.36841633266898366	-21.108700965620475	19.68205009945896	0.24809775496563072	2.3223865679974932e-18	1.125143374462486	0.2571627509509927	-0.17907212973280004	0.4362348806837928	30.507676384771912
10	4.0	perception	457	diff_vonmises	-0.11357625198505665	-6.507439891658084	2.289882706854799	3.3503102930609185	0.37807724795250025	4.405601960542527	0.8867612333593236	-0.5087862578531857	1.3955474912125092	80.33159565464089
11	4.0	wm	457	diff_vonmises	-0.31451181319305405	-18.02019950296896	0.9177733697544702	143.30057722134129	0.9046639008933564	144.16277657044373	0.07857491659594729	-0.2198434408789396	0.2984183574748869	87.37568107292958
12	5.0	ltm	457	diff_vonmises	0.04557180303370496	2.6110719786327756	1.3923533709009055	108.05922934986705	1.372034608557642	108.40595473904423	0.2508590737492469	-0.16461890754153607	0.41547798129078295	76.16688972239916
13	5.0	perception	457	diff_vonmises	-0.04273527670313058	-2.4485509914131334	0.932813509629425	146.67736587135664	0.9054231772404966	147.0131057020576	0.6556516723482275	-0.3319601669294219	0.9876118392776494	96.20791937941934
14	5.0	wm	457	diff_vonmises	0.039753242472121635	2.277693015612781	1.3488789384380777	1.1083127047106118	8.07060719045173e-17	1.5404581615354551	0.20514200454937198	-0.21483908717107253	0.4199810917204445	115.37463004463208
15	6.0	ltm	457	diff_vonmises	-0.4275041610185611	-24.49418415064472	0.693934132601692	67.01773986047068	0.6679486282538997	67.59233972304484	0.17159900388005767	-0.2092526220141	0.38085162589415766	106.20713410916353
16	6.0	perception	457	diff_vonmises	-0.010132604577405207	-0.5805554777602574	0.7270855387832305	173.77501873000097	0.7125877045518311	174.18863086711048	0.3618510910453949	-0.2597982518142583	0.6216493428596532	106.7963996406789
17	6.0	wm	457	diff_vonmises	0.03183156286994503	1.8238142077531887	0.0002954398535312014	4194.861524043551	9.877099172736814e-34	4195.342528565213	0.12070476711721767	-0.2737841251395139	0.39448889225673156	179.91379077339997
18	7.0	ltm	457	diff_vonmises	0.039732800220615976	2.2765217608777615	1.4626467318217053	170.31692117668956	1.4455699564174704	171.3215947733318	0.08802773036985911	-0.28292946402527264	0.37095719439513175	68.19545514010429
19	7.0	perception	457	diff_vonmises	-0.16915514249603084	-9.691875747956605	0.6689356728877772	136.24014750152435	0.64706412146573	137.13267582970622	0.32164999243858006	-0.3578507346325974	0.6795007270711775	108.80191741949143
20	7.0	wm	457	diff_vonmises	0.44606785573348223	25.557805509979012	1.0094839059418956	41.28530558882802	0.9730618544799665	41.95114468587526	0.060521411036024375	-0.17026782384867722	0.2307892348847016	83.5900929731051
0	1.0	ltm	458	diff_vonmises	0.009631774130060368	0.5518600068757491	0.0004017116963686316	2033.0121474968983	5.336476867339556e-30	2036.6026334169164	-0.4414550915905693	-0.7014059690237104	0.25995087743314116	179.95773166537887
1	1.0	perception	458	diff_vonmises	-0.018738351008853505	-1.073628427842014	6.606114680323663	1.3023938995671158	0.1843221182196668	4.918531152060564	0.37481685858013225	-0.8107963688942253	1.1856132274743576	50.31098031477407
2	1.0	wm	458	diff_vonmises	-0.0032996109309511882	-0.18905378037873558	3.421198071529618	0.6152333517714428	0.055809351446269584	4.042353555962225	-0.24582460713618737	-0.629218173726366	0.38339356659017865	69.56282651017861
3	2.0	ltm	458	diff_vonmises	-0.03138184123904508	-1.7980470563468813	1.824679369592037	0.5204177810807318	5.883556002786698e-16	2.390045155059542	-0.12644386786841794	-0.3737828353967588	0.24733896752834084	101.27997847385164
4	2.0	perception	458	diff_vonmises	-0.021044158037984786	-1.2057414389828354	7.461974537479442	1.4296099135269051	0.24384812058526892	3.204287979598222	0.8887273464837057	-0.5365856573062251	1.4253130037899306	47.94060325258911
5	2.0	wm	458	diff_vonmises	0.21634142091691888	12.39545035240272	2.862517545656168	0.7641453853423728	0.0816061634197672	2.4884983669251577	0.05817459332931402	-0.37406978524137025	0.43224437857068426	76.4803186799073
6	3.0	ltm	458	diff_vonmises	-0.15111800420262653	-8.658423849250738	2.0470371810068793	0.4701403151464199	3.3518172366371434e-17	1.3337172519941478	0.03369028842025834	-0.2081669875343856	0.24185727595464393	95.92407368577655
7	3.0	perception	458	diff_vonmises	-0.07979631223693001	-4.571991911884215	3.0751739616692912	2.5654889856020326	0.5075604177806319	3.208434081238692	0.9077957366993609	-0.40056374046103815	1.308359477160399	69.78982181334732
8	3.0	wm	458	diff_vonmises	-0.014658128308324225	-0.8398488876282152	1.0494077866708647	141.61351910443173	1.0336845296220485	142.107116553871	0.2477693305836155	-0.19778636268654992	0.4455556932701654	87.08012357877939
9	4.0	ltm	458	diff_vonmises	-0.14743263556741665	-8.447267780503322	5.201980783571189	0.34849554684472805	0.035772477259465835	2.661097970656136	-0.13023018740079984	-0.42204857891006214	0.2918183915092623	58.01831163089946
10	4.0	perception	458	diff_vonmises	-0.08442886476082967	-4.837417619876343	3.095819765557015	1.8730061955708501	0.04587269794798249	3.192208782681807	0.7172253288640414	-0.4853226559312371	1.2025479847952785	76.5147417760559
11	4.0	wm	458	diff_vonmises	-0.2787498061075211	-15.971187430050977	0.6647247124904756	202.3254748925645	0.6522190938474384	204.6711535628384	-0.16497301723560298	-0.4589529389670197	0.29397992173141674	92.52555650224659
12	5.0	ltm	458	diff_vonmises	-0.25426561705959705	-14.568346732804496	0.5827966942775431	163.98902541708833	0.5699099055397745	165.38318297211964	0.03668817589370832	-0.34042488434767293	0.37711306024138125	108.28809796640915
13	5.0	perception	458	diff_vonmises	-0.09542425442449638	-5.467407041706215	2.552172547946917	2.5209093102591273	0.2392423333917337	3.8224784869810855	0.7418547846900294	-0.5037775327424298	1.245632317432459	78.92782763151524
14	5.0	wm	458	diff_vonmises	-0.19238391594674398	-11.022786429948006	0.3895124350005689	191.71303965497054	0.37910131446209194	192.93480888079105	0.09074617169447663	-0.37632293499670766	0.4670691066911843	132.546959153608
15	6.0	ltm	458	diff_vonmises	-0.4088928315378623	-23.427833520273275	0.47671377991337494	166.0966402316688	0.46650480046985726	167.39076037678618	0.004216764927100769	-0.31842360348960597	0.32264036841670674	118.71290464046088
16	6.0	perception	458	diff_vonmises	0.2307468061759067	13.220818130002693	0.00035393419471083245	6487.7671111374075	9.989163086658079e-30	6488.879988948394	0.1883679782422405	-0.54254331540983	0.7309112936520705	178.2248872042024
17	6.0	wm	458	diff_vonmises	0.13218751527875597	7.573786729793802	0.6094269661890116	1.9785699513551342	1.8711399654641198e-11	3.412464580046806	-0.014166508352294938	-0.3867660066210242	0.3725994982687293	146.2772127258055
18	7.0	ltm	458	diff_vonmises	-0.5342656022672332	-30.61116414892753	0.9343278487571476	1.2637416956348837	2.044368060262895e-16	2.368121298950047	0.03918605565509253	-0.3126807505508392	0.35186680620593175	128.88285375155294
19	7.0	perception	458	diff_vonmises	-0.08475016027471725	-4.8558264967985885	0.6309583441652525	262.8094364478413	0.6175623020278203	264.35195527015765	0.25305244756988543	-0.4763411340006982	0.7293935815705836	108.69856599684822
20	7.0	wm	458	diff_vonmises	0.1697730349534504	9.727278377959712	1.4682622723175045	1.48048699521845	0.17621770090782737	2.898804455879993	0.08700620155607341	-0.35264729897829356	0.43965350053436697	98.30972665860563
0	1.0	ltm	459	diff_vonmises	-0.330479048088568	-18.935054672975923	0.12499572178492538	7.8505356135777635	8.55853043493377e-09	9.458932613341432	-0.09514194088741057	-0.4070882590472489	0.3119463181598383	170.12463502463865
1	1.0	perception	459	diff_vonmises	-0.11152294604460451	-6.389794127221037	10.580955136858014	0.9491522263390862	0.2066148401824818	2.6641051133625853	0.7003912892666343	-0.4596749351572913	1.1600662244239257	40.64893298203276
2	1.0	wm	459	diff_vonmises	-0.13700522931640116	-7.849821411051804	4.194328511192314	0.4236733451213302	1.5599091158166772e-09	1.7515254567067797	0.05549630913064646	-0.2786879101143447	0.33418421924499114	66.8141017029738
3	2.0	ltm	459	diff_vonmises	-0.06707764203558965	-3.843265788328607	3.8494567612615413	0.44795858598823823	9.676722765114841e-19	1.5458972482008138	0.09121876631407233	-0.24588429947975585	0.3371030657938282	69.82177872511312
4	2.0	perception	459	diff_vonmises	-0.01965567605886772	-1.1261872816494558	6.094731539209312	1.3672215463560322	0.29406422132719345	2.3907237910005814	0.8167341578778832	-0.38830900601945734	1.2050431638973405	52.70141175884339
5	2.0	wm	459	diff_vonmises	0.41451301460994955	23.74984629039474	2.8991205630574615	0.5343322264779092	2.2547531350084945e-19	1.3592058751852554	0.12685432597950744	-0.21528345495085977	0.3421377809303672	80.67350327556
6	3.0	ltm	459	diff_vonmises	-0.17046854418632768	-9.767128121615961	2.325324389540878	0.9251206166459944	0.35750103710625114	1.67414430987605	0.15331500078584814	-0.20866887591163963	0.36198387669748777	77.39661581745531
7	3.0	perception	459	diff_vonmises	-0.08383949036463816	-4.803648954421497	2.9695211250456306	2.6675796031893886	0.40181949547535767	3.3639330223333856	0.9681637606401206	-0.42789883876426626	1.3960625994043867	72.22251868295251
8	3.0	wm	459	diff_vonmises	0.05391796895404977	3.0892720609844537	0.8495100914347029	124.27643343592506	0.8351366477787304	124.36779693487422	0.31256283861857526	-0.151647928029794	0.46421076664836924	101.12266075724841
9	4.0	ltm	459	diff_vonmises	-0.23459095965256221	-13.441071900015595	6.165036148895133	0.5432105677372142	0.3261001488999048	1.8794361505008785	0.1224664571255017	-0.31964258378942784	0.44210904091492953	50.38873401670534
10	4.0	perception	459	diff_vonmises	-0.1480934208810167	-8.485127990136835	1.6002124420340065	5.105593403802508	0.5173736587141459	6.505745585321895	0.6735888160696322	-0.5437367518414331	1.2173255679110653	87.63524629927066
11	4.0	wm	459	diff_vonmises	-0.5673419067453934	-32.50629679741577	1.1676248036030328	157.35016018222078	1.1507478775787778	158.56424540306148	0.04415767361860645	-0.29851279811129316	0.3426704717298996	75.25918563878682
12	5.0	ltm	459	diff_vonmises	-0.23855520179699974	-13.668206243859757	0.9315557023555793	132.14084205693442	0.9170972219643999	132.6570238300161	0.19513522578132836	-0.1870201303188601	0.38215535610018847	91.60334417946756
13	5.0	perception	459	diff_vonmises	-0.09027321207939236	-5.172274055238584	2.597374243629811	1.9277496571042108	0.048064539479174356	2.4178210189755847	0.7583195674199854	-0.3601040104418581	1.1184235778618434	83.83921389185764
14	5.0	wm	459	diff_vonmises	-0.21791973045722804	-12.485880827827668	0.5199117898583995	97.00904636622155	0.5030493488483866	97.3562819489502	0.22037820483163628	-0.2140339630389505	0.4344121678705868	123.76898296129296
15	6.0	ltm	459	diff_vonmises	-0.3521919306863811	-20.179111206893666	1.3226442653779948	0.8582133336910043	5.259934391244194e-13	1.645256899050225	0.08278244696716752	-0.23738670814656251	0.32016915511373	115.71840443724481
16	6.0	perception	459	diff_vonmises	0.10980788070516884	6.2915281216822	0.2804319687087784	165.63504089851313	0.26911096225087555	166.2513164664004	0.20695067464944117	-0.3264054969686683	0.5333561716181094	147.81086099714025
17	6.0	wm	459	diff_vonmises	0.2340372197152234	13.409344938658244	0.00018691794756946467	3755.152603683303	1.7450487599506777e-31	3755.85620925413	-0.00026821945584742934	-0.2236859503159394	0.22341773086009198	178.1885670869862
18	7.0	ltm	459	diff_vonmises	-0.2025653951977219	-11.606142220229058	0.8825767535979644	121.4827585498911	0.863315442945266	122.45891870118061	0.13794382804905325	-0.2675370284408718	0.40548085648992505	90.75074270442674
19	7.0	perception	459	diff_vonmises	-0.25727427350742066	-14.740730049269612	0.7441573375156336	280.486506489159	0.7304995490529105	281.54478215328925	0.42379391190038973	-0.42250504626091256	0.8462989581613023	103.05001436067795
20	7.0	wm	459	diff_vonmises	0.31928513635322575	18.29369077429885	1.1733393376151622	91.49755481164472	1.149581049665311	92.01747764817182	0.2114996195536989	-0.1897239421233774	0.4012235616770763	81.60392023868553
0	1.0	ltm	460	diff_vonmises	0.1209990075571357	6.932732458295429	5.61851375851061	0.568099196729044	1.719695104774094e-24	3.9356968161208044	-0.10232324168973272	-0.6263786971033188	0.5240554554135861	57.524887113908335
1	1.0	perception	460	diff_vonmises	-0.17964524965912665	-10.292914615041948	13.234720769262333	0.6242940346118174	0.14149603602317884	3.6647936232496154	0.22846505305526	-0.6277673962710189	0.8562324493262788	36.31390043019698
2	1.0	wm	460	diff_vonmises	-0.04661039028498395	-2.6705786447871547	0.8602177914885325	202.17012312919147	0.838957528712851	204.808681206193	-0.0006590737018896675	-0.5867750131540888	0.5861159394521991	86.72238909381451
3	2.0	ltm	460	diff_vonmises	-0.0740917415932918	-4.245144090069517	0.0004060899438368882	2592.7556589023134	1.9597368274555146e-30	2594.8476679801875	-0.16536514371938438	-0.5005080041523797	0.33514286043299535	179.82012525908385
4	2.0	perception	460	diff_vonmises	0.04933383681203583	2.826620636516789	4.408292292396768	1.504801996365627	0.4516755245869511	3.072273316066099	0.48921275434630274	-0.47670380021799863	0.9659165545643014	58.45338378584876
5	2.0	wm	460	diff_vonmises	0.6019191298618504	34.48742574927095	4.169676757082286	0.664324332365358	1.0152262376348605e-12	1.6058770655687729	0.2667942998475974	-0.2554584253349588	0.5222527251825562	67.00701041357621
6	3.0	ltm	460	diff_vonmises	-0.27636106630904994	-15.834322721243648	2.3239785995872193	0.7461433813357985	1.1858720149822018e-15	2.3563932716451044	0.04614762849530191	-0.37099617508614813	0.41714380358145003	90.14570659425662
7	3.0	perception	460	diff_vonmises	-0.15365360498525063	-8.803703072625167	3.3784346128844445	1.6636787112898368	2.7925899561441843e-19	3.445621828514529	0.6168107646150792	-0.5470327247303681	1.1638434893454472	74.65709060607188
8	3.0	wm	460	diff_vonmises	0.42352814213228007	24.266375049196512	0.35175239244216805	39.21181007816072	0.2978263268473103	39.20966379099083	0.3813420612665368	-0.2746405790287545	0.6559826402952913	141.96328587259947
9	4.0	ltm	460	diff_vonmises	-0.2430714651528688	-13.926969073320643	6.018325690279076	0.5134657774841348	4.594969413299921e-20	2.756943633466957	0.052354153652579116	-0.43877829802197515	0.49113245167455427	55.541996730084264
10	4.0	perception	460	diff_vonmises	-0.022213528516712204	-1.272741432101109	0.8311311426450452	406.1139949980246	0.818641817673011	408.316139283294	0.29183499887223263	-0.5999557514854033	0.8917907503576359	93.25711930412115
11	4.0	wm	460	diff_vonmises	-0.6120461251700949	-35.06765983958214	1.0540048044074624	214.85227309185973	1.0404145004169614	216.70469900640876	-0.09722523506340508	-0.39879472801712623	0.30156949295372115	74.5289976291586
12	5.0	ltm	460	diff_vonmises	-0.6077973996144983	-34.82422579693708	3.9868411112925957	0.992593851686325	2.6581118270457906e-15	2.498040907709192	0.3642013316926869	-0.3973131862576945	0.7615145179503815	68.55868690419908
13	5.0	perception	460	diff_vonmises	-0.0871178951517931	-4.9914877122609616	1.0096681043072069	200.46180866908801	0.9811358250016501	202.22037240374536	0.48778177801921174	-0.5647017519688511	1.0524835299880628	87.05639011081377
14	5.0	wm	460	diff_vonmises	-0.32520078806042513	-18.632632650190732	0.3448873129399294	227.7909861945098	0.3352760361136244	228.20821211917482	0.30567745940151525	-0.3275492059822156	0.6332266653837308	140.43764825930754
15	6.0	ltm	460	diff_vonmises	-0.4206776540222322	-24.103054110938544	0.7442733215272725	120.00148793298968	0.715726346067263	122.1414824109324	0.03827511955137908	-0.49169648652559417	0.5299716060769732	95.02496572109776
16	6.0	perception	460	diff_vonmises	0.03800266264207619	2.177392179650448	0.6553651161373527	243.65483048964202	0.639224099400052	245.97796981692517	0.11313368951698521	-0.5762862120125654	0.6894199015295506	102.88980993800214
17	6.0	wm	460	diff_vonmises	-0.46103891589685536	-26.41558407217673	1.135092795094741	171.3655461578954	1.1164652077816382	173.3475504662517	-0.12497475199456431	-0.43213931195981203	0.3071645599652477	71.10346724482935
18	7.0	ltm	460	diff_vonmises	-0.3775883986971428	-21.634221638449315	1.4615021003637576	1.3353900452916978	4.9939937377364266e-17	4.163933336249597	-0.09332865976315996	-0.6320920005256287	0.5387633407624688	111.15153378630058
19	7.0	perception	460	diff_vonmises	-0.3846439439830476	-22.038474605495082	1.3015839531011162	3.2692654847146203	0.016802139625475304	6.225739162911486	0.29278461928741817	-0.8780020122346087	1.1707866315220268	115.10443246992604
20	7.0	wm	460	diff_vonmises	0.43779738706513405	25.08394256068748	1.4883467036174385	130.8373359619339	1.4530290651120952	131.8706450659528	0.37419841199436377	-0.3764168216121533	0.750615233606517	71.65270343408162
0	1.0	ltm	461	diff_vonmises	0.061393272245657764	3.517575390173844	5.2103418012202285	0.2605515874480663	1.2941602769916526e-18	3.6680352946563217	-0.35288569810571796	-0.5837790630173645	0.23089336491164653	59.79426962715496
1	1.0	perception	461	diff_vonmises	-0.06930418158814691	-3.970837107609085	9.192439185261357	0.951626138188479	0.17366015247174818	4.338221379840304	0.31930436090722947	-0.7362607032441835	1.055565064151413	43.09064956891129
2	1.0	wm	461	diff_vonmises	-0.08234647997178553	-4.718105760141873	3.6299419440284364	0.5386307029738321	0.055086598788389514	3.6066050974616277	-0.21345367760765432	-0.5633124672890744	0.34985878968142003	67.74801942803037
3	2.0	ltm	461	diff_vonmises	-0.1252009889928247	-7.17348826015273	1.8178095239606789	0.6369376836689848	6.103203586090021e-33	2.625200826199104	-0.10772400696916307	-0.4096372291285774	0.30191322215941435	101.4276405108896
4	2.0	perception	461	diff_vonmises	-0.02617217040892761	-1.4995549051287338	8.001846299741665	1.3056359925354317	0.26239110960942996	3.3002248797504237	0.7772644014277627	-0.5633033607376778	1.3405677621654406	46.133123489175404
5	2.0	wm	461	diff_vonmises	0.18987233554638633	10.878883473099734	3.515432504519741	0.5893642973137106	0.03950088680819799	2.3977762138968974	0.025190547422791865	-0.372606197450659	0.39779674487345085	70.82808412759354
6	3.0	ltm	461	diff_vonmises	-0.26336370907947043	-15.089629007164895	2.6845974493208584	0.5602509826178326	0.004960979353051547	1.7502326691095598	0.06427831177040366	-0.2755746313818244	0.3398529431522281	83.53558691602363
7	3.0	perception	461	diff_vonmises	-0.08637759587117526	-4.949071687904987	3.029406830410855	3.024551281020827	0.5952617873419803	4.073719813995441	0.9138393960318216	-0.5007736474404505	1.4146130434722721	68.4358772837883
8	3.0	wm	461	diff_vonmises	-0.009449361927974914	-0.5414085575645652	1.1300905671358883	223.2081264157398	1.1172711551484813	223.96026112925898	0.2605160548566232	-0.25884854441870075	0.519364599275324	82.47909893222297
9	4.0	ltm	461	diff_vonmises	-0.13677226822660932	-7.8364737238159625	2.705961300674811	0.7062686622616298	0.2214808768607377	3.1201034826464986	-0.1762314690894508	-0.4634710256503842	0.2872395565609334	69.64924894635459
10	4.0	perception	461	diff_vonmises	-0.12362445734068411	-7.083159650216288	2.232273237501869	3.0190559516043813	0.35825398215304516	4.797132702011689	0.6056213884232997	-0.5742736316578596	1.1798950200811593	79.82324555088536
11	4.0	wm	461	diff_vonmises	-0.3188191209621022	-18.26699005919933	0.662059004724018	172.2122640942719	0.6496151954878131	174.49511606381776	-0.22025242874826034	-0.4258379276543707	0.20558549890611033	88.4334535024925
12	5.0	ltm	461	diff_vonmises	-0.16887050066066644	-9.675566972117368	1.3455941159566844	1.828107461405016	0.2500114880782163	3.407065758862031	0.05616778411842194	-0.37337055962989935	0.4295383437483213	96.86786866710705
13	5.0	perception	461	diff_vonmises	-0.08480454263753964	-4.85894237666826	1.9688234079328188	3.524140933440348	0.40824170915461516	5.181443994985731	0.6105441580741855	-0.5609855126113613	1.1715296706855467	82.94383145508343
14	5.0	wm	461	diff_vonmises	-0.23144642405620322	-13.260903281815573	0.4981344155151175	175.02087940748976	0.4854983146065324	176.33906516216078	0.09113514529404654	-0.37303403280793646	0.464169178101983	119.66683829153982
15	6.0	ltm	461	diff_vonmises	-0.35502886646238874	-20.341655653608573	0.6648750708902718	172.78598366129742	0.6514577597346846	174.42575677447093	-0.010599588947087568	-0.3640295505462916	0.35342996159920403	98.8423545746506
16	6.0	perception	461	diff_vonmises	0.21776764873962093	12.47716718726768	0.23791229579305725	8.987206581358373	2.359491607226388e-13	10.54580582286919	0.11071066975023047	-0.566684029697536	0.6773946994477664	165.24546970353407
17	6.0	wm	461	diff_vonmises	0.16335127895839052	9.359338862379948	0.6677510166956401	1.557470116108492	2.431573397433207e-17	3.2615751184088606	-0.08547648493139987	-0.40503961119248116	0.3195631262610813	143.27187544859993
18	7.0	ltm	461	diff_vonmises	-0.4844162553190416	-27.755006957312798	0.7459641654515994	116.34817200668355	0.7262840920329795	117.75462266706484	0.029704083917657442	-0.32476379524650056	0.354467879164158	94.77877062564943
19	7.0	perception	461	diff_vonmises	-0.17572273043465894	-10.06817081842102	0.4790744060098032	277.50010902419297	0.46801764197497764	279.36631364855214	0.12165838248873229	-0.5302804566257748	0.6519388391145071	121.69059078383911
20	7.0	wm	461	diff_vonmises	0.29696254151153095	17.014700302089235	0.8387336119288504	115.66479901500513	0.8161700854364213	117.22185374261339	0.020640889115298933	-0.35328656526245616	0.3739274543777551	88.69244226464835
0	1.0	ltm	462	diff_vonmises	-0.18116021384944647	-10.379715669260728	0.0005971148225757736	1610.2648924046368	7.17753926082015e-33	1613.4604885341696	-0.35554589078003573	-0.6615982654095092	0.30605237462947343	179.02995166858497
1	1.0	perception	462	diff_vonmises	-0.1072529105531136	-6.145139115187537	7.996328418720417	0.9711273900459818	0.18699415809630482	4.054128426134004	0.30614813627279525	-0.6828478822050864	0.9889960184778817	45.94234705773363
2	1.0	wm	462	diff_vonmises	-0.05864135066506384	-3.359901898054841	1.4061856077803603	3.128603138187441	0.4664075376213481	5.789995753477321	-0.08905816107778941	-0.5560445064837853	0.46698634540599593	82.93009731111945
3	2.0	ltm	462	diff_vonmises	-0.08491559858116998	-4.865305413528121	1.055589019033244	0.9299723944694427	2.8611711762195704e-29	2.9180589279591	-0.1368887597689265	-0.424760377005329	0.2878716172364025	126.25289643830321
4	2.0	perception	462	diff_vonmises	0.01960264144732703	1.1231486222400584	5.15654985017056	1.5843514083963928	0.391915121707643	3.3256979506594577	0.6425353606032416	-0.535776560778094	1.1783119213813356	55.343015016624804
5	2.0	wm	462	diff_vonmises	0.5650671558230302	32.375963170120876	4.384133534819647	0.6059449278134935	5.567953075190111e-16	1.860924821887056	0.19344309256612013	-0.29609918854648754	0.48954228111260767	65.30885077645107
6	3.0	ltm	462	diff_vonmises	-0.18267534666173746	-10.466526384806789	2.031041524956677	0.672040864133731	8.885676995712878e-17	1.9923967203663597	0.0328131270090658	-0.311075880497658	0.3438890075067238	96.27212911968971
7	3.0	perception	462	diff_vonmises	-0.12684541186102435	-7.2677067502353685	3.083090169844189	2.048231203910575	0.19334953203167105	3.3888030588157703	0.7141503427147705	-0.4804077053694942	1.1945580480842648	73.2830106307893
8	3.0	wm	462	diff_vonmises	0.32650056521077075	18.70710439521308	0.5241160870271822	88.29103730984865	0.5035138790616775	88.46349835092921	0.29801033359316165	-0.21825450043430017	0.5162648340274618	124.73990188211343
9	4.0	ltm	462	diff_vonmises	-0.28934761135825393	-16.578396943019552	4.803893800246862	0.6231324274477898	0.21205198321783578	3.031945392763827	-0.06103102442148223	-0.49063830167335093	0.4296072772518687	56.34029291973286
10	4.0	perception	462	diff_vonmises	-0.07437716932405952	-4.261497894398505	0.895689299306719	152.20234611008348	0.8626607223634083	154.04858096064012	0.3755952998627876	-0.5496041887937526	0.9251994886565402	91.70490372739656
11	4.0	wm	462	diff_vonmises	-0.6761307106025376	-38.73943611670666	1.116116074733573	193.20361702467162	1.0980514897402986	195.42682387460445	-0.14786526605676897	-0.48013213850962444	0.33226687245285547	71.41532706655225
12	5.0	ltm	462	diff_vonmises	-0.5160282951552064	-29.566243421724476	0.8215380775343969	111.65774143744896	0.7945239655374893	112.92270713155398	0.19318213985265942	-0.35605321003335	0.5492353498860094	94.76966246761936
13	5.0	perception	462	diff_vonmises	-0.12678618314206413	-7.264313194612981	2.582426095438976	2.39576231054385	0.26655061385533946	3.748983678353569	0.6737584472958699	-0.4913835855110266	1.1651420328068964	77.71726101040909
14	5.0	wm	462	diff_vonmises	-0.2892454770580936	-16.572545078676843	0.3679577661984003	173.10720148364953	0.3569606676241487	173.64226774467653	0.2283257170445765	-0.29823582343906807	0.5265615404836446	137.72198107471604
15	6.0	ltm	462	diff_vonmises	-0.39088211291081676	-22.395895356945907	0.6356798617985061	136.1831730798087	0.6206713011756788	137.5598874569128	0.016828856401467363	-0.3197578527501399	0.33658670915160727	102.59004092531775
16	6.0	perception	462	diff_vonmises	0.2607771012655655	14.941427296172584	0.02629405647730135	203.71305312759011	0.0169610778960507	205.1571738311887	0.07207518448348793	-0.5252427314143269	0.5973179158978148	175.39363474916158
17	6.0	wm	462	diff_vonmises	-0.3108621190773154	-17.811087433623406	0.8708978263132597	92.91621798596967	0.8506365725858714	94.33393330342797	-0.08507221570575041	-0.2888654254503127	0.20379320974456228	81.63776974370639
18	7.0	ltm	462	diff_vonmises	-0.5102985283563802	-29.23795196655755	0.7719343103891808	2.1883767642127334	6.632570364070917e-15	3.967750765296945	0.021267999924953873	-0.4920872465124919	0.5133552464374458	135.8111161001315
19	7.0	perception	462	diff_vonmises	-0.29336735810309483	-16.808711466210386	0.631271860595379	181.68578231989494	0.6050955573607725	183.83191200994966	0.3296494836231929	-0.6536704641847031	0.983319947807896	109.0070873283195
20	7.0	wm	462	diff_vonmises	0.3048859613008234	17.46867881532613	1.1849388290461316	90.67953038451006	1.1429176221631823	91.84597836629844	0.2775685651519524	-0.36002117466607686	0.6375897398180292	79.6889006518397
0	1.0	ltm	463	diff_vonmises	0.023031335798471674	1.3195983378009928	4.211161747548875	0.5336185716303974	2.789758685778894e-22	3.8864925905426477	-0.19665773499205674	-0.6184617185033932	0.4218039835113364	66.67846594935466
1	1.0	perception	463	diff_vonmises	-0.08159216891225465	-4.674886919990713	8.58054934906461	0.743445404241482	0.044184662537616264	4.037435963470552	0.18399599242497755	-0.649040516102107	0.8330365085270846	45.68804704551374
2	1.0	wm	463	diff_vonmises	-0.08090615119818131	-4.635581000303098	2.004891330449734	1.6834722584568866	0.2758220512142526	4.802498854433022	-0.11848938070321469	-0.6338699161156163	0.5153805354124016	78.68647680190048
3	2.0	ltm	463	diff_vonmises	0.13206761434297065	7.566916912213635	1.827179193006602	0.6388088022192115	4.3465442434740226e-17	2.352833044947993	-0.06250433082148038	-0.3663912182022053	0.30388688738072495	101.17782325109846
4	2.0	perception	463	diff_vonmises	0.0456528121377526	2.6157134583968413	4.749048874675629	1.7790423263698294	0.49138500488995646	3.2304013696746763	0.7087882110254049	-0.5075352902020325	1.2163235012274374	56.8276228895993
5	2.0	wm	463	diff_vonmises	0.3715966285515144	21.29091849729232	3.0824447355255504	0.7505906803965335	0.09877780749935106	1.9650876378055948	0.1548415049760783	-0.29382515662402064	0.44866666160009894	74.06669308069465
6	3.0	ltm	463	diff_vonmises	-0.19047983933345686	-10.913690876137089	0.9103534082014789	85.14747301085659	0.8803603956496008	86.59297011881993	0.025412196846104962	-0.3313333920975836	0.3567455889436886	85.30734083321353
7	3.0	perception	463	diff_vonmises	-0.06540983520552052	-3.7477074959225534	4.333957364477049	1.7634360337978199	0.10606268803815279	3.117633644598335	0.8659814902493618	-0.4775324235250609	1.3435139137744228	63.82451623386612
8	3.0	wm	463	diff_vonmises	0.3143005324555048	18.00809400841498	0.4835649178751169	107.7481797859378	0.4633357211937457	108.3227878417191	0.26776927565649444	-0.3061125594919325	0.5738818351484269	126.45723932544493
9	4.0	ltm	463	diff_vonmises	-0.3875444852677403	-22.20466337941143	0.635640164793447	158.99493639248718	0.6166587712371864	161.41940653879234	-0.07893561208098987	-0.5132299912393314	0.43429437915834157	99.37468609493035
10	4.0	perception	463	diff_vonmises	0.012469559397115726	0.7144531258424264	0.9275807635189574	291.29120451409597	0.9069314337678211	293.1344815215101	0.547246516705215	-0.6112458636776914	1.1584923803829064	91.087297667022
11	4.0	wm	463	diff_vonmises	-0.2518857719679602	-14.431991653158779	0.6777608688391115	178.26526768442696	0.661652161960017	180.70753483652715	-0.1306705964932604	-0.49354443122507874	0.36287383473181833	93.77600119665172
12	5.0	ltm	463	diff_vonmises	-0.32181785452971223	-18.438804836507593	0.7869088319963864	148.05254727518778	0.76698626439153	149.29385924518897	0.1941456123468015	-0.35398950076758595	0.5481351131143875	96.8150215369458
13	5.0	perception	463	diff_vonmises	-0.09128592007344713	-5.230297949177082	1.0151727599645386	307.6861844878686	0.9971769367692624	308.9650948780172	0.6105454938267485	-0.5036282169676873	1.1141737107944358	88.47713860094561
14	5.0	wm	463	diff_vonmises	-0.06727236517119276	-3.8544226021722188	0.3289227059157148	172.6076217144336	0.3163373634192024	173.354563961196	0.2319981561114446	-0.3673767304283402	0.5993748865397848	142.42823064173766
15	6.0	ltm	463	diff_vonmises	-0.5110272029060096	-29.279701942889904	0.7018792048626796	215.0663141321784	0.6904635293455885	216.29587038216036	0.12021918731602454	-0.32759824637701485	0.4478174336930394	100.8782931437001
16	6.0	perception	463	diff_vonmises	-0.05559070713336196	-3.18511289888944	0.5896413402089034	245.63027473550432	0.5758976956105217	246.98435098260342	0.28440947304741826	-0.4649606677312974	0.7493701407787157	113.63386247680866
17	6.0	wm	463	diff_vonmises	0.3096018092921729	17.738877002055702	0.0006806310761796704	2125.5762001469966	1.0827249630031024e-23	2126.8922464136253	0.02083625196257799	-0.43966843329951644	0.4605046852620944	176.92608199611522
18	7.0	ltm	463	diff_vonmises	-0.8251986729199773	-47.28040121811115	0.00030289594570922216	3438.7949867728425	6.345038467216283e-31	3440.935362309948	-0.17486545995234337	-0.5064121285206511	0.3315466685683077	161.4819025114419
19	7.0	perception	463	diff_vonmises	-0.1054087548242915	-6.039476775161159	0.5824029243889636	236.18709478070477	0.5623066520111444	238.51909605727926	0.2930894914658211	-0.697287589022249	0.99037708048807	112.73746860310699
20	7.0	wm	463	diff_vonmises	0.2662012082001879	15.252205731154087	0.9171311370919767	119.72357499666148	0.8888166948878681	121.68968463409207	0.015205518081089053	-0.4445740571390484	0.45977957522013746	84.42895580413833
0	1.0	ltm	464	diff_vonmises	0.07350903284280548	4.21175733798131	5.122271551328643	0.48191021180581073	9.454787645668798e-22	3.946574745005093	-0.20483855688954827	-0.62810182994116	0.42326327305161177	60.30976718824317
1	1.0	perception	464	diff_vonmises	-0.08031563676542944	-4.601747015564853	9.46737864201552	0.8623957552534325	0.12239983089933626	4.17440612642057	0.295573276710996	-0.6944794537234217	0.9900527304344177	42.87182780549833
2	1.0	wm	464	diff_vonmises	-0.15728508480095862	-9.01177153945218	3.5770418799366954	0.6802675825388673	0.08548982088855749	3.9117493713933706	-0.18505472891739888	-0.607729307801193	0.42267457888379417	67.12453282397871
3	2.0	ltm	464	diff_vonmises	-0.026594591045832578	-1.523757824802617	2.1005447130418236	0.7469463090208551	1.0273026442992567e-18	2.938414714212873	-0.07078483447487233	-0.46171742348794553	0.3909325890130732	94.77165481016908
4	2.0	perception	464	diff_vonmises	-0.009442749261313084	-0.5410296796735155	5.8395483690657715	1.4498314049795789	0.26804637664480124	3.4347562003837537	0.662663403402823	-0.5593347181350317	1.2219981215378546	53.301442330044495
5	2.0	wm	464	diff_vonmises	0.1713728575915018	9.818941463089544	2.9258474536463144	0.8463840252787143	0.1180304182325696	2.72329734486445	0.06043792705175455	-0.40553751960059997	0.4659754466523545	74.2564431463525
6	3.0	ltm	464	diff_vonmises	-0.17850344627852577	-10.227494100299747	2.0649731012159958	1.1689082635859516	0.08153650316836314	2.984752159669073	0.10022365544791823	-0.42958119002100875	0.529804845468927	89.5187297480628
7	3.0	perception	464	diff_vonmises	-0.08477952175827087	-4.857508785886453	2.458090023786609	3.855248433264778	0.48431301629855183	5.530336578512285	0.9012821774304745	-0.6409857858837159	1.5422679633141905	75.24750565860623
8	3.0	wm	464	diff_vonmises	-0.026849349530110186	-1.5383544107468736	1.7466136182198861	1.7075567602987316	0.15244835047248445	2.9023985318377834	0.2764209911975669	-0.3715519024899243	0.6479728936874912	94.76153402933079
9	4.0	ltm	464	diff_vonmises	-0.11066611232404179	-6.340701171288301	3.1412773985277136	0.6124652952558457	0.0020889157267340603	3.3918838384882917	-0.12922673212898356	-0.5379385536039469	0.4087118214749634	77.2454081412759
10	4.0	perception	464	diff_vonmises	-0.12021427796684676	-6.887770764712842	0.9088010597735435	418.42123434378107	0.8922780992598022	420.72431313276786	0.5768353456560931	-0.7248613814970071	1.3016967271531001	91.32675934565731
11	4.0	wm	464	diff_vonmises	-0.3497069536111047	-20.036732508293564	0.6526597415996306	234.97709306477367	0.6407474019404379	237.60229466428308	-0.18553649444952214	-0.5132267749902297	0.3276902805407076	93.36497765152498
12	5.0	ltm	464	diff_vonmises	-0.21984332535977963	-12.596094697236753	0.980505785645197	3.557388623881975	0.31458915517248665	4.897975982680637	0.16065243981317967	-0.3864465983608303	0.54709903817401	108.13919274127613
13	5.0	perception	464	diff_vonmises	-0.07121050740372606	-4.080061531218605	1.3917050988152118	7.364869868459785	0.6275810249309577	8.858273188764576	0.6503743044076513	-0.562263752104052	1.2126380565117034	88.80210369867604
14	5.0	wm	464	diff_vonmises	-0.23019726538748272	-13.189331762155707	0.44465043630908113	208.6643931818407	0.4333962917454484	209.92668491341098	0.13845029723600533	-0.4033290971086849	0.5417793943446902	126.8298420767041
15	6.0	ltm	464	diff_vonmises	-0.3913995463460375	-22.42554210896301	0.6540957427320592	163.25077254648636	0.639684826583272	164.84410388034456	0.01191489815317226	-0.36461127886248335	0.3765261770156556	100.69889785177604
16	6.0	perception	464	diff_vonmises	0.024136355495038567	1.3829113026931028	0.3267965137754149	170.9047854959636	0.31119600715930884	172.36808562363845	0.1691901473111841	-0.5146600158818941	0.6838501631930782	141.47115462884528
17	6.0	wm	464	diff_vonmises	0.1348332244410386	7.72537469861169	0.4629186499722969	2.471248848723633	5.443327533609713e-17	4.019908470628314	-0.047115396582503966	-0.40496907197218557	0.3578536753896816	153.76927264510175
18	7.0	ltm	464	diff_vonmises	-0.5106619073077328	-29.25877204683394	2.2416489163041997	0.913618428121986	0.08079072839430054	2.578213775425889	0.060612653882112566	-0.3763047329330994	0.43691738681521197	85.90144869193632
19	7.0	perception	464	diff_vonmises	-0.08986920992233431	-5.149126436724977	0.4790245988360888	354.31194055255264	0.46810443819181075	356.5195405559459	0.188466545690531	-0.6549064126706554	0.8433729583611864	122.4094333683283
20	7.0	wm	464	diff_vonmises	0.2149944773052332	12.318276168211023	0.9907260859736879	185.12862950501386	0.9731316846133911	186.9670611677331	-0.001765624918455444	-0.4155043755072505	0.41373875058879506	80.35719599505211
0	1.0	ltm	465	diff_vonmises	-0.36106186449624456	-20.687320978759235	0.00020878211402757167	3789.4249397471863	5.914943211521524e-31	3791.627319712012	-0.2245972762573274	-0.47642889578287395	0.25183161952554656	176.2945880274163
1	1.0	perception	465	diff_vonmises	-0.12423163376843287	-7.117948296946122	10.00463399038392	0.9337833549111603	0.25219736347353167	3.2111247516830237	0.5154990310107055	-0.5650963259122892	1.0805953569229947	41.26692268539773
2	1.0	wm	465	diff_vonmises	-0.05929365475570803	-3.3972761694078724	2.3090773277460106	0.8787284022656229	0.2000104171059983	2.593381191010464	-0.0050266625211172755	-0.3618520649307413	0.356825402409624	78.44561724561046
3	2.0	ltm	465	diff_vonmises	-0.11379566361338546	-6.520011251937418	3.0738075726610794	0.4144962388706324	6.686735147723556e-50	1.8455844965584893	-0.01850637751424916	-0.29314517360232434	0.2746387960880752	78.36127520456589
4	2.0	perception	465	diff_vonmises	-0.015458951819137805	-0.8857326949326826	7.234945093496361	1.2616652399178092	0.32981193529305	2.658727316419784	0.7559616664882163	-0.45311102484250176	1.209072691330718	48.15887267045659
5	2.0	wm	465	diff_vonmises	0.5623022684662036	32.217546793745626	4.402190861137465	0.49005503350090845	1.3447044981165262e-14	1.4533064551632757	0.1655802486289048	-0.23124134082437378	0.3968215894532786	65.16969586824891
6	3.0	ltm	465	diff_vonmises	-0.26600550070202683	-15.240992517490394	3.502475172442172	0.3786450226360251	1.193463506612156e-13	1.1607320990274208	0.08584003192382736	-0.18449072071764394	0.27033075264147133	73.28589210972791
7	3.0	perception	465	diff_vonmises	-0.11543788065409603	-6.6141033574145975	3.7206143221118317	1.8669527614264922	0.2837408904558753	2.680660641092893	0.8240346458229553	-0.38480650395274174	1.208841149775697	66.53659550556387
8	3.0	wm	465	diff_vonmises	0.20274438627683453	11.616397653632704	0.9703378629744772	99.2026122157136	0.9554132823413392	99.17374270019803	0.2905159377353783	-0.10762105187363336	0.39813698960901167	96.21444095962008
9	4.0	ltm	465	diff_vonmises	-0.27650119064041845	-15.842351254038157	5.273543071132997	0.6104532302317933	0.44853276554950205	2.1938270805062756	0.024259750799024205	-0.37696344552713257	0.4012231963261568	51.73006239090941
10	4.0	perception	465	diff_vonmises	-0.12825369275282386	-7.3483953017044	1.842940214184887	3.429161619355303	0.4915335921301857	4.889317444432477	0.4847795954498375	-0.48034452287264107	0.9651241183224786	82.7840560892331
11	4.0	wm	465	diff_vonmises	-0.6668841283702721	-38.2096459798772	1.2483580753963794	129.37507590171498	1.2285300411429907	130.76005749965697	-0.06131683799424792	-0.3193076743167893	0.2579908363225414	69.03818921070726
12	5.0	ltm	465	diff_vonmises	-0.40085386068719736	-22.967234418901477	0.9619622573096888	119.41360260628646	0.9412700107036837	120.41869849491397	0.13693324761965897	-0.27237737170086973	0.4093106193205287	86.61479887763412
13	5.0	perception	465	diff_vonmises	-0.11396171436943824	-6.529525259444199	2.7751407528928294	1.9482575836017348	0.17428076727822991	3.0647974931746953	0.6438663159913467	-0.42664909453013783	1.0705154105214845	77.42509962878864
14	5.0	wm	465	diff_vonmises	-0.28462598024617763	-16.307867407879918	0.4852657325618101	137.4064421878438	0.47295006664623596	137.8407133087045	0.21025422284581197	-0.2351053241736878	0.44535954701949976	126.13972550575063
15	6.0	ltm	465	diff_vonmises	-0.3603071329508403	-20.644078046542187	2.2498043094826854	0.645197619647536	9.170073749929294e-19	1.8725078179290204	0.059201707969284145	-0.2940486148607002	0.35325032282998436	91.53887087064787
16	6.0	perception	465	diff_vonmises	0.33926903567200883	19.43868386347948	0.08330641143585278	166.1397245269831	0.07213631237959683	167.35158697235676	0.09932938674587533	-0.4626661207564702	0.5619955075023455	167.8366557692072
17	6.0	wm	465	diff_vonmises	-0.3074695600618505	-17.61670812028821	0.7593503370761069	69.36992533416132	0.7393402991540673	70.5724880239924	-0.08624596617266533	-0.23641362263829357	0.15016765646562824	86.31794706886024
18	7.0	ltm	465	diff_vonmises	-0.31600477141508926	-18.105739708080932	0.664420999820618	120.29914801770556	0.6454565441267731	121.64064239013187	0.06594705635534837	-0.3321778542741498	0.3981249106294982	102.27136701703074
19	7.0	perception	465	diff_vonmises	-0.368001204440385	-21.08491587016503	0.6565933146116734	193.14381201388434	0.6368845430386912	194.67509075180584	0.3059768535067917	-0.49397836237142556	0.7999552158782173	107.47360621250154
20	7.0	wm	465	diff_vonmises	0.4269009082447186	24.459620312723985	1.298440268501067	63.729625865509874	1.252084902431902	64.38223811503357	0.28551594894280896	-0.24634206105074608	0.531858009993555	77.93002449120024
0	1.0	ltm	466	diff_vonmises	-0.12270169987549004	-7.030289541946478	0.00019940223286685186	4340.890020320302	1.1414071361799406e-33	4343.526228809072	-0.28179692521678135	-0.5573205637987257	0.2755236385819444	179.55787383975468
1	1.0	perception	466	diff_vonmises	-0.04336370256348492	-2.484557140948315	7.7737268776732655	1.24873032990182	0.19439049455569105	4.000540495747672	0.598715505820011	-0.6694775132859182	1.2681930191059292	46.89406717499989
2	1.0	wm	466	diff_vonmises	-0.0020102966009049052	-0.1151815108013463	3.993607605117094	0.4509894160936223	0.009294153712509884	2.912215255433215	-0.12137013059566731	-0.46049021163931325	0.33912008104364594	67.67530048580497
3	2.0	ltm	466	diff_vonmises	-0.061166000654181894	-3.504553687179055	2.9462558263808756	0.3718889516836242	6.755098665957866e-17	1.8174433088412922	-0.04821094505273782	-0.2885896493681353	0.24037870431539748	80.07518953056731
4	2.0	perception	466	diff_vonmises	-0.02999569115587828	-1.7186265068097153	7.962406839364375	1.3555060723068484	0.22192210518893754	2.6802195514344307	0.97422427153474	-0.4478525911293985	1.4220768626641385	46.79034590568628
5	2.0	wm	466	diff_vonmises	0.21126643603494305	12.104675137572807	2.935510630256294	0.614517260941937	0.023268689777685276	1.960663275917567	0.0781647172878005	-0.3042758437654798	0.3824405610532803	78.61425418813911
6	3.0	ltm	466	diff_vonmises	-0.16304057057736107	-9.341536583487617	2.224906011451827	0.42974757215602194	0.0892152320649749	1.036535029116281	0.05635427043445512	-0.14935457649519635	0.20570884692965147	86.47891588179507
7	3.0	perception	466	diff_vonmises	-0.07427398511634327	-4.255585874783962	3.2316819273621595	2.4387544532067427	0.5395753245423793	2.7466968655040427	0.9678967113957357	-0.34123274477330184	1.3091294561690376	68.66509116622964
8	3.0	wm	466	diff_vonmises	-0.03822426627348072	-2.1900891324547	1.166479927824064	126.28506158700972	1.15048596885188	126.57897029301654	0.2665812078362464	-0.15810577044962493	0.4246869782858713	84.12853865131572
9	4.0	ltm	466	diff_vonmises	-0.16712682323176947	-9.575661614609349	5.4571656077006345	0.400753057789816	0.17311596279054395	2.079019330897807	-0.026508702035661413	-0.33846110235730076	0.31195240032163934	54.03183247142718
10	4.0	perception	466	diff_vonmises	-0.1018989466156734	-5.838379577906969	3.382864623434739	1.7768917040869208	5.226862969982956e-16	2.787170871133628	0.8018180405822091	-0.44215651482016605	1.2439745554023751	74.60815642227149
11	4.0	wm	466	diff_vonmises	-0.3591873415725461	-20.57991872663079	0.7976512045442833	197.15426215134318	0.785734369800845	198.83461027120953	-0.0569853534419309	-0.3528040919782356	0.2958187385363047	87.64026648600907
12	5.0	ltm	466	diff_vonmises	-0.19129045789253055	-10.960135898366989	0.6919057901812327	138.3320020827636	0.6788742882104807	139.35280676467585	0.056985887760127696	-0.25346211288495724	0.31044800064508493	100.12869882247739
13	5.0	perception	466	diff_vonmises	-0.09107512622440947	-5.218220351279907	2.9260426157573063	1.973142623038147	0.08312511457766167	2.826576964349305	0.7859882495622597	-0.41544150603924906	1.2014297556015088	77.9433714702991
14	5.0	wm	466	diff_vonmises	-0.17735623177300885	-10.16176355093744	0.4345675331483097	117.55286188405786	0.41953982608818635	118.47331671883968	0.11255715155774837	-0.304156511684857	0.4167136632426054	128.56434059198807
15	6.0	ltm	466	diff_vonmises	-0.3718936440657241	-21.307936232706446	0.3909310257209786	111.62485764362016	0.3782939033219027	112.60544668285036	0.03801235298373129	-0.2783304001936173	0.3163427531773486	130.87804442010255
16	6.0	perception	466	diff_vonmises	0.2390471953004456	13.69639539515506	0.0005487407731811267	3878.3458570047387	2.395766809508289e-29	3879.077556004738	0.2223027726181499	-0.45511687000021084	0.6774196426183607	178.09573188148323
17	6.0	wm	466	diff_vonmises	0.14720345856623068	8.434136905573903	0.21945020411104668	4.8086842143256945	9.647891647507385e-11	5.853745987981855	0.010099473804173975	-0.3244550238485412	0.33455449765271517	166.8914917156381
18	7.0	ltm	466	diff_vonmises	-0.4364214504047554	-25.005107197170457	0.9962148390284576	1.0660974370039016	2.6125117702178723e-18	1.9037037846996188	0.06054929808545667	-0.2534111386011418	0.31396043668659845	127.24972609538183
19	7.0	perception	466	diff_vonmises	-0.11788509964868997	-6.754318677349079	0.6729163894105584	237.05236839047274	0.6593309701014185	238.1670298104643	0.30417122725957313	-0.39561988408516413	0.6997911113447373	107.05665658510227
20	7.0	wm	466	diff_vonmises	0.18108947862990532	10.375662839718089	1.4546216066764563	1.2026439457807798	0.12844772931516796	2.143683930579318	0.1249768744386533	-0.2709417499633956	0.3959186244020489	103.06926813127717
0	1.0	ltm	467	diff_vonmises	-0.16732087819452438	-9.586780144968772	2.078220614303336	0.4387340301319105	2.5992507253443106e-31	2.6131160975726475	-0.18426589255420284	-0.41226197136868725	0.22799607881448442	95.22588745788674
1	1.0	perception	467	diff_vonmises	-0.07708166516461694	-4.41645409177313	14.299060685130442	0.7596247652046667	0.08106453953068844	3.1005056745088755	0.6009143674379548	-0.5135707972231293	1.114485164661084	35.459970890131956
2	1.0	wm	467	diff_vonmises	-0.14691605265453284	-8.417669759826506	5.197448036753168	0.33622685126469937	1.0107083640165331e-18	2.3429520900423175	-0.0753070097029509	-0.3728833014401302	0.2975762917371793	59.86794687323459
3	2.0	ltm	467	diff_vonmises	-0.09825432293324393	-5.629558022990333	5.625014012482394	0.3948786574722615	1.7748966585515906e-27	1.6829033076397502	0.09660790993769908	-0.2678376386612541	0.3644455485989532	57.49579238796278
4	2.0	perception	467	diff_vonmises	-0.022465766225345532	-1.2871935882398493	7.497334644758965	1.345875228241296	0.30077045455694235	2.6734415228563035	0.8818193143114649	-0.4533757116606339	1.3351950259720988	47.66372972023365
5	2.0	wm	467	diff_vonmises	-0.010587596679627127	-0.6066246049293583	3.3498759562016467	0.6435093944841863	0.14157811011408084	1.9991500809056646	0.0838007805618744	-0.3010387273447384	0.3848395079066128	69.445479245384
6	3.0	ltm	467	diff_vonmises	-0.209221427262808	-11.987504765862239	1.2722679123011023	28.055054933159738	1.1836833727344027	28.930896313316374	0.12767552446637254	-0.24715062757445283	0.37482615204082537	75.92276265329852
7	3.0	perception	467	diff_vonmises	-0.04839014383935382	-2.7725510120259553	3.1827253798858868	3.4149909015087276	0.7682954767040174	4.104397497041702	1.0914852227945806	-0.4810762723157953	1.572561495110376	65.9937180015946
8	3.0	wm	467	diff_vonmises	-0.0500384471385744	-2.866991834428784	1.2659222796844294	108.02971419830945	1.2369783311411762	108.81429842249878	0.2701830584463423	-0.2716738339347611	0.5418568923811033	77.91201565836346
9	4.0	ltm	467	diff_vonmises	-0.1809407659767055	-10.367142232329545	3.036871964401068	0.6118129184480884	0.20770828503151553	2.3045978543966363	-0.04314689361403001	-0.3442596196716941	0.3011127260576641	68.88042893428687
10	4.0	perception	467	diff_vonmises	-0.12590868171360367	-7.214036066245496	2.2821423463234174	3.327958049859608	0.35882179371539974	4.80203771214931	0.7985835635612477	-0.569529236681842	1.3681128002430896	80.05157255969067
11	4.0	wm	467	diff_vonmises	-0.26465037457824164	-15.16334950988958	0.7208528312360726	186.20675383347603	0.7094592049642927	187.86163021413373	-0.06927231149240498	-0.3416373359610496	0.27236502446864463	91.73671183857697
12	5.0	ltm	467	diff_vonmises	0.020913052080294144	1.198229620938141	1.1982464812128195	5.477361208062038	0.7736256280257251	6.379480028375404	0.16992789542136855	-0.2603364317508668	0.43026432717223534	86.42747993331366
13	5.0	perception	467	diff_vonmises	-0.0626008901284407	-3.58676679812183	1.5109267678555771	4.90994618135956	0.5368215188067216	5.853311731535025	0.6514394248666018	-0.4428244776124973	1.0942639024790992	89.92271269345818
14	5.0	wm	467	diff_vonmises	-0.08048382754550407	-4.611383637416143	1.3955230333231714	1.1214071935133472	7.031638744072409e-14	2.141005557095659	0.1242596452124598	-0.312218091241075	0.4364777364535348	113.79639912704995
15	6.0	ltm	467	diff_vonmises	-0.39325305581246284	-22.531740378676727	0.6683661798544044	123.06679791588613	0.6527465057611126	124.09167404752812	0.08317133338110949	-0.26874292465814165	0.35191425803925114	103.12447851995516
16	6.0	perception	467	diff_vonmises	0.06170801742912674	3.5356089608086867	0.9125001089511219	2.357984521560345	1.6225847265370648e-12	3.235871724103357	0.2515595032787836	-0.39141387850007825	0.6429733817788619	132.2700010224769
17	6.0	wm	467	diff_vonmises	0.048825978830468075	2.7975225175809237	0.08151035759732034	14.77172548143557	4.060636852348849e-11	15.795903574672806	0.032421188480639795	-0.35062502758192515	0.38304621606256495	175.21851959418382
18	7.0	ltm	467	diff_vonmises	-0.21824757201856773	-12.504664765641412	1.0908785527832219	156.2104889777771	1.075751765936903	157.3229734104234	0.04720512498248297	-0.27094675399453294	0.3181518789770159	78.20568807949479
19	7.0	perception	467	diff_vonmises	-0.10349317805263883	-5.929722310812165	0.5258012602314049	217.4308506951529	0.5126859262397852	218.77474409672897	0.19974428697485536	-0.4362757941734152	0.6360200811482706	118.9453258736752
20	7.0	wm	467	diff_vonmises	0.32221748520837196	18.461701987758744	0.8335340605523942	97.07078027423833	0.8153236523087662	98.14955442115695	0.006751923531830073	-0.24205685942622424	0.2488087829580543	88.48331505921911
0	1.0	ltm	468	diff_vonmises	-0.2598443698327729	-14.887985721654378	0.0003842264102778938	2081.2846491547966	1.1865531479779793e-25	2083.5537810186356	-0.23385782627349272	-0.48840482826125253	0.2545470019877598	178.05528632987756
1	1.0	perception	468	diff_vonmises	-0.10127829111055088	-5.802818636931889	10.455367007927293	0.8208206186692534	0.11802933267933331	3.2485225956382897	0.46574935111199167	-0.5409572359786414	1.006706587090633	41.087039188389724
2	1.0	wm	468	diff_vonmises	-0.04599619068566297	-2.6353875999674363	2.6666240389877656	0.7794532680430668	0.143518773424687	2.735905171886802	-0.023043913286117212	-0.401759240272961	0.3787153269868438	75.54021188173687
3	2.0	ltm	468	diff_vonmises	-0.028502648590490988	-1.6330814691796383	3.1902667754257426	0.37158608169042895	9.496984529088004e-25	1.5797772415869895	0.00056470003539838	-0.25100236806206633	0.2515670680974647	76.88474836891939
4	2.0	perception	468	diff_vonmises	0.007584351123371766	0.43455130971450695	6.4629127490285585	1.462892220164973	0.4431610814911515	2.5795141136717277	0.8431323520319474	-0.436951975537275	1.2800843275692224	50.29815848446128
5	2.0	wm	468	diff_vonmises	0.40846249964250536	23.403177318879454	3.6049171706400798	0.5031137025459068	1.3692427014600997e-12	1.4200084907758734	0.13929522022449423	-0.22573126600712387	0.3650264862316181	72.20494895510555
6	3.0	ltm	468	diff_vonmises	-0.20949906602135757	-12.00341229495638	1.6247275503997152	1.8783168254288372	0.8257798116673075	2.5788239399737596	0.058300732328823934	-0.18070705959182332	0.23900779192064725	75.33282440864764
7	3.0	perception	468	diff_vonmises	-0.06966593882737267	-3.9915642706250254	4.688292282846199	1.6794033262177182	0.28837569994998496	2.287211553480323	0.9312513078440015	-0.34639720251993367	1.2776485103639352	60.042483638473726
8	3.0	wm	468	diff_vonmises	0.19658273192469133	11.263360864436484	0.9863759343350621	120.0049449715185	0.9726484178810378	120.15501922188928	0.2616548564924983	-0.13199984267862241	0.3936546991711207	93.03668345162549
9	4.0	ltm	468	diff_vonmises	-0.3430527258225252	-19.655473340089287	7.95199236652282	0.33149474641650845	0.07360263063347207	1.8528187409136938	0.049656974256666486	-0.30019387578673495	0.34985085004340144	46.96873698516055
10	4.0	perception	468	diff_vonmises	-0.05753611365799294	-3.2965764821880077	2.4478896543746367	2.3504131082714377	0.2783495787762222	3.5896140820030813	0.6278794322657671	-0.45876673344354857	1.0866461657093156	79.32024764694367
11	4.0	wm	468	diff_vonmises	-0.3869384238310762	-22.169938616964938	0.8898183307913115	177.8862238396387	0.8776330068388377	179.3758983671377	-0.061266939380487884	-0.31304549307427365	0.25177855369378577	82.19464825968524
12	5.0	ltm	468	diff_vonmises	-0.24474083400127286	-14.022616862784812	0.9803174833019451	153.05526477794345	0.9645650169747746	154.0244021832732	0.13246361608916857	-0.2628108507971305	0.3952744668862991	85.64665362053807
13	5.0	perception	468	diff_vonmises	-0.09558741554625082	-5.476755485363364	1.642710735414772	4.443419324038163	0.5834780812560683	5.408851703511265	0.6143922817364884	-0.4244952932844993	1.0388875750209876	85.97247491617276
14	5.0	wm	468	diff_vonmises	-0.0750920645701408	-4.302458374792928	0.4589473743000174	86.13557499683078	0.43817879204412047	86.66664656446285	0.20648676107659725	-0.26285312997214305	0.4693398910487403	129.132448705001
15	6.0	ltm	468	diff_vonmises	-0.4447399753447754	-25.48172356800792	0.6685726146785496	141.08188264334228	0.6543512281853305	142.05164162222505	0.11408223360180614	-0.2711420474886488	0.3852242810904549	104.25651247031607
16	6.0	perception	468	diff_vonmises	0.14763505679564345	8.458865662564573	0.36450856914962615	148.79200205295456	0.348110896374435	149.77626592102808	0.22776923515079517	-0.4170193144382335	0.6447885495890286	137.95619388725646
17	6.0	wm	468	diff_vonmises	0.3278955881654079	18.787033322837658	0.00025679564308680585	4148.987858285843	4.774475325110251e-27	4150.004041299591	0.007849525606275165	-0.33128885319126766	0.3391383787975428	176.60306773430528
18	7.0	ltm	468	diff_vonmises	-0.21498972372664052	-12.318003808220078	0.7949772956632751	53.693254705868654	0.7553799491575353	55.11320801504373	-0.013073382973985304	-0.31040863371306227	0.29733525073907696	90.44471414732816
19	7.0	perception	468	diff_vonmises	-0.22109276263055305	-12.667682179618415	1.2250818059633564	3.124033394853794	0.21116623946380095	4.613557630628427	0.3019778852860323	-0.4844829597193709	0.7864608450054031	106.53913909371573
20	7.0	wm	468	diff_vonmises	0.35245621291679	20.1942534632964	0.9324332521797699	57.731027293640196	0.8895911606112529	58.79296678758147	0.1301786544585113	-0.2828306115126944	0.4130092659712057	88.2806003336832
0	1.0	ltm	469	diff_vonmises	-0.05074862692007725	-2.9076821386044203	3.698960340973054	0.3861716268655774	3.9948242340760744e-21	2.7768448335657174	-0.1575169249770243	-0.44177435826715794	0.28425743329013364	71.26697731341753
1	1.0	perception	469	diff_vonmises	-0.09565602216846933	-5.480686355263133	13.118990193472452	0.7463819070797746	0.09796298571224235	3.2230951639138827	0.5029490596789145	-0.5373390520670537	1.0402881117459681	36.885334852723304
2	1.0	wm	469	diff_vonmises	-0.16370579648972794	-9.379651220688977	4.320917467439341	0.45524246091576903	0.045901272162445175	2.616854043365743	-0.07084717304936516	-0.4114353175579983	0.3405881445086331	63.36697996396293
3	2.0	ltm	469	diff_vonmises	-0.07148725156405653	-4.0959178036104325	3.580293736695862	0.5121097491457528	3.048070619454133e-21	2.030886106395468	0.047224850918324734	-0.32293786868269736	0.3701627196010221	72.46890376748743
4	2.0	perception	469	diff_vonmises	-0.012522079545775878	-0.7174623087000528	6.6103244855632655	1.383648874686101	0.31057268309022723	2.9003990154997705	0.7752779149204121	-0.48406916614007217	1.2593470810604843	50.31884965063469
5	2.0	wm	469	diff_vonmises	0.1370092312197273	7.8500507032224105	3.3252490197455864	0.5864168404885667	0.06382162516785636	1.9993157184497876	0.06825655947967679	-0.30648056798852713	0.3747371274682039	72.0311262405994
6	3.0	ltm	469	diff_vonmises	-0.20593528365250532	-11.799222606118011	1.8947978072744638	1.7785588704174362	0.5460636675694736	2.971178749787393	0.12920909117038137	-0.30624052654119593	0.4354496177115773	77.70675900406229
7	3.0	perception	469	diff_vonmises	-0.06261934805577972	-3.5878243594569152	3.0963892432116467	3.1497988811618307	0.5559712365844655	4.288206694696621	0.9971535854482052	-0.539787391433299	1.536940976881504	68.33546967853218
8	3.0	wm	469	diff_vonmises	-0.009027176563669899	-0.5172191180176946	1.1888611007453962	7.72028188989072	0.8336610600284248	8.558062504010644	0.25748947275406797	-0.27732147714223376	0.5348109498963017	86.89923999728526
9	4.0	ltm	469	diff_vonmises	-0.23176207948490865	-13.278989005660787	4.1392323598884175	0.5058753065466719	0.09940520481279078	2.5001867981313004	-0.042176610177509566	-0.3913490430057539	0.34917243282824434	63.010813050134004
10	4.0	perception	469	diff_vonmises	-0.12859996050500358	-7.36823498248578	1.2905552216112235	12.01092216717973	0.7591388874187697	13.849997917938799	0.6558183926940169	-0.6394929329618859	1.2953113256559028	87.02827051990354
11	4.0	wm	469	diff_vonmises	-0.3617859366024224	-20.728807254506375	0.760103079335268	207.3872290068182	0.7486771873616388	209.28904200361544	-0.10645089053557655	-0.3838507061025709	0.27739981556699433	87.81733591773721
12	5.0	ltm	469	diff_vonmises	-0.10055454996512403	-5.761351323838966	0.8864218104452003	83.72719525816424	0.8558769593281211	84.67698647394873	0.18913164801956128	-0.28152966464632545	0.47066131266588673	92.06489926763155
13	5.0	perception	469	diff_vonmises	-0.07160640965273611	-4.102745059186618	1.3651921210320925	6.91695745185431	0.6445943053116999	7.987450324652157	0.6420743748893618	-0.4690308778622267	1.1111052527515886	89.90271427030669
14	5.0	wm	469	diff_vonmises	-0.1350860928553646	-7.739862991524736	0.5280349529719303	41.813705248051996	0.47951686366439317	42.73893487774488	0.15461682277452837	-0.314186791160191	0.46880361393471937	120.97817394038101
15	6.0	ltm	469	diff_vonmises	-0.38960722923867375	-22.32284990316197	0.7026448521324737	122.08121388900452	0.6857969534000653	123.22035978840863	0.07085006700511087	-0.2853874906078726	0.3562375576129835	99.72301539244293
16	6.0	perception	469	diff_vonmises	0.02810758453382128	1.610445966095147	0.43005986490416953	118.60879632485438	0.4093253919467834	119.664759928325	0.21024716215202588	-0.40393930295966385	0.6141864651116897	130.720680337312
17	6.0	wm	469	diff_vonmises	0.11586182278244062	6.638393452126536	0.10924737747084873	9.594442204255813	5.882842342028129e-19	10.71245396471984	-0.006737049865433775	-0.34004131809817384	0.33330426823274006	173.29733775636265
18	7.0	ltm	469	diff_vonmises	-0.2668342688264941	-15.288477433217341	1.0187875757619922	162.01237589010148	1.0020867521483092	163.36260566326453	0.04944986833721998	-0.3222530366819001	0.37170290501912007	80.88390215423588
19	7.0	perception	469	diff_vonmises	-0.1522508771163424	-8.723332685931345	0.544892375261184	260.47633725415506	0.5320015957569375	262.12350835070004	0.21474607893564723	-0.5096165093310567	0.724362588266704	116.43713656989188
20	7.0	wm	469	diff_vonmises	0.3305215688900561	18.937490935442707	0.9879321166986336	115.46587167987383	0.9676009835959558	116.75545993423763	0.012156664970362385	-0.29531873945828124	0.30747540442864363	81.06578809818762
0	1.0	ltm	470	diff_vonmises	-0.12338562225845881	-7.069475408005118	0.0005005372039808405	2084.868011188922	2.9784594544320572e-28	2086.4212676015864	-0.08110100016557453	-0.4132743055818082	0.3321733054162337	179.53597739112672
1	1.0	perception	470	diff_vonmises	-0.04165449180828566	-2.386626578377029	9.895818202379505	0.9411878029225772	1.601253514392577e-15	2.731047304655616	0.7305826190843102	-0.43465967539427136	1.1652422944785816	43.153211999927066
2	1.0	wm	470	diff_vonmises	0.003530549587021538	0.2022855906979899	3.547605508204557	0.48687810088431155	3.090887873182363e-13	1.9535509030248306	0.039487916120865496	-0.31062676097987263	0.3501146771007381	72.81243013202342
3	2.0	ltm	470	diff_vonmises	0.0686645531754825	3.9341890991067623	2.7398950548926524	0.3854011442422227	0.10605778691396416	1.0183538975831163	0.0599034526277801	-0.1498019036436548	0.2097053562714349	77.7618490708021
4	2.0	perception	470	diff_vonmises	0.01025239019424145	0.5874186880513453	6.212469671499629	1.6192540181050699	0.5206100531178768	1.858325004651396	1.1089480022424139	-0.30422870365814364	1.4131767059005576	51.77693999887555
5	2.0	wm	470	diff_vonmises	0.09025513567267106	5.171238353424692	1.8495020084996234	1.7160587944223982	0.6907993331153996	2.2871801270651257	0.19745487139560425	-0.19218973309018217	0.3896446044857864	78.5406312341868
6	3.0	ltm	470	diff_vonmises	-0.19570800227704227	-11.213242547411227	1.5581410757002465	78.65659456766926	1.5429596723174204	78.97176249321788	0.06779322539014032	-0.10284115770946123	0.17063438309960155	68.09851333635757
7	3.0	perception	470	diff_vonmises	-0.025261739999655364	-1.447391085137066	5.201705752775941	1.6762750546175953	0.3699234349252524	1.5142033935657566	1.147014145614199	-0.2284110970950546	1.3754252427092535	57.52006104877796
8	3.0	wm	470	diff_vonmises	0.05279641175763178	3.0250115671471773	1.1386567741885605	105.39939456221987	1.1231579240309997	105.53071983488948	0.25675277108864236	-0.1199293763266347	0.37668214741527706	86.76227578677532
9	4.0	ltm	470	diff_vonmises	-0.5072349301753892	-29.062420720662807	1.5898874712982622	0.7012146483302111	7.426147709674015e-33	1.560427162064046	0.06630499470587059	-0.2352616047875634	0.301566599493434	106.94825464454371
10	4.0	perception	470	diff_vonmises	-0.03369475185728886	-1.9305670731632436	3.333672207192948	2.0416774336377848	1.9338518559767795e-16	2.4310541157811745	1.032413767629523	-0.38510920955631417	1.4175229771858373	75.17136149140893
11	4.0	wm	470	diff_vonmises	-0.17290695478377155	-9.906838757569469	0.784686166326557	185.21194171351007	0.7722395919332753	186.19293564615404	0.14755480573503377	-0.2771536693343464	0.42470847506938014	96.57168307541669
12	5.0	ltm	470	diff_vonmises	0.020900508863760776	1.1975109475692602	1.092216900214141	78.3210831529053	1.070106052492054	78.82320312928219	0.1467177121327552	-0.16341010390953858	0.3101278160422938	83.55843349427838
13	5.0	perception	470	diff_vonmises	-0.06454962821899887	-3.698421266087196	1.0218204988108293	115.1620764515077	0.986121377103233	115.28787542893522	0.7347611203758504	-0.3057423781208364	1.0405034984966868	93.23043449222345
14	5.0	wm	470	diff_vonmises	0.22487983891965285	12.884665667677899	0.3437294064168543	117.18291136845026	0.32955287658177423	117.6075128038129	0.20874377359913865	-0.26136616814220126	0.4701099417413399	140.88523861435513
15	6.0	ltm	470	diff_vonmises	-0.5376591633232743	-30.805600874958646	0.5430000788658427	114.46361105764502	0.529452793356666	114.71016586686784	0.2291487729362025	-0.1909197503323785	0.420068523268581	121.22462504314146
16	6.0	perception	470	diff_vonmises	0.01958739364730511	1.122274987651943	0.5436465522310563	163.17477212411944	0.5281216350549354	163.1910892350401	0.47182564415604844	-0.2781738783559682	0.7499995225120166	124.45084346005976
17	6.0	wm	470	diff_vonmises	0.06913017391853665	3.9608672025375102	0.19807282817673236	9.198756312754167	5.920434817731135e-11	9.41500424462622	0.26890287026076365	-0.3091810005910338	0.5780838708517975	168.53322296387046
18	7.0	ltm	470	diff_vonmises	0.05284149411853165	3.027594596157226	1.0363525875159572	83.75466282751853	1.015583198473499	84.64015668902759	0.023104672243633217	-0.2090012639875507	0.23210593623118392	79.80281483546361
19	7.0	perception	470	diff_vonmises	-0.04781839148304371	-2.739792015082726	2.0109231521749478	1.6261533937085269	1.7520938393734367e-16	2.349413392920337	0.4677364102855142	-0.35883776007877943	0.8265741703642937	96.76730971643116
20	7.0	wm	470	diff_vonmises	0.041945571285406644	2.4033042039189363	0.36914782897902365	70.79068235918841	0.35089392917967716	71.55014962370223	0.06836509244299727	-0.24609708316840884	0.3144621756114061	136.07442536240274
0	1.0	ltm	471	diff_vonmises	-0.7855482481622397	-45.00859922359176	0.0004127017361704563	1181.4610279791473	1.790096441642659e-28	1184.262666450774	-0.3682840861814043	-0.5234891235038788	0.15520503732247448	163.1336870137855
1	1.0	perception	471	diff_vonmises	-0.13664018392926314	-7.828905851038075	14.119879107348865	0.5791164067501595	0.011671332735307356	3.5737823569988283	0.28470253811157153	-0.5714106631098024	0.8561132012213739	35.95624730611178
2	1.0	wm	471	diff_vonmises	-0.08217051282841134	-4.708023585493558	2.7490359240077074	0.8575861922629959	0.21411786684680745	3.302419433346654	-0.10951099294798994	-0.48603488836932474	0.3765238954213348	70.91020694014802
3	2.0	ltm	471	diff_vonmises	-0.09047152041975562	-5.183636286183643	2.9198232240239603	0.3700756354569755	9.44249198220039e-33	1.728041979091453	-0.0363686600999551	-0.2743319386542452	0.23796327855429011	80.43498866641181
4	2.0	perception	471	diff_vonmises	0.0321532495620562	1.8422454975366829	6.179305337087748	1.7175640115406139	0.5822844876541023	3.2112751713676264	0.8237627247347064	-0.555637787190973	1.3794005119256794	50.118260493281014
5	2.0	wm	471	diff_vonmises	0.41896103941240465	24.00469933874493	3.8120434797061042	0.46757875707881846	0.030618730122937768	1.6045660096995364	0.08689688689331299	-0.25055430755030117	0.33745119444361416	68.72897461858102
6	3.0	ltm	471	diff_vonmises	-0.15872203794605236	-9.094102890024102	1.278716587872634	75.54518703047192	1.2500353837127707	76.55427572542472	0.004348491945943778	-0.24651962289058815	0.25086811483653193	70.70177923629467
7	3.0	perception	471	diff_vonmises	-0.04940498691881451	-2.8306972373471124	5.401852866818474	1.7059293411757237	0.4527667724709348	2.724960998527664	0.8928777139263445	-0.4374368307639428	1.3303145446902873	54.6164879410573
8	3.0	wm	471	diff_vonmises	0.3441172246393838	19.716464629591954	1.0522113726746294	107.03381096107694	1.034194838887083	107.44270332254462	0.22094395618373142	-0.1694977161402118	0.3904416723239432	87.24915604466136
9	4.0	ltm	471	diff_vonmises	-0.6537545333917382	-37.45737560089105	1.1030818016565795	245.2463758433643	1.0878510164021231	247.52273427544813	-0.11584863609766671	-0.49792985576007	0.38208121966240327	72.97809144095682
10	4.0	perception	471	diff_vonmises	-0.0014280688404396773	-0.08182231741133489	1.9508936418041487	3.3556293887268076	0.5268988082355472	4.90377522964152	0.47062004201526286	-0.4926777684905812	0.9632978105058441	79.99259337240227
11	4.0	wm	471	diff_vonmises	-0.4430428066712017	-25.38448296589033	0.7840730480709117	150.13083531581137	0.7689240276456624	152.5143497641574	-0.2752881447116238	-0.44372194466636117	0.1684337999547374	77.65094048342354
12	5.0	ltm	471	diff_vonmises	-0.22739472862731025	-13.028758233867556	1.0722045442868595	91.59841590957866	1.0364239166609226	92.8764359011274	0.17127112838529968	-0.3469251106534639	0.5181962390387636	82.01971276293527
13	5.0	perception	471	diff_vonmises	-0.13632981801513577	-7.811123194053858	1.1218277670228658	198.35408704512386	1.0942499814173845	199.64895837941233	0.5576795452913075	-0.48332268785742016	1.0410022331487276	83.82849249510451
14	5.0	wm	471	diff_vonmises	0.03943519381588693	2.259470169930725	1.0833434699449818	1.565086233489325	3.0588239376083965e-15	2.1979254047846073	0.20956673802318798	-0.28572893630528895	0.49529567432847693	125.16933458100692
15	6.0	ltm	471	diff_vonmises	-0.44219125122307934	-25.33569243269155	0.8435868767158972	150.78833881082775	0.8300891322122448	151.6819032651619	0.1120214079139572	-0.24048251435969092	0.35250392227364813	92.37192371294137
16	6.0	perception	471	diff_vonmises	0.10689638572415183	6.124711747196404	0.318722925438349	111.04981555688161	0.2983636002077014	112.30205732108098	0.14277852669208002	-0.4421267726999307	0.5849052993920107	142.5744117815177
17	6.0	wm	471	diff_vonmises	0.4254116836731862	24.374294030028	0.00033374607652251684	3331.6305169711395	1.0702090376676031e-26	3332.7919346045164	-0.007867027149814021	-0.3617941589847078	0.35392713183489377	174.45411738558235
18	7.0	ltm	471	diff_vonmises	-0.20722913492631911	-11.873354823425167	1.8990820066890335	1.0833073393784027	0.40875648583425267	2.9085834918527578	-0.12684150853467524	-0.36467365693193143	0.2378321483972562	73.83815639603952
19	7.0	perception	471	diff_vonmises	-0.2402522907868931	-13.765442280438767	1.9629925020185879	1.4465981116043634	8.13307679059932e-12	3.470096540310215	0.1855995336821702	-0.5377295021586105	0.7233290358407807	97.7972653247225
20	7.0	wm	471	diff_vonmises	0.7025758404798951	40.254630447354565	17.941593653904913	0.3589669141590213	0.1592131129866491	2.153163959232725	0.20285192077136077	-0.3779668015862437	0.5808187223576045	31.325686043565156
0	1.0	ltm	472	diff_vonmises	-0.1190977293330538	-6.8237972403754075	2.0921433509918477	0.5438288780906271	1.9281612737268455e-28	2.894548583672211	-0.17240450972548182	-0.4562902820099923	0.28388577228451045	94.93571528758493
1	1.0	perception	472	diff_vonmises	-0.08689298071283637	-4.978601064157187	12.378149577131296	0.6879606389194924	0.02855118068739097	3.2180533307256147	0.42858341376757003	-0.5176364671015627	0.9462198808691328	38.31024056026658
2	1.0	wm	472	diff_vonmises	-0.08527033229478295	-4.885630158169147	3.2531184924533854	0.6260467455669523	0.07043248675180387	2.790671879414152	-0.046693026636502155	-0.42877486268159265	0.3820818360450905	71.66300699578179
3	2.0	ltm	472	diff_vonmises	0.024663643677469635	1.413122690133527	2.9829053324985138	0.42613485145308716	1.0752947250159173e-24	1.597936358419227	0.023851113502117438	-0.2536058618775428	0.27745697537966024	79.57051002114707
4	2.0	perception	472	diff_vonmises	0.014883155159012226	0.8527419764497581	6.2028963531956265	1.516327801477721	0.46338401829374376	2.5767981324923808	0.8553443573536966	-0.4325064183944727	1.2878507757481694	51.16797150754289
5	2.0	wm	472	diff_vonmises	0.18929518775203835	10.845815340328311	2.879522894816135	0.7665404580443345	0.2363068535958774	1.7690054865493308	0.13874377492485035	-0.2505867265445568	0.3893305014694072	72.72761996421013
6	3.0	ltm	472	diff_vonmises	-0.22049521785206874	-12.633445385741183	1.3136658514731339	107.07945938884137	1.2928042452502948	107.90666825370698	0.07810229766875665	-0.224807094108316	0.30290939177707266	72.43781349191698
7	3.0	perception	472	diff_vonmises	-0.044066940549744194	-2.52484970955425	4.61106832913138	1.957306542908854	0.3849323463470359	2.635583689785215	1.0308359364767572	-0.39629643538754844	1.4271323718643056	59.68318788041552
8	3.0	wm	472	diff_vonmises	0.124974083310657	7.160487522216985	1.4615484556160674	2.338658369523265	0.5910304582223738	2.7997331497930555	0.25846396554220885	-0.19410043727036846	0.4525644028125773	89.0142981736889
9	4.0	ltm	472	diff_vonmises	-0.3514750947382624	-20.138039532463203	3.0278269996114373	0.5140251620131261	1.1657465005281758e-18	2.0938090316580324	0.005196906273750468	-0.3324465547659685	0.337643461039719	78.93484220111857
10	4.0	perception	472	diff_vonmises	-0.04141451890836844	-2.372877144014257	2.1486234912797215	3.295540986382708	0.38268897283513703	4.607607607216092	0.7381601168700913	-0.5218810485254782	1.2600411653955694	81.61525539545883
11	4.0	wm	472	diff_vonmises	-0.17986642199295866	-10.30558685631558	0.7129128946716013	199.83686884315046	0.7016968438344046	201.4447925849086	-0.030731826141163765	-0.346188506991723	0.3154566808505592	94.21116262012849
12	5.0	ltm	472	diff_vonmises	-0.09508513884343923	-5.447977150144514	0.9550108621191339	146.3663471978292	0.9378300450498583	147.33863703896782	0.15686115921159427	-0.2722712145231565	0.42913237373475077	87.43410870499994
13	5.0	perception	472	diff_vonmises	-0.06607334416605527	-3.785723759030307	0.9778837118850504	326.93744848307983	0.9629989098124553	327.919152633407	0.5942116480152606	-0.43670967889605095	1.0309213269113116	90.91003466211825
14	5.0	wm	472	diff_vonmises	0.034214929909489364	1.9603710801496683	0.9284370520063496	1.849881385398817	1.4155155898257278e-20	2.6056355617144233	0.19231076047243661	-0.3199089665545651	0.5122197270270017	131.60465333367932
15	6.0	ltm	472	diff_vonmises	-0.4862582269440645	-27.860544157409468	0.7131090411539577	180.50065433818153	0.7004805423446189	181.46989031554452	0.15869943644764817	-0.2864097144246873	0.4451091508723355	101.8780413568171
16	6.0	perception	472	diff_vonmises	-0.017992415266031868	-1.0308894579903782	0.6749557427640849	215.95375695451096	0.6598774959529473	216.91643628726814	0.3530018659217333	-0.3863175963963741	0.7393194623181074	108.0774179033778
17	6.0	wm	472	diff_vonmises	0.12594224085345637	7.215958863323145	0.37171200915627756	4.208083809147884	7.019649418171481e-14	5.204535919652873	0.11023193962063749	-0.38205608870676666	0.49228802832740415	158.6742760944374
18	7.0	ltm	472	diff_vonmises	-0.09326331820338941	-5.343594516439837	1.0411375360217476	138.104373883271	1.0224720401096354	139.67035720102984	-0.05555587280139207	-0.34248459949329657	0.2869287266919045	76.3025502897014
19	7.0	perception	472	diff_vonmises	-0.09450047161198896	-5.414478185362815	0.9996897059900572	3.67707852754464	0.1861303021715324	5.277400428298146	0.2532034111652748	-0.5211502581985118	0.7743536693637866	116.02249762846289
20	7.0	wm	472	diff_vonmises	0.34253623059884253	19.625880343633604	0.8132417475166095	108.91350836450702	0.7928471086439103	110.26964736432788	0.014234771034949745	-0.3062954908415083	0.32053026187645806	89.95590703835282
0	1.0	ltm	473	diff_vonmises	-0.1599643933771816	-9.165284612882964	0.0002443969321519479	2293.002941823522	1.8896731534222506e-31	2296.4317236629263	-0.4565116115060164	-0.6348926467353522	0.1783810352293358	179.25488426207505
1	1.0	perception	473	diff_vonmises	-0.0378310052679703	-2.167556936591882	7.776134461676428	1.1101766944582254	0.16725774307894767	4.6258486862808645	0.3496340717074874	-0.7713997692389466	1.121033840946434	46.733385813028036
2	1.0	wm	473	diff_vonmises	-0.01294555029860083	-0.7417253955841502	3.950128733228573	0.506765666062849	0.04771402784108834	3.6981137464324765	-0.2300321842382378	-0.5807963821509352	0.3507641979126974	65.39802664623528
3	2.0	ltm	473	diff_vonmises	-0.09598206922344356	-5.499367475435827	2.1282092639299903	0.459323991519988	1.1063438053685863e-29	2.2277737662488737	-0.10858137147786981	-0.351074378094873	0.2424930066170032	94.16759096600364
4	2.0	perception	473	diff_vonmises	-0.021971514458567674	-1.2588750479865938	8.207580188434664	1.391110987747109	0.284218986193771	3.20074107432912	0.9006852194643369	-0.550448715605592	1.451133935069929	45.59125059194196
5	2.0	wm	473	diff_vonmises	0.2023046820253282	11.591204455787434	3.1960801432444725	0.6284820949768147	0.05628910036103762	2.3237734952389606	0.03569657765300216	-0.35667240890125346	0.3923689865542556	73.48971912397923
6	3.0	ltm	473	diff_vonmises	-0.22568119430772163	-12.930579949304308	2.119087018222897	0.5100359677823636	0.13681280496066126	1.3331896087163837	0.03029675836608528	-0.1859718841880966	0.21626864255418188	85.21035837587937
7	3.0	perception	473	diff_vonmises	-0.07544070693792602	-4.322434111026469	3.5025524905602614	2.4003447631602466	0.5781870961642273	3.0412459232149605	0.9201718173315833	-0.39934489551677776	1.319516712848361	65.31275442485241
8	3.0	wm	473	diff_vonmises	0.01340776937415438	0.7682085978238071	1.1828653806501084	169.09472256200723	1.1695328337878974	169.59955216788612	0.22933050025102375	-0.19238417541927433	0.4217146756702981	81.43098480953878
9	4.0	ltm	473	diff_vonmises	-0.21641870025349172	-12.399878132231915	3.9708472451130445	0.41041073898153985	0.1354217282569374	2.6611113556462676	-0.16847290206306986	-0.4201595961706544	0.25168669410758454	61.681767192641644
10	4.0	perception	473	diff_vonmises	-0.08770450980679197	-5.025098256192919	3.1174176270857705	1.8915582741039416	0.1393257468848134	3.2366228076976316	0.6769427806564012	-0.46964018291142323	1.1465829635678244	73.9329397914087
11	4.0	wm	473	diff_vonmises	-0.23604166434033177	-13.524191155944635	0.6475799136224379	192.56601589163017	0.6362749746636865	194.83987679805693	-0.20597547673527572	-0.42801416770944556	0.22203869097416984	90.5452005497006
12	5.0	ltm	473	diff_vonmises	-0.16909978330194914	-9.688703899778478	0.697979202424031	90.45814110641722	0.672264243603807	91.95847339428094	0.02403204072763998	-0.346058284496344	0.370090325223984	98.17306439019781
13	5.0	perception	473	diff_vonmises	-0.09917716560169967	-5.682433013047437	2.265733668365669	2.9276998035894937	0.35308978576950617	4.365858593099777	0.6688411937960498	-0.5209109893980275	1.1897521831940772	80.11581176245599
14	5.0	wm	473	diff_vonmises	-0.1512962937010683	-8.668639085042956	0.4447167428511156	153.65459170743972	0.4316379551864105	154.8916141972187	0.08206692521995507	-0.3610255070206456	0.4430924322406007	125.93842042927821
15	6.0	ltm	473	diff_vonmises	-0.3955598359722906	-22.66390914609937	0.5837731787432773	163.5843536615476	0.5722993822911688	164.91185421333657	0.008859398592264256	-0.3102777444671183	0.31913714305938257	106.9080699383977
16	6.0	perception	473	diff_vonmises	0.26992037138190744	15.465298084787065	0.0002922519337321137	7590.272550227522	9.51184057564997e-30	7591.519438365249	0.15461466342253516	-0.5514599018163153	0.7060745652388505	177.63597876419232
17	6.0	wm	473	diff_vonmises	0.1534632118942017	8.792794352059614	0.6620448249228432	1.7658590821394284	3.5558017940471463e-16	3.2703107495024852	-0.030761373005209924	-0.39019615140029806	0.35943477839508814	143.59202995337142
18	7.0	ltm	473	diff_vonmises	-0.5549060776248845	-31.79377627406473	1.5025335173261225	0.7399577624709183	1.4029909666414044e-16	1.902091735407098	0.018112311251657576	-0.286834063182222	0.30494637443387956	109.27646110233242
19	7.0	perception	473	diff_vonmises	-0.12757441580131856	-7.309475599262634	0.578042142616715	219.9987630651806	0.5641119418515443	221.55991708339292	0.17427738576486007	-0.4550013641355726	0.6292787499004326	112.44346159838935
20	7.0	wm	473	diff_vonmises	0.22810934451936965	13.069702708455537	0.7092824652249189	35.73813594718897	0.6467389451259983	37.15160506737436	0.037650012406906797	-0.33315332375470463	0.37080333616161143	99.32517655931309
0	1.0	ltm	474	diff_vonmises	0.05539041652072447	3.173637092109222	4.636758299376511	0.3945944675439116	1.0231292048885488e-17	3.962605131202747	-0.3020380855736349	-0.6306373417661065	0.32859925619247166	63.464429936548356
1	1.0	perception	474	diff_vonmises	-0.04399484118649156	-2.5207187203342936	9.430354381542491	0.7895234405864883	0.06927713764201125	4.371104400604216	0.20874826697796578	-0.7115192466482085	0.9202675136261743	43.34907199496604
2	1.0	wm	474	diff_vonmises	-0.05887418038596136	-3.373242058407478	3.0233088919778295	0.7454703417936345	0.0768091067006606	4.154743785650652	-0.2226086778520966	-0.6376192069386165	0.4150105290865199	72.70377285470474
3	2.0	ltm	474	diff_vonmises	0.07241015117200678	4.1487960560602595	1.7271475300062697	0.6101236281977971	1.4984766341550453e-26	2.333118714107349	-0.08339684019626764	-0.36222590702618596	0.2788290668299183	103.83346157884102
4	2.0	perception	474	diff_vonmises	0.004569403207196803	0.2618075186659192	6.616665710446705	1.4729494837190877	0.3612607602870132	3.092570643719168	0.7966973460577266	-0.5227434858125583	1.3194408318702848	49.92005298947123
5	2.0	wm	474	diff_vonmises	0.1285549931134212	7.365658540732397	2.8090487990939175	0.9828147063428746	0.2663916236688496	2.519588224148543	0.10560884036642848	-0.35662293778059917	0.46223177814702765	71.84422915917693
6	3.0	ltm	474	diff_vonmises	-0.24402967276826232	-13.981870325579987	1.4078781838126002	2.3093257534445617	0.6148547839798396	3.436394561180394	0.04050033899114547	-0.2643151199023572	0.30481545889350264	82.14118984181039
7	3.0	perception	474	diff_vonmises	-0.05523184157259447	-3.1645514168448665	4.0872828711924365	2.15297552389027	0.39372053214969127	3.091509756923128	0.9729411209860416	-0.4505300907566094	1.423471211742651	62.59424960035295
8	3.0	wm	474	diff_vonmises	0.04416555026579572	2.5304996301029856	2.0381399869183827	1.3757362201458827	0.33353875187951276	2.1441053822073237	0.2544551580414789	-0.24963150102381199	0.5040866590652908	83.42506613011759
9	4.0	ltm	474	diff_vonmises	-0.26735444530063707	-15.31828134978773	0.5024477789246767	140.67097846743064	0.4865051758950538	142.94957176690798	-0.13768527868550962	-0.4671631391857307	0.3294778605002211	109.57295110919213
10	4.0	perception	474	diff_vonmises	-0.04400155193184691	-2.521103217720542	2.244107698997318	3.1059360514887557	0.3300464561702033	4.701131059066727	0.7039799772277984	-0.5668315468485875	1.270811524076386	80.85612614112594
11	4.0	wm	474	diff_vonmises	-0.08812111912315823	-5.048968211726536	0.5845641329252601	168.80228546258004	0.5700515556529274	171.09676986428897	-0.13374970076393566	-0.462894606965758	0.32914490620182235	100.93880874660776
12	5.0	ltm	474	diff_vonmises	-0.0993158724836108	-5.690380331970364	0.6972588951117482	144.64311310332687	0.678772170028881	146.21129520695374	0.06947043543516429	-0.38099847630961925	0.45046891174478354	99.4142672590707
13	5.0	perception	474	diff_vonmises	-0.06710189596244813	-3.844655435974217	0.9867573127496924	384.571054041699	0.9717204163199834	386.13953859974765	0.5682489681345544	-0.5533452100870946	1.121594178221649	88.76358084930379
14	5.0	wm	474	diff_vonmises	-0.04685571076669273	-2.684634473017184	0.38091483417939886	144.09927366627056	0.3654224749083331	145.43962335197972	0.1096552267014772	-0.422895334397861	0.5325505610993382	134.31515445651365
15	6.0	ltm	474	diff_vonmises	-0.4719893769667869	-27.042999275206117	0.6780277689629063	242.70550435339922	0.6670640772838249	244.26262103029498	0.0731533488262528	-0.3818306310282793	0.4549839798545321	100.74210775505769
16	6.0	perception	474	diff_vonmises	0.05446840794987256	3.1208098923245187	0.4802742259976483	191.65341921787657	0.46238466225381775	193.17515600717627	0.2730021759856811	-0.5410816996318886	0.8140838756175697	124.72602096867352
17	6.0	wm	474	diff_vonmises	0.10342608273967076	5.925878032553985	0.7659275571369786	2.3546321656374274	2.1868698081582512e-17	4.015164110825783	0.06061648966091404	-0.4878146935611767	0.5484311832220907	138.8066058219136
18	7.0	ltm	474	diff_vonmises	-0.5578760954444023	-31.963945760201746	3.655923276620235	0.3873424319332587	3.0296519208666668e-22	2.1508848200750483	-0.05886630529901765	-0.3421347193042104	0.28326841400519276	71.66872520724884
19	7.0	perception	474	diff_vonmises	-0.03234171511168332	-1.8530437781139302	0.4728529099984812	284.03806589613447	0.46064997567243604	286.09967831996875	0.15070661344718417	-0.5987345200360323	0.7494411334832165	122.84086119880259
20	7.0	wm	474	diff_vonmises	0.25327912520856266	14.511824913216177	0.7019102604650244	207.02354278829785	0.6895103485080769	208.9087684862857	-0.04351607198026386	-0.4032408462496164	0.35972477426935257	94.73379931122324
0	1.0	ltm	475	diff_vonmises	-0.31524556383754043	-18.062240318113034	0.26990769771293005	3.8924385072876593	3.1780310262748135e-14	5.8324203420856815	-0.13138873327778944	-0.46379816610439384	0.3324094328266044	162.56471205680833
1	1.0	perception	475	diff_vonmises	-0.14057288897226325	-8.054233252071796	11.985380297450513	0.7014163777213195	0.012438694437116881	2.7889703563824484	0.508818450055412	-0.44540628113108194	0.954224731186494	39.067489254615
2	1.0	wm	475	diff_vonmises	-0.0670422173397651	-3.841236102767326	1.81222299623871	1.8234201449903111	0.44810454805711836	3.4691022453275093	0.06360837228804683	-0.38174996109864456	0.4453583333866914	79.59152201753116
3	2.0	ltm	475	diff_vonmises	0.08461441293495621	4.848048747150152	2.4510784879247436	0.44187099973723926	7.914327511758756e-15	1.4994700426946665	0.01876060900147189	-0.2367353513012017	0.25549596030267363	87.84906039075346
4	2.0	perception	475	diff_vonmises	0.062088133277013145	3.5573879946186144	4.08279341547437	2.143694468990205	0.7445118574913643	2.9548462476478723	0.8006093276231923	-0.41856457937233305	1.2191739069955254	59.30307627387373
5	2.0	wm	475	diff_vonmises	0.575386845082601	32.96723781058076	3.9286918437375737	0.5608033300896879	8.285375120740818e-15	1.152065311747199	0.24360242046905714	-0.1831917048671299	0.42679412533618705	69.07733606267735
6	3.0	ltm	475	diff_vonmises	-0.1505327075289573	-8.624888820086445	1.1809514965754753	92.04334776750991	1.1592197236456618	92.90569244710912	0.050643379656477805	-0.21812929882804255	0.26877267848452036	75.64973490106246
7	3.0	perception	475	diff_vonmises	-0.0685337176943915	-3.926692778229684	5.213158386582721	1.3889069105182765	6.257050207419708e-16	2.2576001374130996	0.8721136341906739	-0.3592717192209604	1.2313853534116344	59.76757807328363
8	3.0	wm	475	diff_vonmises	0.5352360938101519	30.66676921838991	0.8840656233193676	1.9549087524639357	7.82572728344983e-09	1.8420489688972113	0.3317781045601268	-0.18651941034530228	0.5182975149054291	130.6941918799571
9	4.0	ltm	475	diff_vonmises	-0.510564963705886	-29.253217587597323	1.1422365720266145	134.76458830097943	1.1174081126352657	136.28859993011707	0.06969486034554251	-0.37627424635366324	0.44596910669920575	76.61145840602907
10	4.0	perception	475	diff_vonmises	0.010993419755906255	0.6298765544291681	0.9599414409210711	98.05689659184675	0.9086519012717199	99.37883266785092	0.5271870876119635	-0.488445187837911	1.0156322754498746	91.29273445319939
11	4.0	wm	475	diff_vonmises	-0.5390019745275125	-30.882538289644373	1.1483336503329822	221.77858959766988	1.1343001870587042	223.3364425196069	0.008027398442379763	-0.36777664283146905	0.3758040412738488	74.59252549457203
12	5.0	ltm	475	diff_vonmises	-0.3897017503704863	-22.32826556508963	1.056271652482934	177.6389438920312	1.0426452165269873	178.2175160676641	0.2533812817377523	-0.21828883915414465	0.47167012089189697	86.28684062883882
13	5.0	perception	475	diff_vonmises	-0.1268606977540049	-7.2685825673892435	1.8085543422004537	3.5532028887474096	0.5460457586351927	4.066864752906197	0.6859126737019714	-0.34684474985230357	1.032757423554275	85.35071658852058
14	5.0	wm	475	diff_vonmises	-0.03757369147957055	-2.152813942506054	0.3760610053535954	113.76023242004439	0.3611901546679078	113.74427099040972	0.31167370599326816	-0.21098507009731726	0.5226587760905854	139.95336034294158
15	6.0	ltm	475	diff_vonmises	-0.511162845131876	-29.287473669955816	0.6913654265680144	121.11968376545474	0.6779109980404728	121.60181945409438	0.17520360323621276	-0.19036269000234363	0.3655662932385564	106.65147058487186
16	6.0	perception	475	diff_vonmises	-0.046669205300725485	-2.67394849696114	0.5902995183043344	126.48582966065283	0.5717152753424288	127.11164779770321	0.28118408067877	-0.29828440331113093	0.5794684839899009	116.49562855935345
17	6.0	wm	475	diff_vonmises	0.49609469930513234	28.424132508995736	0.00017736517867630085	5627.628659797822	7.629543037881962e-30	5628.16334067527	0.07376535413538932	-0.24394547682879875	0.31771083096418806	172.59658767433814
18	7.0	ltm	475	diff_vonmises	-0.2080629270432143	-11.92112759271454	2.6626198541242903	0.5748845009167537	2.2069559736640426e-19	2.2077481124412577	0.00015389284612465914	-0.349663065445928	0.34981695829205267	84.26470852432656
19	7.0	perception	475	diff_vonmises	-0.24704557746104017	-14.154668935889857	2.236062076519809	2.1481606919121523	0.04937625897332851	3.5599811675736523	0.590148556362897	-0.5254264612530781	1.115575017615975	89.61945526337273
20	7.0	wm	475	diff_vonmises	0.39152487592154883	22.432722964687976	1.3280137293669538	71.85885393810658	1.288740296747184	72.5163328030282	0.25222092039224364	-0.2375462969253146	0.48976721731755823	76.4557595731658
0	1.0	ltm	476	diff_vonmises	-0.5311126319887431	-30.430512259039862	0.07187328404317578	9.626122995568277	5.916987831842213e-08	11.61068569982615	-0.2038136030364721	-0.42393865514086726	0.22012505210439515	168.5219798709708
1	1.0	perception	476	diff_vonmises	-0.10027087014014348	-5.745097667134571	11.750473997253444	0.8075190444878553	0.0852636145928537	2.9945326060016413	0.573880036281319	-0.49342567079316885	1.0673057070744878	39.04735303854784
2	1.0	wm	476	diff_vonmises	-0.10422818362164428	-5.971835027834789	4.221163079305941	0.4395424319288048	0.07029263202129263	2.2044958378860793	-0.02795489822749625	-0.3453643517674485	0.31740945353995226	63.40836388971158
3	2.0	ltm	476	diff_vonmises	-0.11582348232131219	-6.636196705519292	4.426988896452085	0.36406198362454073	1.0957474807875531e-15	1.5004779480434665	0.05691267604702707	-0.2387662422073304	0.29567891825435744	64.99129819150076
4	2.0	perception	476	diff_vonmises	-0.0008155037847997681	-0.04672492504597165	6.794607236370288	1.4868945778161997	0.4159583872177066	2.618598453583666	0.9102822185736097	-0.44607117225687687	1.3563533908304866	49.35932973240449
5	2.0	wm	476	diff_vonmises	0.28924293415064395	16.572399380812286	3.281730772876838	0.47436738746013174	2.84354898601911e-14	1.5482860998759296	0.08043053260944633	-0.2459561216775512	0.32638665428699754	75.77034159226031
6	3.0	ltm	476	diff_vonmises	-0.1675671757373544	-9.600891954677376	1.2945635531960278	88.0299584157245	1.2707109506540915	88.79336784110843	0.0834321276924328	-0.20967881407285738	0.2931109417652902	73.4068209158153
7	3.0	perception	476	diff_vonmises	-0.053524973645565695	-3.066755088439874	3.923278915984211	2.3214297524396947	0.5550638837897287	2.944610591294163	1.0090758273954656	-0.4094761052941518	1.4185519326896174	62.58454387035664
8	3.0	wm	476	diff_vonmises	0.11909793441878957	6.8238089909225055	1.1120360058307464	162.5096167053946	1.0994225815500753	162.87682671909425	0.251150969673418	-0.16980994315818343	0.4209609128316014	85.38506282631039
9	4.0	ltm	476	diff_vonmises	-0.36067708567626955	-20.665274776328644	6.046396771738396	0.42570839463224686	0.20971897857023786	2.049563382745162	0.010230078733115322	-0.34010606106139935	0.35033613979451467	51.32290491682937
10	4.0	perception	476	diff_vonmises	-0.08820457801277531	-5.0537500538644435	2.3353771627004942	2.6942198441160863	0.3117701547496974	3.9991909480685246	0.6766590613579626	-0.49260427063420253	1.1692633319921653	80.2226985176487
11	4.0	wm	476	diff_vonmises	-0.4185340101181428	-23.980232362455276	0.9054156362192458	182.29948558455638	0.8925793371259126	183.9466468947999	-0.08354432781215593	-0.34254844449470667	0.25900411668255074	80.6828328324416
12	5.0	ltm	476	diff_vonmises	-0.12165190638549263	-6.970140805609317	1.0573071136377692	131.51679114285855	1.039465506192767	132.26754026351884	0.1797217873094965	-0.2305848342411263	0.4103066215506228	84.20778337343981
13	5.0	perception	476	diff_vonmises	-0.10518900612875985	-6.026886102353689	1.8856277318586685	3.311486882783877	0.46037631633273934	4.020496638789137	0.6861443928546861	-0.3876572821078592	1.0738016749625454	85.28652149352442
14	5.0	wm	476	diff_vonmises	-0.02540876579515457	-1.4558150426987242	1.147592133387361	1.3274657203314546	2.942028652455923e-17	1.8913828054817075	0.1893511099844799	-0.25161766774905203	0.44096877773353194	122.67726862621818
15	6.0	ltm	476	diff_vonmises	-0.41794670285288604	-23.946582134878692	0.6821427901548471	108.21671753975455	0.6678895844786762	108.90016019494597	0.10332360778842897	-0.2008396576997118	0.30416326548814077	104.04980984504584
16	6.0	perception	476	diff_vonmises	0.10638676855047938	6.095512833977587	0.26069205237405985	126.04066148454433	0.2452081426743772	126.71777322539975	0.2086180490747651	-0.3502375004334759	0.558855549508241	150.24459608684936
17	6.0	wm	476	diff_vonmises	0.21622848576776452	12.388979644997494	0.000385876746482821	2508.602760065548	1.1112380811607517e-27	2509.3633555822485	0.03302258317302176	-0.2750979334455792	0.30812051661860096	178.42243210128123
18	7.0	ltm	476	diff_vonmises	-0.18483202398410498	-10.590094893150022	0.9855267337179935	104.73675035132923	0.965055818586296	105.84474979609999	0.03512087350285498	-0.26137907420031503	0.29649994770317	82.19770088470906
19	7.0	perception	476	diff_vonmises	-0.20726694460851894	-11.875521158639948	0.7230896494068559	176.1517700267365	0.7036164540273708	177.40814918864368	0.2957815441629279	-0.41171081123386166	0.7074923553967896	102.77921431506236
20	7.0	wm	476	diff_vonmises	0.35484986450283224	20.331399596801415	0.9474499741236111	61.74671060088701	0.9143046140865865	62.75402190463134	0.06129864896602655	-0.24630207010629412	0.30760071907232067	85.39706999172674
0	1.0	ltm	477	diff_vonmises	0.008669846154045906	0.496745593654559	7.156462959284556	0.24513171256589827	0.02474647002286381	3.427582482948388	-0.3024588042265142	-0.5477937281739355	0.24533492394742124	49.598552604464544
1	1.0	perception	477	diff_vonmises	-0.09316822173673082	-5.338145890253693	12.768980079020828	0.7050847357901896	0.11578331838362857	3.893289490458864	0.3013455926537054	-0.6559689187260137	0.9573145113797191	37.13497476224035
2	1.0	wm	477	diff_vonmises	-0.13562714225719036	-7.770862838757429	3.6097723762028564	0.5434412618014896	0.08660152345372933	3.3673618663163687	-0.18842394255600442	-0.5244504071798053	0.33602646462380087	66.50834841749386
3	2.0	ltm	477	diff_vonmises	-0.1191046112101465	-6.824191542887947	3.2017656395217053	0.5087640529888452	1.2062112594339328e-48	2.3963652650913034	-0.03565260337745768	-0.38082091706799964	0.34516831369054196	76.73957779679603
4	2.0	perception	477	diff_vonmises	-0.013287238164104646	-0.7613026681883526	7.611776085451672	1.3546373988312526	0.33397127522582726	3.3493378724811174	0.7406605213237895	-0.5807105159544093	1.3213710372781988	46.7418975731579
5	2.0	wm	477	diff_vonmises	0.1494491653632502	8.562806427066963	3.8143602008222475	0.5456425443101278	0.05546506649800007	2.322653590752555	0.01825626235408384	-0.36123506983305154	0.3794913321871354	67.39735722670775
6	3.0	ltm	477	diff_vonmises	-0.26124576601582516	-14.968279808369013	2.8759144693842833	0.7839091021238154	0.2094520386560434	2.1650501245112586	0.08092448750474524	-0.3128137955697448	0.39373828307449005	72.4046610508972
7	3.0	perception	477	diff_vonmises	-0.06621028968070694	-3.7935701590430946	3.299003671938368	3.1287575000703467	0.6524576294231813	4.46242884450597	0.9328589746897664	-0.5754758116553591	1.5083347863451255	65.07150104581751
8	3.0	wm	477	diff_vonmises	0.042400765785678085	2.4293849276420563	1.1702269920201647	166.38956358563195	1.15072652867792	167.3915214843897	0.23199374502049608	-0.3070527238009646	0.5390464688214607	79.71850776147869
9	4.0	ltm	477	diff_vonmises	-0.21162210177330057	-12.125053283298097	0.8038520451598814	136.15918548638837	0.7829677659984597	138.67945534967794	-0.21402509754895505	-0.48933492950391155	0.2753098319549565	82.11744620379314
10	4.0	perception	477	diff_vonmises	-0.12077302286490257	-6.919784489195908	1.5426611295057677	7.154395905940559	0.6943100164466872	9.190404819768062	0.546860397847067	-0.6377559173596654	1.1846163152067324	82.70126467613423
11	4.0	wm	477	diff_vonmises	-0.2454537153617674	-14.063461956034693	0.6178061643106002	137.30041824783183	0.6034448129693498	139.69825844909047	-0.2647430288998436	-0.43443176571333453	0.16968873681349095	88.49321378229281
12	5.0	ltm	477	diff_vonmises	-0.1010258828409837	-5.788356708371489	1.732919005389587	1.6922825708394102	0.2945831212729508	3.2422548942048994	0.1222417958474189	-0.37840232966250714	0.5006441255099261	86.99668729907907
13	5.0	perception	477	diff_vonmises	-0.08534748444436037	-4.890050650720295	1.0168714004542507	216.0496926508171	0.9894163340794151	217.75931031146197	0.5410238749874168	-0.572808320204004	1.1138321951914207	87.17960498476819
14	5.0	wm	477	diff_vonmises	-0.14793515783479308	-8.476060185535337	0.638758457851603	9.546178461440174	0.41425347219342423	10.827955437658812	0.10575780304962423	-0.36535449471386094	0.4711122977634852	116.72436286955556
15	6.0	ltm	477	diff_vonmises	-0.3605546179275678	-20.658257891201565	0.7990117221779085	192.87313044030972	0.7854545567408631	194.4495720628987	0.025045607776895906	-0.35927729313195655	0.38432290090885246	90.89392652875316
16	6.0	perception	477	diff_vonmises	0.11579777034691112	6.634723517903161	0.7763709581071853	2.714617954061056	2.421235638614775e-18	4.3622472890561435	0.11774311980302854	-0.5223908915295352	0.6401340113325638	138.28776971423724
17	6.0	wm	477	diff_vonmises	0.18687850328004899	10.707349519668519	0.7384963708006654	1.4952203722237536	3.436621088590509e-19	3.1557619245742377	-0.06580304164267997	-0.4026010200708835	0.3367979784282035	139.7889558803725
18	7.0	ltm	477	diff_vonmises	-0.39703389917473114	-22.748366746334753	0.9888215724544084	172.59369318635896	0.9724087195340406	174.23784607935983	-0.016497074800575717	-0.3670631003975693	0.35056602559699357	79.914103696477
19	7.0	perception	477	diff_vonmises	-0.18741741073490403	-10.73822664237985	0.447602631758436	253.862774955702	0.43606963674853305	255.9349502970138	0.055071560266092945	-0.5504717817351263	0.6055433420012193	123.94905527760906
20	7.0	wm	477	diff_vonmises	0.3842329992963846	22.014929209335968	0.9250948145062327	93.61003855399878	0.897253248125444	95.34475393970558	-0.06282647139246933	-0.3688777029416386	0.30605123154916924	81.28222232261479
0	1.0	ltm	478	diff_vonmises	1.4727282740027539	84.38111446994408	12.864828794610544	0.1672884841655741	0.14961198164744718	3.4560640770413547	-0.39836189692732327	-0.6027653047274996	0.2044034078001763	35.08092408989637
1	1.0	perception	478	diff_vonmises	-0.05092935687247901	-2.918037202108641	10.440396826744175	0.9499284427098417	0.19459837539155703	4.424220485311253	0.361779888060631	-0.7657953605416968	1.1275752486023278	40.45052305242197
2	1.0	wm	478	diff_vonmises	0.055352635505902165	3.1714723994141822	6.413151029618137	0.28736622636322345	0.028906757344202803	3.2092273828420304	-0.2414535298355795	-0.5120442589544191	0.2705907291188396	52.323021535516574
3	2.0	ltm	478	diff_vonmises	-0.15688710602969677	-8.988969035523075	121.77510923166984	0.39703006101418464	4.487646281450487e-45	1.900234522300878	1.443648123169265	-0.3024317172580512	1.7460798404273161	12.240503076761712
4	2.0	perception	478	diff_vonmises	-0.040678800806434726	-2.3307236018620796	10.531935389503712	1.3207695618033675	0.33858378510810355	3.3664230642592807	0.957857247124815	-0.6134887240635122	1.571345971188327	40.25101000489548
5	2.0	wm	478	diff_vonmises	0.04108022036976045	2.353723248654628	4.712652258717149	0.40714272514985345	1.2759260948630452e-21	2.2864545791706528	-0.021877314307600704	-0.36387295689439303	0.3419956425867923	62.94125732060928
6	3.0	ltm	478	diff_vonmises	-0.35489498235301836	-20.33398465919778	4.378680654703311	0.22922496902520043	6.241022884876103e-13	0.8738704044882886	0.046017896651037865	-0.13905167430151666	0.18506957095255452	65.35522961513328
7	3.0	perception	478	diff_vonmises	-0.0664102138697722	-3.805024971299109	3.218852528068574	3.720953025184155	1.1826046091067575	4.204560735268809	0.9556710539807134	-0.4247171476249728	1.3803882016056863	62.069647863716625
8	3.0	wm	478	diff_vonmises	0.027129111594997157	1.5543835963327621	1.5931077733638357	164.7273104671445	1.576920370072458	165.28899231160506	0.20723068996153415	-0.2109873371435782	0.41821802710511236	68.89043340065979
9	4.0	ltm	478	diff_vonmises	-0.10063940928798969	-5.766213404891507	0.9889638521577366	108.94778963701025	0.9667994087973096	111.02640847584617	-0.2395753096581288	-0.4114897647516287	0.1719144550934999	70.06283221921794
10	4.0	perception	478	diff_vonmises	-0.12431101347488516	-7.1224964191048254	3.4238374948617163	1.9108978663673304	0.3089586220407522	3.2136626272608737	0.6680841414636904	-0.4555465781296917	1.1236307195933821	67.94664540268715
11	4.0	wm	478	diff_vonmises	0.10978550826262107	6.2902462751468144	0.6790904145761755	102.41106203830942	0.6630644212269827	104.4441494802117	-0.25187493952197215	-0.3654037341558869	0.11352879463391474	80.83023812043047
12	5.0	ltm	478	diff_vonmises	0.05895290335542301	3.377752552308368	1.9730151442542065	1.2810029157351086	0.35045563658651674	3.1616467555749805	-0.03752700837404177	-0.3970907507374041	0.3595637423633623	77.6056950352596
13	5.0	perception	478	diff_vonmises	-0.09322454585203957	-5.3413730243456925	2.1177158531660534	3.2438106209195174	0.4257301955161219	5.102620169432123	0.5434493623692851	-0.5769202323646853	1.1203695947339702	79.61708366844488
14	5.0	wm	478	diff_vonmises	-0.13546030841858503	-7.761303963925377	2.0676350754436257	0.7447524425643848	8.599228810237997e-15	2.3123855046027675	0.02396216735368939	-0.36175617202309657	0.38571833937678596	95.46901170734033
15	6.0	ltm	478	diff_vonmises	-0.3107643912707204	-17.80548804276444	0.7440057579838621	134.94690951096734	0.7265963089437596	136.55796995738555	-0.018271017861827943	-0.3512101809807149	0.33293916311888694	92.85169294129132
16	6.0	perception	478	diff_vonmises	0.3955244923735178	22.661884107056885	0.0002622940296478491	8353.569565533095	4.84056940149023e-34	8355.180187908896	0.09240130956982284	-0.6050326038978255	0.6974339134676484	175.16881463028415
17	6.0	wm	478	diff_vonmises	0.1630806542436617	9.343833208394054	0.9173999210215295	1.2067475348906744	1.2636715487026695e-14	3.0517081301204207	-0.09225859239473122	-0.4228821155750687	0.3306235231803375	131.82662323693177
18	7.0	ltm	478	diff_vonmises	-0.4958412028261073	-28.409608230626173	0.8710959124833656	104.84929297644172	0.8543004891251758	105.90998349621813	0.002816758037667455	-0.23716202928643781	0.23997878732410527	86.19653974268589
19	7.0	perception	478	diff_vonmises	-0.2315112726987423	-13.264618835340213	0.4142091866140085	121.53100329784165	0.39930850136385393	122.86885791260882	0.027557493204728445	-0.35820206271542254	0.385759555920151	127.99668057108133
20	7.0	wm	478	diff_vonmises	0.4613956610769579	26.43602406535824	2.6100422478292993	0.407269988554283	1.726560848237924e-22	1.509949594351078	0.005825322794469484	-0.23898488620785793	0.24481020900232742	85.01886347440447
0	1.0	ltm	479	diff_vonmises	0.05658154798953515	3.2418838981172926	2.795636872380585	0.5824360782147256	7.459807754545283e-25	3.304194196632335	-0.1595421828004307	-0.524512235346978	0.3649700525465473	82.23153137812992
1	1.0	perception	479	diff_vonmises	-0.07099679043641607	-4.067816450981407	12.393350875724904	0.6787981720454006	0.06540214659064784	3.513842285528096	0.3469318380907105	-0.5755690323187862	0.9225008704094967	38.015871565426465
2	1.0	wm	479	diff_vonmises	-0.04048823208040943	-2.319804818153645	2.6475059764124675	0.7721603770429804	0.053009192973271356	3.2664444789967853	-0.07720898019638855	-0.49713396308338553	0.419924982886997	79.84743621370075
3	2.0	ltm	479	diff_vonmises	0.09718669964897528	5.568387714691843	2.366027662688797	0.507041312826775	5.59487980510609e-38	1.85711730594872	-0.006313074572229294	-0.29302118654882264	0.28670811197659335	89.40531953394569
4	2.0	perception	479	diff_vonmises	0.00395124068364311	0.22638941501313628	6.526082621651028	1.361524712439459	0.38544055088371676	2.5416621340907612	0.7855069492456717	-0.42780942280596107	1.2133163720516327	50.325703023437995
5	2.0	wm	479	diff_vonmises	0.11977156528106259	6.862405196280508	2.907464855482264	0.9787801347186688	0.37896218492073014	2.0449984373805163	0.17086049714828444	-0.28038479241091624	0.4512452895592007	69.68112907579277
6	3.0	ltm	479	diff_vonmises	-0.27063083226466617	-15.506004494878278	1.6505531442298624	2.366672504284764	0.8339000550766883	3.221224888251186	0.08747324532242728	-0.22591132399439923	0.3133845693168265	75.28550714339877
7	3.0	perception	479	diff_vonmises	-0.054585300969170546	-3.1275073689848343	4.481696674645989	1.923808734270904	0.31432482950014323	2.6320076168197226	1.0134805775044535	-0.393974352878263	1.4074549303827166	61.03653002892608
8	3.0	wm	479	diff_vonmises	0.034323134046054325	1.9665707205006977	3.0472024907660122	0.7664704549687528	4.5424165181497e-14	1.276488653412566	0.30332754095443343	-0.2020171207571773	0.5053446617116107	78.70556690288603
9	4.0	ltm	479	diff_vonmises	-0.24099187356137683	-13.80781725201726	1.8183934526283057	0.7611662203312146	2.5481014268911793e-14	2.3081770454150865	0.003283569337568293	-0.3575960678964047	0.360879637233973	101.33019551831764
10	4.0	perception	479	diff_vonmises	-0.05199317728466327	-2.978989621886667	2.213080557409484	3.320515569413156	0.37094775526488954	4.70285327757658	0.7722761597765064	-0.544895458981843	1.3171716187583495	80.87191041158565
11	4.0	wm	479	diff_vonmises	-0.1460274439927041	-8.366756233864951	0.684032609417351	181.5882414539081	0.6721729579192293	183.06446436916033	-0.0022260262084117244	-0.329731968673876	0.3275059424654643	97.62017014149284
12	5.0	ltm	479	diff_vonmises	-0.052463510400609634	-3.005937724395631	0.7863264843952062	144.8764673805634	0.7694601764476822	146.16740088725422	0.0821764452431637	-0.3185913153664277	0.4007677606095914	93.96520919725552
13	5.0	perception	479	diff_vonmises	-0.026590470859371208	-1.5235217555075733	0.9120302189194485	427.8368947596162	0.9001893593957642	429.20322499596574	0.5234956501399779	-0.4999099156530846	1.0234055657930625	92.59692011949033
14	5.0	wm	479	diff_vonmises	-0.045973812495029714	-2.6341054240910116	0.9489000144322572	1.8674039799886557	8.790425208543874e-18	2.9399106833061497	0.15210932355740114	-0.37495934843929973	0.5270686719967008	130.73012968605775
15	6.0	ltm	479	diff_vonmises	-0.4783778934066549	-27.409034304560496	0.6898049678367573	203.3175628627453	0.6749732482789397	204.87904977354285	0.13736855521923275	-0.41104490610661415	0.5484134613258469	101.61407919267711
16	6.0	perception	479	diff_vonmises	0.015784922638096967	0.9044094471034656	0.7754505604958535	271.9925693687059	0.7595682223456315	273.4264779551782	0.40055314601455905	-0.4864042049882755	0.8869573510028346	99.6198824488946
17	6.0	wm	479	diff_vonmises	0.06502638156565374	3.7257372207192576	0.6560824301353362	2.8399703936854954	7.185912088226412e-19	4.309439075450806	0.09851613092401224	-0.4746803236988286	0.5731964546228409	144.17032027289088
18	7.0	ltm	479	diff_vonmises	-0.16091374088453156	-9.219678218345381	0.9570020760641978	171.61499561475583	0.941266067381531	173.43207896519135	-0.08780809320901994	-0.38325280040952947	0.2954447072005095	78.67086798562138
19	7.0	perception	479	diff_vonmises	-0.04265820613851824	-2.4441351733361563	0.38599818559116833	154.97979674199598	0.36512635573756747	156.8402357408687	0.17742496635984395	-0.6033405129855574	0.7807654793454013	134.30248914140486
20	7.0	wm	479	diff_vonmises	0.3307180161308723	18.948746533238463	0.750732606278762	117.48658960624536	0.730370331385206	118.98650934759866	0.021095906249207985	-0.3418989901161016	0.36299489636530957	94.08959669352791
0	1.0	ltm	480	diff_vonmises	-0.1820580652846794	-10.431158767129338	1.6563388903039868	0.6972312154998644	1.1212874615967438e-18	2.9258572210592195	-0.14491977085274366	-0.45398248970791294	0.3090627188551693	105.73497724409897
1	1.0	perception	480	diff_vonmises	-0.059276781688401545	-3.3963094138637704	11.810464040754661	0.8292595945361397	0.005368719635679267	3.2230797613253994	0.6083613142480412	-0.5135091628022911	1.1218704770503323	39.41735456085675
2	1.0	wm	480	diff_vonmises	-0.14661739328471457	-8.400557838423882	5.76513826612158	0.3781147989240286	0.010256429480459415	2.5881552283690197	-0.06262253509878868	-0.41087062504045946	0.3482480899416708	56.275510659154435
3	2.0	ltm	480	diff_vonmises	-0.011960102435822061	-0.6852633921167396	2.829253243542072	0.5511742734910291	0.060289048787784766	1.7881919368731631	0.047052915390070116	-0.2709608179397291	0.3180137333297992	77.92856311101173
4	2.0	perception	480	diff_vonmises	-0.004201349195278298	-0.2407195771501312	6.027322667580515	1.577707507343049	0.34011095731489716	2.671670883511906	0.9296552020334264	-0.43562939544937884	1.3652845974828054	52.70132911757838
5	2.0	wm	480	diff_vonmises	0.005018120020405274	0.28751709825932475	2.275383882907142	1.1847724785461329	0.3401529326880324	2.473099252147863	0.12298806434009857	-0.3156331095437612	0.4386211738838598	76.98235367831566
6	3.0	ltm	480	diff_vonmises	-0.16515482397401693	-9.462674379937196	1.128399784253661	159.84983949576838	1.1130418910868216	160.80474514381655	0.11181720278542429	-0.25612146969477223	0.3679386724801965	79.03018792234431
7	3.0	perception	480	diff_vonmises	-0.03367639190935241	-1.9295151256344052	3.34982820117242	2.9273343844716466	0.5520436941947191	3.561817382273794	1.126920652704513	-0.45623477928037315	1.5831554319848862	67.05098305602027
8	3.0	wm	480	diff_vonmises	-0.04711522021172605	-2.699503268961376	1.1542799838960485	9.440583532769578	0.8605548644747566	10.246166083253168	0.26963277876741554	-0.2748554087256774	0.5444881874930929	87.31207286632247
9	4.0	ltm	480	diff_vonmises	-0.2765352265594323	-15.8443013685495	3.13230929415462	0.529090867457956	1.2399972595105526e-24	2.282283028445956	-0.008108757175830095	-0.36256100081588305	0.35445224364005296	77.5921580468439
10	4.0	perception	480	diff_vonmises	-0.08467751548573939	-4.851664256986538	2.2614813523167254	3.153433891640101	0.22150288264702162	4.437548771031882	0.8807320173763539	-0.5656716080192026	1.4464036253955563	83.97690045417207
11	4.0	wm	480	diff_vonmises	-0.23499270198402453	-13.464090040060132	0.6912251884792905	244.95908426422085	0.6801869152611336	246.7951083591843	-0.0005237373263184963	-0.4105563757674666	0.4100326384411481	97.1246524651929
12	5.0	ltm	480	diff_vonmises	-0.029727100262460168	-1.7032373822012095	0.8797146855081868	81.3566654209272	0.8531877688588699	82.06682367376901	0.18874176603283388	-0.22933759023247546	0.41807935626530934	93.39785834019503
13	5.0	perception	480	diff_vonmises	-0.07094923921026762	-4.065091966412429	1.2216083012966583	10.66733275584736	0.7671801722953682	11.235534546509719	0.7457004465957078	-0.4033162528601135	1.1490166994558213	91.98476189367551
14	5.0	wm	480	diff_vonmises	0.03532308503485845	2.0238636918791073	0.37399060366445125	132.78071786490707	0.3599377893395407	133.6558175425442	0.1464429993558234	-0.3290122266973068	0.4754552260531302	136.3618396040755
15	6.0	ltm	480	diff_vonmises	-0.45729468069889484	-26.201055197829263	0.5856451363539088	141.42828430150004	0.5745118069515945	142.11310150042826	0.118849590825711	-0.22177414603200063	0.34062373685771163	113.04644144488212
16	6.0	perception	480	diff_vonmises	-0.01954162479935985	-1.1196526258315036	0.37970108771399225	230.64390076918326	0.3695443463643192	231.15522122289417	0.31346651484703614	-0.34752320486152755	0.6609897197085637	137.69054509142654
17	6.0	wm	480	diff_vonmises	0.054650578378985334	3.1312474890647675	0.101669526068476	13.954386915615041	4.195873657175233e-22	14.669432994135825	0.11753146374813239	-0.3336766626507588	0.4512081263988912	174.0485618254814
18	7.0	ltm	480	diff_vonmises	-0.23756261608405327	-13.61133527170294	0.9293834479363681	83.27029445280908	0.9054185491910938	84.31328700089206	0.04203876060298484	-0.24750437246170343	0.28954313306468826	85.24999551320704
19	7.0	perception	480	diff_vonmises	-0.023986696520571442	-1.3743364750898803	0.622565154629045	225.86087766755807	0.6071362183295064	227.0869103458453	0.3332201118913076	-0.45095414423286684	0.7841742561241745	111.54694152985928
20	7.0	wm	480	diff_vonmises	0.19149790508035602	10.972021746701246	0.7899111968287094	120.29460837376192	0.7743671339919127	121.43978967456958	0.014966895043535544	-0.25985791430540317	0.2748248093489387	91.35581975535587
0	1.0	ltm	481	diff_vonmises	-0.29161905308627994	-16.708540967445344	0.0003151617858601418	3777.0966943014014	3.0375223394579097e-30	3777.9264064961735	0.057417170198618805	-0.3214929111461515	0.37891008134477033	177.56415209577642
1	1.0	perception	481	diff_vonmises	-0.17344769066975577	-9.937820641667633	13.698160815212168	0.75676214669563	0.2818425077393155	1.720048747417115	0.7510398452342473	-0.31358851244586655	1.0646283576801139	35.83160641268478
2	1.0	wm	481	diff_vonmises	-0.05723422219094896	-3.279279375255375	1.0991253084642947	46.20517724770722	1.0568054864809224	46.6306125790408	0.2170844403985157	-0.17103527885456504	0.38811971925308075	85.60214324031665
3	2.0	ltm	481	diff_vonmises	0.03802437789538707	2.1786363720162187	4.323694445002153	0.36495531390395136	6.976380618299542e-16	0.8598550033631036	0.15586014620367397	-0.13679877650742042	0.2926589227110944	65.7802376131749
4	2.0	perception	481	diff_vonmises	0.04006611580729552	2.2956193372404265	4.101337977988181	1.6923744505668186	0.7320652267822991	2.0821677460678476	0.7137625616127787	-0.2886723066178251	1.002434868230604	60.01805633348053
5	2.0	wm	481	diff_vonmises	0.7302482865429438	41.84014481557067	4.468185637086341	0.5793804283686704	1.1695570817255935e-19	0.46213479882227537	0.39945980217933963	-0.07348882628024273	0.47294862845958235	64.66674398550492
6	3.0	ltm	481	diff_vonmises	-0.20607858800302883	-11.807433340588872	5.864720892135696	0.36618311955668303	0.3299956042192567	0.7335961130732354	0.18744618246331324	-0.11993184527055425	0.30737802773386746	53.03787752780414
7	3.0	perception	481	diff_vonmises	-0.11773201488232989	-6.7455475663288995	3.848887005976473	1.5209657206450087	1.6843730947183526e-18	2.154571682445548	0.802063436013179	-0.3423910632267979	1.144454499239977	69.82867868426413
8	3.0	wm	481	diff_vonmises	0.5454353652717753	31.251144427249155	2.3357136118747115	1.1780824744581457	34.07850233758273	0.1835283520999551	0.5271819558083289	0.006242493797762232	0.5209394620105667	48.66433958038721
9	4.0	ltm	481	diff_vonmises	-0.2960920993459426	-16.964827639690792	7.16429122297167	0.6171736497164537	0.6585602843918363	1.2220806548011889	0.30857832864097134	-0.22580444802956887	0.5343827766705402	46.44568556759572
10	4.0	perception	481	diff_vonmises	-0.09045664142599721	-5.182783782637885	0.9441523703503352	240.42577738028064	0.9247179520266341	241.62665915114232	0.495024793289744	-0.4498810481374953	0.9449058414272393	91.3971134340444
11	4.0	wm	481	diff_vonmises	-0.6965506128044162	-39.909410330944205	1.7879735209367371	124.72034421657216	1.7688005940207727	125.21876780323068	0.15443348716269867	-0.18755716324547222	0.3419906504081709	64.23871265374879
12	5.0	ltm	481	diff_vonmises	-0.5004354320044385	-28.67283817266041	1.471627273536833	108.79415917779588	1.4525981439663538	108.92616354465483	0.30889286545050254	-0.1333197698051034	0.44221263525560595	76.34106874639996
13	5.0	perception	481	diff_vonmises	-0.11381666299987958	-6.521214428155895	2.6859681935591255	1.544060253592431	6.900177416118831e-13	1.798082743751937	0.6626975558697099	-0.281765301451772	0.9444628573214819	83.91495508981541
14	5.0	wm	481	diff_vonmises	-0.24433506445920017	-13.99936798056909	0.43874592001798307	84.27219043274643	0.423077316217817	83.7255285772611	0.37087673322397663	-0.10340669312363104	0.4742834263476077	136.5033795985372
15	6.0	ltm	481	diff_vonmises	-0.43313369612441827	-24.81673275283107	1.8282824551474273	0.8991364600049327	2.910186475686775e-25	1.5178297031776873	0.19770093137852943	-0.2302274449934468	0.4279283763719762	100.81453912342909
16	6.0	perception	481	diff_vonmises	0.029971310427150313	1.7172295939521496	0.7875824706669865	146.78424918407046	0.7714181943262217	147.40210743540248	0.26885458457389433	-0.250638253493916	0.5194928380678103	100.46971182770986
17	6.0	wm	481	diff_vonmises	-0.8389124280465635	-48.06614150814044	1.6339919655960975	14.411243540094677	1.5391528899295617	14.873013424114964	0.031535256555058844	-0.13311313355082	0.16464839010587884	64.68040666524527
18	7.0	ltm	481	diff_vonmises	0.05466495512563997	3.1320712159712074	1.114515745627016	130.75609956197047	1.0864224829315412	132.1407369092956	0.19200843898821773	-0.37985425900256686	0.5718626979907846	80.29282733779138
19	7.0	perception	481	diff_vonmises	-0.4395403190855474	-25.183805209435373	1.0150813582213691	142.3449888987604	0.9776847671875847	143.12417263996085	0.7443319751499402	-0.4471662338528084	1.1914982090027486	90.98218600565156
20	7.0	wm	481	diff_vonmises	-0.658276643243152	-37.71647340987159	0.00018166853952021234	10932.533640114189	1.4321911026991919e-30	10931.354681791681	0.5037447509960202	-0.1284419504888774	0.6321867014848976	167.99796631237223
0	1.0	ltm	482	diff_vonmises	-0.7612471455685416	-43.61624860745844	0.5980183125341401	10.756510374569146	0.44859680856907785	12.615478948424341	-0.13962047500386987	-0.36401278976248275	0.22439231475861288	104.21367080288769
1	1.0	perception	482	diff_vonmises	-0.03603134299111078	-2.064443883578927	7.457633251239345	0.9631076365575472	1.1155560800910143e-20	3.2401326595342423	0.5147670148867662	-0.5156827859443479	1.0304498008311143	49.79849089040516
2	1.0	wm	482	diff_vonmises	-0.05429343774052274	-3.110784837788253	5.029356781529771	0.4582136632522871	0.1323099098797794	2.4370114808304533	-0.042227188759413115	-0.3900830902856619	0.3478559015262488	56.781169258467855
3	2.0	ltm	482	diff_vonmises	-0.06731593025310557	-3.8569186974999647	1.8929507471765525	0.7272079155784817	0.4909961660337705	1.3421890361099402	0.03394674689125382	-0.14671772136344274	0.18066446825469656	77.72582739578584
4	2.0	perception	482	diff_vonmises	0.04672198357954256	2.6769724695873234	5.571456499572679	2.232233881239043	0.868070199743433	2.5994092090193366	1.226837566451267	-0.4165911808212146	1.6434287472724816	52.33853044809118
5	2.0	wm	482	diff_vonmises	0.13690161949666296	7.843885005664693	1.7498273933365547	1.3723316016634437	0.4896834832325953	2.206206316697689	0.1126926297851838	-0.2202912838133283	0.3329839135985121	81.93489921837761
6	3.0	ltm	482	diff_vonmises	-0.15215683630544447	-8.717944544364906	1.697507215456077	97.33892330328422	1.6827588327192782	97.80932251746034	0.0223622013092708	-0.1378776456157098	0.1602398469249806	62.069449544977005
7	3.0	perception	482	diff_vonmises	-0.0029358985604315815	-0.1682145965912637	6.072563169034986	1.796645768754407	0.7463914782414636	1.8604973782108944	1.1807134141196332	-0.3037216457861358	1.484435059905769	51.47062083390793
8	3.0	wm	482	diff_vonmises	0.26267392457323285	15.050107266183966	1.0664558002262965	89.07856903462	1.048239055021097	89.42992491767468	0.1820208160143899	-0.14254538936879158	0.3245662053831815	86.507863548501
9	4.0	ltm	482	diff_vonmises	-0.8074638268698647	-46.264269389125445	1.0579275952954579	176.53876347502342	1.0403993812589616	178.01797518890262	0.06589200122486005	-0.3589320235108211	0.42482402473568115	79.60501741362619
10	4.0	perception	482	diff_vonmises	0.04219494878571098	2.417592482191897	2.871587817087529	2.343139643023113	0.2712285975122244	2.8813186136849596	0.9060663544359198	-0.3794442959487049	1.2855106503846248	75.44125756292436
11	4.0	wm	482	diff_vonmises	0.036607768746488814	2.0974706465647293	0.5972752065116926	156.27914210811528	0.5808005075992204	158.2057357719849	-0.017855019328685273	-0.4329045979262087	0.41504957859752345	104.69355917082797
12	5.0	ltm	482	diff_vonmises	-0.007130110131923248	-0.4085252180226687	1.2657343712466573	82.41796203107987	1.2393938771712776	82.91853824989519	0.20431140531131575	-0.18378090002800818	0.38809230533932393	78.44182637143203
13	5.0	perception	482	diff_vonmises	-0.13509291494583534	-7.740253868516165	1.1658426327968692	171.05120796407627	1.1410147795821797	171.13676850492325	0.7581642556531634	-0.287978089532567	1.0461423451857303	87.27975124162026
14	5.0	wm	482	diff_vonmises	0.3892030019359976	22.29968938475467	0.3878943073299942	121.28617295563348	0.37250494439283166	121.66606759916499	0.2561169632900011	-0.2728093942187826	0.5289263575087837	135.74038977417382
15	6.0	ltm	482	diff_vonmises	-0.6405299104473746	-36.69966052052714	0.8086366208206737	12.887350901395472	0.7351095541433479	12.759003537752701	0.21830345331634504	-0.07349890200677445	0.2918023553231195	108.6602966860136
16	6.0	perception	482	diff_vonmises	-0.09915073983505739	-5.6809189281484365	0.5329392406093272	99.35461280970408	0.5125910294307681	99.27780146655988	0.39825995135909764	-0.2166045976184332	0.6148645489775308	126.06137347214747
17	6.0	wm	482	diff_vonmises	0.14405099927708276	8.253514293218915	0.17588089862492987	9.9620473560569	1.1304177113401631e-09	9.991696720225546	0.2856299667648865	-0.27065552342130506	0.5562854901861916	169.34359571634167
18	7.0	ltm	482	diff_vonmises	0.24281493501541287	13.91227097912651	1.3445810955115591	78.79235941471634	1.3224558757175036	79.73818098765955	-0.06476587491282615	-0.22057378810511885	0.1558079131922927	65.0950474102049
19	7.0	perception	482	diff_vonmises	-0.08500542781836774	-4.870452249696433	4.698972580818706	1.0237058996610302	3.7482710086623384e-35	1.9180908971021395	0.5534256998387675	-0.3052024646465758	0.8586281644853433	63.03298449542106
20	7.0	wm	482	diff_vonmises	-0.010917214222475541	-0.6255102989880451	0.37493043698993556	103.5501554696498	0.3641991393643062	104.67374152966698	-0.046613476325923386	-0.25983133078788967	0.21321785446196628	129.6010212903857
0	1.0	ltm	483	diff_vonmises	-0.11345500776239974	-6.500493109409499	1.05677301429359	0.989403774375869	3.611572443032408e-24	3.4216023901040304	-0.1958911304644238	-0.5024386814832017	0.3065475510187779	126.17090417430015
1	1.0	perception	483	diff_vonmises	-0.08077064113489589	-4.627816845595293	9.940642221090426	0.961328825498567	0.15448096866835972	3.4552315201959947	0.5549971973261015	-0.5823130314620307	1.1373102287881323	41.93806706111735
2	1.0	wm	483	diff_vonmises	-0.12813871994931716	-7.34180784530468	4.511138654752261	0.43322006173949645	0.0013537732408789725	2.657241094312319	-0.06799644744969024	-0.4223512739632653	0.354354826513575	64.2449450980966
3	2.0	ltm	483	diff_vonmises	-0.04245943268071347	-2.432746293124721	3.0727643430824174	0.5123685818303457	1.6942555062612056e-18	2.0583708278976003	0.012556652547335567	-0.3268707942222031	0.3394274467695387	78.37576157706252
4	2.0	perception	483	diff_vonmises	-0.024151633853350774	-1.3837866881422807	6.5347365153376815	1.369769385125808	0.24491575450184638	2.8082609633177076	0.8052952663210098	-0.4602372850747499	1.2655325513957596	51.1187840993239
5	2.0	wm	483	diff_vonmises	0.17536105329305832	10.047448244660949	3.0053529161411263	0.6359281832170479	0.04561938748030155	2.0010093913634233	0.08376693409236163	-0.30653324964304973	0.39030018373541137	76.55173654520499
6	3.0	ltm	483	diff_vonmises	-0.1824367879128391	-10.45285797532899	2.1371367056678587	0.9573888920017113	0.2108234758453443	2.0084461649945804	0.12368083250928263	-0.2649373186707262	0.3886181511800088	83.31497612167338
7	3.0	perception	483	diff_vonmises	-0.07544194784214592	-4.322505209601049	2.769170285946028	3.2240639155051745	0.5162384659792913	4.094025999358229	0.9941203826354528	-0.4845701522434261	1.4786905348788788	72.49240668230826
8	3.0	wm	483	diff_vonmises	-0.060120721068471154	-3.4446635785066464	0.9844123597087698	126.56537101100851	0.9633255000240436	127.17054252425932	0.303332205003656	-0.24516999636879255	0.5485022013724485	90.14280276914803
9	4.0	ltm	483	diff_vonmises	-0.16323976102199195	-9.3529493552843	4.909862140088715	0.48168263193327354	0.0982909131833138	2.3324279240915033	0.005041784878097255	-0.3695533195295014	0.37459510440759863	58.49218830879383
10	4.0	perception	483	diff_vonmises	-0.13295451115583806	-7.617732356454542	1.9448850238518305	3.734318588826536	0.3525431937592166	5.31576559686501	0.727018480681076	-0.5881262392707962	1.3151447199518722	85.28321051371387
11	4.0	wm	483	diff_vonmises	-0.40412718507375595	-23.154782091228533	0.8119354564492599	204.10795194895422	0.7995329017837973	205.85515718284628	-0.04696222301843278	-0.3714270805514239	0.32446485753299115	87.37881808571255
12	5.0	ltm	483	diff_vonmises	-0.16643553949376053	-9.536053973975408	0.7400411626558332	131.51042259481255	0.7237554066571972	132.4220900923848	0.14511230567281785	-0.2648658634824237	0.40997816915524155	99.94338789272857
13	5.0	perception	483	diff_vonmises	-0.07212746989460239	-4.132599611917621	2.1703014412737742	2.62593918232735	0.2270466737283975	3.5508679417069944	0.7228551914543266	-0.4432537543059795	1.1661089457603062	85.55415830848924
14	5.0	wm	483	diff_vonmises	-0.20865324856138856	-11.95495052426168	0.48377899549491565	125.80536633325701	0.46814960333855743	126.70191577742408	0.15017781365840932	-0.3110711337495946	0.46124894740800393	123.8801919382172
15	6.0	ltm	483	diff_vonmises	-0.3706207256492522	-21.235003379778128	0.5409034721330603	116.02114076442295	0.5256220482880523	117.15017615848944	0.04898178724281621	-0.29341002315963394	0.34239181040245015	113.81317142025881
16	6.0	perception	483	diff_vonmises	0.09326568121890691	5.343729907255914	0.2677300453232525	147.78289094013212	0.2524372510458448	148.69386710363872	0.2158929049059708	-0.4187150072790473	0.6346079121850181	149.2266395367598
17	6.0	wm	483	diff_vonmises	0.11865539857190535	6.798453554612792	0.07626255671400656	13.224825010989452	2.694671858950856e-10	14.302227523030163	-0.007977816011844219	-0.3288546687053431	0.32087685269349886	175.1440936065901
18	7.0	ltm	483	diff_vonmises	-0.3313547152434961	-18.98522670521153	0.7746927621679071	104.94423392833072	0.753696902840281	106.07424594474598	0.08759128454678944	-0.2858783083308527	0.37346959287764214	95.37108486224531
19	7.0	perception	483	diff_vonmises	-0.13753885507703362	-7.880395914975502	0.5852975071378724	310.554483008668	0.5739087654325153	311.97898294944207	0.29675307552682284	-0.48900823906177493	0.7857613145885978	113.90907861694822
20	7.0	wm	483	diff_vonmises	0.24947370290226575	14.293790275800424	0.9173175881715905	110.21285601350361	0.8960650097907525	111.2999920770569	0.09592265918123388	-0.27607581182911467	0.37199847101034855	87.51583508699375
0	1.0	ltm	484	diff_vonmises	-0.1651399976541667	-9.461824894384067	0.00197872722044836	421.2148942182745	2.0445820375090983e-22	423.71500722381006	-0.26519331290737114	-0.5304861506130862	0.2652928377057151	179.11053067132315
1	1.0	perception	484	diff_vonmises	-0.03796508765403532	-2.1752392914204517	9.034242344914427	1.1142366061408981	0.11681419043043884	3.762579169186416	0.6457720297549715	-0.6199134040469934	1.265685433801965	44.20104405871399
2	1.0	wm	484	diff_vonmises	-0.05973643784367076	-3.4226457715879066	5.473695986717605	0.34874306447652326	5.186113898219254e-17	2.792285810058848	-0.12715312691277236	-0.44440050265366	0.3172473757408876	58.30421401576601
3	2.0	ltm	484	diff_vonmises	-0.06096122759401428	-3.492821055073472	3.309084528182904	0.3897826697092794	2.106553550734655e-12	1.7501174459224575	-0.008726407565534944	-0.27817931733849294	0.269452909772958	75.46273328318293
4	2.0	perception	484	diff_vonmises	-0.02815584140913623	-1.6132108813831825	7.568224092734683	1.423306194641552	0.23000753004909688	2.6715732711502826	1.006117726491134	-0.44388677981613056	1.4500045063072646	47.94564958175974
5	2.0	wm	484	diff_vonmises	0.023884652657722417	1.3684897924234194	2.373285818596542	0.9284368853323673	0.18736473843582235	2.3668852931349895	0.08026066353386524	-0.3290254207687873	0.40928608430265256	79.41576054462953
6	3.0	ltm	484	diff_vonmises	-0.1575648089189395	-9.027798550840505	1.5806456401011635	1.1751253599694624	0.46835483763782476	1.8738789670570235	0.07414377079261764	-0.17848277148171204	0.2526265422743297	85.00010176736396
7	3.0	perception	484	diff_vonmises	-0.0544057432344762	-3.1172194686079187	3.1030258510188324	2.983111880438678	0.6773801978764147	3.286120559871559	1.0707313500874294	-0.3794413407237775	1.450172690811207	68.39075191488485
8	3.0	wm	484	diff_vonmises	-0.08350822430786817	-4.784668807472636	1.2044299810205643	153.34594040912805	1.1873677915819196	153.88217673064014	0.28153847450933966	-0.2172458994014992	0.49878437391083885	81.19101571291745
9	4.0	ltm	484	diff_vonmises	-0.17567255214491773	-10.065295814195663	5.249963054455527	0.3591714920242023	0.06488033232035248	2.080604000145227	-0.033325425591494706	-0.33036423599946	0.2970388104079653	57.23328091516521
10	4.0	perception	484	diff_vonmises	-0.10414723219916877	-5.9671968529813615	3.2753249215941262	2.020257613498039	1.5660917893237867e-17	3.0398769938574444	0.906782648468754	-0.481824029449006	1.38860667791776	75.85070831691272
11	4.0	wm	484	diff_vonmises	-0.2669104833001677	-15.29284420089665	0.7130470310714347	195.94547056344013	0.7005179103421283	197.72546342386937	-0.038627635839233676	-0.3814133375318356	0.3427857016926019	94.0477494576715
12	5.0	ltm	484	diff_vonmises	-0.04459875365929815	-2.55532035622142	0.9071730333663436	6.335033262272667	0.6250084834677183	7.235323703783014	0.0974226597152914	-0.2392921279413449	0.3367147876566363	96.54447795763971
13	5.0	perception	484	diff_vonmises	-0.08100854294264254	-4.641447615117708	2.5145470285143645	2.2709299563102996	0.14750461226098543	2.971407199504674	0.7977923761606187	-0.40651480149418506	1.2043071776548038	82.34090227151955
14	5.0	wm	484	diff_vonmises	-0.07523900952293136	-4.310877700408576	0.42724724001094605	70.18279187645703	0.40177962788267785	71.2152890253631	0.09294947365762596	-0.32231816810693203	0.415267641764558	129.4881986133006
15	6.0	ltm	484	diff_vonmises	-0.3943722096530778	-22.59586317036982	0.4301869676621696	123.6040010124149	0.41904628276998857	124.43019116421345	0.06248770043365326	-0.24835791329358514	0.3108456137272384	127.13932169097045
16	6.0	perception	484	diff_vonmises	0.14452393121782037	8.28061129742011	0.06412716169842171	249.27120329660897	0.05558257740877584	249.8382037995995	0.2534880118177725	-0.41384143790461536	0.6673294497223878	172.43713497610003
17	6.0	wm	484	diff_vonmises	0.0653762563857557	3.7457835712689986	0.2470953869884105	5.073444590666037	6.857757535133247e-10	5.965841661175918	0.0687000304234171	-0.3283267439568287	0.3970267743802458	165.8001059290107
18	7.0	ltm	484	diff_vonmises	-0.43150230707957804	-24.723261045817846	1.4957231862977463	0.6699079389076315	8.865092408916453e-13	1.4505638436149224	0.05880169715646322	-0.2163183860472781	0.2751200832037413	109.94158504387508
19	7.0	perception	484	diff_vonmises	-0.05705735766794175	-3.2691457845414673	0.675686524748427	266.08645544950815	0.6639804552471338	267.1387914422128	0.3005274471282746	-0.3792016458544687	0.6797290929827433	106.92798555529237
20	7.0	wm	484	diff_vonmises	0.18741414385013286	10.738039463670306	0.6929418956926907	87.86002797113481	0.673591672368984	88.79514198614984	0.06238786053754808	-0.23695953678144832	0.2993473973189964	100.74846055048349
0	1.0	ltm	485	diff_vonmises	-0.007831345938387973	-0.4487030701765501	5.838693467160139	0.4049661920396392	0.03439086693598151	3.5580678653154107	-0.20476399812559615	-0.5664586013960226	0.3616946032704264	54.79372378142642
1	1.0	perception	485	diff_vonmises	-0.09424429131532965	-5.399800135569826	13.479179928175432	0.6224902953362396	0.01931285565532121	3.767653675810527	0.2914200150589573	-0.6043519625394417	0.895771977598399	36.74937431628558
2	1.0	wm	485	diff_vonmises	-0.17553949134831057	-10.057671992131425	3.7041655177153925	0.671687082930671	0.12962343214430744	3.6676829464921825	-0.16662408501219395	-0.5714558347683696	0.40483174975617564	64.50139503378483
3	2.0	ltm	485	diff_vonmises	-0.02902920358816944	-1.6632508482281345	2.500798080321032	0.6306114687095474	1.6511353561092957e-19	2.4639548971794842	-0.020438914015013743	-0.3896498062806303	0.36921089226561654	86.981291039378
4	2.0	perception	485	diff_vonmises	0.015808521458954585	0.9057615599400924	5.881920488190765	1.5861607316315023	0.3836464800328705	3.395120427855018	0.7343481347558837	-0.5636721434019645	1.298020278157848	52.32660198655495
5	2.0	wm	485	diff_vonmises	0.12762701712470995	7.3124894330897625	2.895251063628418	0.842560867507498	0.1722482659686264	2.5679119066391993	0.058781115169783626	-0.37641447895863356	0.4351955941284172	72.8437654626947
6	3.0	ltm	485	diff_vonmises	-0.19152751187728473	-10.973718091210161	1.0215535127772373	178.52055009498372	1.0016648938803052	180.2850241484946	0.06747982843703682	-0.4220696202120777	0.48954944864911454	80.89681343077879
7	3.0	perception	485	diff_vonmises	-0.04469570350276512	-2.5608751730765316	3.331857965197398	3.0599377395926983	0.49903937333119647	4.734569273448805	0.9590152387020279	-0.6391250263686946	1.5981402650707226	66.31265133145345
8	3.0	wm	485	diff_vonmises	0.0858498194512699	4.918832326517887	1.9971909745976502	1.3862483989878323	0.15403670465747812	2.7292186160046152	0.21082336096108478	-0.3644475500382692	0.5752709109993539	88.52452759679787
9	4.0	ltm	485	diff_vonmises	-0.32320690375686884	-18.518391494759577	0.6116883435986232	208.55542463370546	0.5976091480310582	211.3463054816917	-0.18389401694710727	-0.5518144123388353	0.36792039539172805	97.4533646528318
10	4.0	perception	485	diff_vonmises	-0.06961974724036125	-3.98891768764026	0.9521864893373563	429.2602532739381	0.936062481605348	431.5088671424674	0.5738208078622336	-0.7072762601071432	1.2810970679693767	89.17944006148545
11	4.0	wm	485	diff_vonmises	-0.19471536227492864	-11.156368464714259	0.5697425518892945	113.81954244444249	0.5473233464653634	116.63670031827182	-0.23931577803455184	-0.5360099518464789	0.2966941738119271	98.55772777032838
12	5.0	ltm	485	diff_vonmises	-0.1207525679681364	-6.91861250994083	1.135971367790875	4.560597422635954	0.528110893094697	5.7818916301207315	0.21784582587068413	-0.3550887452626154	0.5729345711332996	94.90990106344627
13	5.0	perception	485	diff_vonmises	-0.08570308589439352	-4.910425112995926	0.9908182590367896	381.55371202182863	0.9759319756099666	382.9051376296083	0.6203425976815993	-0.5250576876115218	1.145400285293121	89.39409450242388
14	5.0	wm	485	diff_vonmises	-0.04128549661407292	-2.365484711088029	0.41985324508973243	115.1704055741129	0.4004961170554518	116.29806937363665	0.15242502098134736	-0.38676324083470526	0.5391882618160526	130.91209945420633
15	6.0	ltm	485	diff_vonmises	-0.4329249493234049	-24.804772442146145	0.7747389147633744	191.3231903111602	0.7628937822077355	192.51819270492294	0.07835556033562341	-0.29624038878568015	0.37459594912130356	94.62375873943492
16	6.0	perception	485	diff_vonmises	-0.07274938253213395	-4.1682325812740295	0.488640788051273	220.15708020179062	0.47579669368842853	221.43816466662156	0.21669127811792777	-0.44369814322221046	0.6603894213401382	123.3661004241292
17	6.0	wm	485	diff_vonmises	0.1487775889983677	8.524327935738459	0.4844665726599732	2.775821766078825	4.8376064614915024e-15	4.065226908222374	0.029840402550406542	-0.3901394228348264	0.41997982538523293	152.57121812698017
18	7.0	ltm	485	diff_vonmises	-0.3416442983727877	-19.574776391468955	1.002864986961806	113.42037987173124	0.9767587583776359	115.2143055615499	-0.044516413833186164	-0.39359469457048846	0.3490782807373023	78.64870876641679
19	7.0	perception	485	diff_vonmises	-0.048848634112331715	-2.7988205696153896	0.47320785422454203	262.20972446848793	0.4595178390611223	264.4310156760487	0.13586301705678494	-0.6287213909698472	0.7645844080266322	122.4733462995653
20	7.0	wm	485	diff_vonmises	0.2587941914035976	14.827814929926953	0.9500542914455495	170.16590314921996	0.9334851429042295	172.18590593161574	-0.12904338868910514	-0.4170278720984939	0.28798448340938876	77.63332165434363
0	1.0	ltm	486	diff_vonmises	-0.12743058384986508	-7.301234635485219	0.04789132047236526	20.82154714279852	7.435681989438899e-11	22.627913880545584	-0.1269205524103585	-0.4442650288187804	0.3173444764084219	176.81516535417433
1	1.0	perception	486	diff_vonmises	-0.05178501797998675	-2.9670629722623243	10.847340030462387	0.9444350468595218	0.05568921378066541	2.9392747886762516	0.7317675044697729	-0.4762340347976791	1.208001539267452	40.83654673410069
2	1.0	wm	486	diff_vonmises	-0.04434742053435188	-2.5409200289101648	3.89704082203001	0.43312202382719883	5.074346918607002e-15	2.129333641582603	-0.010640840966955667	-0.33875864554563795	0.3281178045786823	69.38905720804757
3	2.0	ltm	486	diff_vonmises	-0.005729396249768023	-0.3282702242697894	3.717661059787885	0.35579448017467014	1.0175413558315189e-11	1.2717975627788332	0.06035977430300507	-0.2022578037273103	0.2626175780303154	71.08477354703444
4	2.0	perception	486	diff_vonmises	-0.014740051923018357	-0.8445427649926449	6.848115155764722	1.437311055329493	0.31863065204389923	2.122643782144109	1.0179673808819873	-0.3511104371923951	1.3690778180743823	50.06909843361015
5	2.0	wm	486	diff_vonmises	0.04355574636529648	2.495560440273764	2.3770287838454567	1.0002932057302845	0.35471023759058223	1.8721441966895336	0.1604402106142876	-0.23685406075969218	0.39729427137397977	76.54499745456587
6	3.0	ltm	486	diff_vonmises	-0.19350186538378567	-11.08684021439952	1.2687337082388623	82.53854625016376	1.24997400849824	83.02069177982456	0.09615190318967848	-0.14487669981707363	0.2410286030067521	75.85682456965435
7	3.0	perception	486	diff_vonmises	-0.04097913471657884	-2.3479314673579985	3.929740233514403	2.208597465326563	0.48646941430988927	2.281658978482651	1.1244038999830308	-0.31092598375435965	1.4353298837373905	64.08868416214366
8	3.0	wm	486	diff_vonmises	-0.049136913876999644	-2.8153377834498867	1.2033406175536683	95.3024351406099	1.1803390906049172	95.6001240063218	0.29362687631229534	-0.167790509170187	0.46141738548248235	83.11876678096024
9	4.0	ltm	486	diff_vonmises	-0.24917924442040323	-14.276919047547873	6.084542720389403	0.34577169940048447	1.4754243616240606e-28	1.4740835302355209	0.09801204608690431	-0.23460595435827133	0.33261800044517564	55.23556380632064
10	4.0	perception	486	diff_vonmises	-0.08327357220843278	-4.771224232521104	3.239360440508898	2.0960289945608492	0.0009099697537626324	2.8450988954991567	0.9805585544045012	-0.4501975260188513	1.4307560804233526	76.25799581205479
11	4.0	wm	486	diff_vonmises	-0.24822588959269734	-14.222295839541903	0.7811642934095511	187.52989879680172	0.7691378116322125	188.69516473902098	0.083720628462153	-0.29155109167150073	0.37527172013365373	94.45267441696848
12	5.0	ltm	486	diff_vonmises	0.009910875460816647	0.5678513351845688	0.9528054793240848	58.340825349167865	0.9217635488683926	58.98577173535476	0.13337278887308202	-0.1914260738519209	0.3247988627250029	88.75612637476587
13	5.0	perception	486	diff_vonmises	-0.059924379195544136	-3.4334140178462342	1.9239324061097545	2.8206198360572605	0.29739019400709166	3.225583973191361	0.7451479745972099	-0.3546970430011074	1.0998450175983172	89.30415771904515
14	5.0	wm	486	diff_vonmises	0.03529373148562136	2.022181857394093	0.4002824473413105	75.63871269885621	0.37830956074117816	76.33667384595972	0.14767120225121033	-0.27903726528348205	0.4267084675346924	134.26320552865764
15	6.0	ltm	486	diff_vonmises	-0.4432262619346643	-25.394994178216198	0.46889403508918687	136.38854129968618	0.45730426438059096	137.03177298279203	0.14002617922129446	-0.24557734068007875	0.3856035199013732	125.23893110593673
16	6.0	perception	486	diff_vonmises	0.08224421052276128	4.712246152339655	0.38424660306502384	202.40378300096404	0.37220540686320264	202.75715676746702	0.36608108656849225	-0.341587079972264	0.7076681665407563	137.8083639828354
17	6.0	wm	486	diff_vonmises	0.05041504492688664	2.8885692982730364	0.1597010144152461	9.296133325992086	1.1665652930386924e-12	9.904727758850708	0.1483189593517431	-0.32324338346424475	0.47156234281598786	170.76786187915218
18	7.0	ltm	486	diff_vonmises	-0.14341028487949123	-8.216804062363654	0.8799836947501913	88.06113097024803	0.8605613629779605	88.92229112250429	0.05470969640363421	-0.21107443447308682	0.26578413087672104	88.5720821496535
19	7.0	perception	486	diff_vonmises	-0.06032775583121929	-3.456525796624607	0.6734454144783127	169.1693993519561	0.6544572180003685	170.05899959260842	0.3656186579543359	-0.37773918613395985	0.7433578440882957	108.7892589360781
20	7.0	wm	486	diff_vonmises	0.18622146006062298	10.66970371623772	0.6251734881663326	113.31310316651452	0.6115713533795167	114.10119777302499	0.08119932074695058	-0.2194073849435796	0.30060670569053016	107.54959647513607
0	1.0	ltm	487	diff_vonmises	0.05346832633017297	3.0635094363471245	4.579294539874522	0.5231413272836862	9.835362771712711e-18	4.17453280011453	-0.23161071581759002	-0.6643519526047004	0.43274123678711035	63.868960872066054
1	1.0	perception	487	diff_vonmises	-0.026444925092699627	-1.515182597351296	11.028528412240865	0.7569209477365251	0.01010797354252822	4.377323239308776	0.286820532786512	-0.6983707973374303	0.9851913301239423	40.723131806321675
2	1.0	wm	487	diff_vonmises	-0.14271844301468323	-8.177164443419695	4.515371886580744	0.5464234889539431	0.04101467498800073	4.262183045155734	-0.2578169210260798	-0.6733030898738396	0.4154861688477598	61.70805791033857
3	2.0	ltm	487	diff_vonmises	0.0683274173669721	3.9148726401563856	2.2243059120641284	0.6431709556775852	3.7425216605195836e-17	2.5385148441663814	-0.05031940001238344	-0.3998807438785799	0.3495613438661965	92.16217047238737
4	2.0	perception	487	diff_vonmises	0.00136612328325237	0.07827309842491591	5.96193854801151	1.566046833658306	0.3060874667936001	3.293036023688262	0.7951408201185883	-0.5390612653061652	1.3342020854247534	52.73682534715576
5	2.0	wm	487	diff_vonmises	-0.01486317617999205	-0.8515972652729217	2.4636038487537313	1.557282198260567	0.4001223304880591	3.4397655069718898	0.12484263006712015	-0.4492037050028932	0.5740463350700133	72.5776952530228
6	3.0	ltm	487	diff_vonmises	-0.18588400116693612	-10.65036874587031	0.9011447453813453	96.65626242933921	0.8703727555476768	98.21681495962015	0.07200486535968054	-0.37285488288076785	0.4448597482404484	87.08273126105549
7	3.0	perception	487	diff_vonmises	-0.040446926388454554	-2.3174381763347633	3.2118725220723436	3.0946879699819045	0.4717127909510633	4.321624337101356	1.0632188469063015	-0.56698544086061	1.6302042877669116	68.34834522037971
8	3.0	wm	487	diff_vonmises	-0.06247500189536217	-3.579553933676071	3.086172533204896	1.0186079481470307	0.0061988714601362346	2.407360014340917	0.2923983586749193	-0.3793573364975576	0.6717556951724769	77.88245575783756
9	4.0	ltm	487	diff_vonmises	-0.25330168298590455	-14.513117378653064	0.34538981851682493	144.7349169263265	0.3291808772004434	147.38253679580632	-0.14610557275111802	-0.5972773237891111	0.4511717510379931	132.78862825735348
10	4.0	perception	487	diff_vonmises	-0.06142851534911739	-3.519594671259023	1.7023228570811273	5.300902986163357	0.4348086629709295	7.161089788588793	0.7994092215513968	-0.6853779502349959	1.4847871717863927	87.47130493498963
11	4.0	wm	487	diff_vonmises	-0.11491311190007208	-6.584036322588687	0.5293000763763688	155.64091015034708	0.5099316651723594	158.36833110500254	-0.11296975041928192	-0.5823115281035225	0.46934177768424057	109.01230155366495
12	5.0	ltm	487	diff_vonmises	-0.03954956098554421	-2.266022926066944	0.630575505330556	142.5341679450533	0.6120224778001746	143.89029466004882	0.13826412431841106	-0.3762020609564818	0.5144661852748929	107.24703172843587
13	5.0	perception	487	diff_vonmises	-0.05490590347890101	-3.145876539693692	0.9516611118329276	413.75929247930725	0.9375266586053757	415.1281708823124	0.6594712510309648	-0.5480939876960917	1.2075652387270566	91.42593427207845
14	5.0	wm	487	diff_vonmises	-0.020926453514426555	-1.1989974665533505	0.33221890946754146	160.45570031419848	0.31788273953408064	162.0208579266813	0.08058374951706071	-0.4757644347419294	0.5563481842589901	139.68555488156076
15	6.0	ltm	487	diff_vonmises	-0.4813959228732325	-27.581954655441514	0.6432186987253197	281.0243985101622	0.6346922973318833	282.42177041985525	0.0747591263043148	-0.350948540489437	0.4257076667937518	103.82157960626049
16	6.0	perception	487	diff_vonmises	-0.036492226451780636	-2.0908505607226937	0.4526507553744853	301.45203508052674	0.44176139912460133	302.68657197271256	0.3167721641662524	-0.5077113916129044	0.8244835557791568	128.3162726889832
17	6.0	wm	487	diff_vonmises	0.05791925818019221	3.3185290462535826	0.4932761098304023	3.8847540191438465	9.221678302440232e-20	5.343256225712537	0.10322541919039963	-0.49482932661208784	0.5980547458024874	152.4635113457801
18	7.0	ltm	487	diff_vonmises	-0.6933010679832308	-39.72322512735169	5.910794713406745	0.36866153449421996	2.0191832985443585e-53	1.9781579970601157	0.03444407358124174	-0.3148310579035007	0.34927513148474243	56.05738661525075
19	7.0	perception	487	diff_vonmises	0.0861513508480463	4.936108802943859	0.47377974254574085	307.37344881963134	0.46169202166198875	309.40789470019877	0.20328665001804325	-0.6244781150151866	0.8277647650332298	123.48270079832392
20	7.0	wm	487	diff_vonmises	0.14909325304614357	8.542414153420031	0.7844324221611454	192.6410042564538	0.77096387278861	194.5610481566088	-0.0769061387025829	-0.39866797532534193	0.32176183662275903	87.94414990798188
0	1.0	ltm	488	diff_vonmises	-0.5287348059942871	-30.294272865141032	0.14722371782588412	30.366064705427082	0.11685306400452934	33.37921597253017	-0.3813878962345578	-0.5617153646842894	0.18032746844973158	154.73621340248616
1	1.0	perception	488	diff_vonmises	-0.0710347332880754	-4.069990416244178	9.646300966311534	0.8055171237537128	0.03623976655519818	3.995477564618218	0.32532361126536014	-0.6420188443571723	0.9673424556225324	43.264176508485946
2	1.0	wm	488	diff_vonmises	-0.09902936710327721	-5.673964782869459	4.062988026250408	0.5796780610141312	0.12154386800003118	3.4721518907727615	-0.1722551894930464	-0.5467065164280644	0.37445132693501804	62.01234693184506
3	2.0	ltm	488	diff_vonmises	-0.0687299933779753	-3.9379385465200807	2.6880034845047427	0.44437860429380466	1.4351871501535582e-17	1.986524343510892	-0.04293586420522055	-0.3149011356296257	0.27196527142440513	83.87799421561795
4	2.0	perception	488	diff_vonmises	0.016987811798596653	0.9733299192221323	6.272613946660744	1.7091024637871404	0.4399427550118134	3.335465683372419	0.8849582522211998	-0.564813672551331	1.4497719247725307	50.70399110185673
5	2.0	wm	488	diff_vonmises	0.22972118755610182	13.162054511697841	2.9287844918923334	0.6616271308944132	0.08569840033915012	2.2052939964970677	0.04573938264366545	-0.3319691222057055	0.37770850484937096	75.43104825541357
6	3.0	ltm	488	diff_vonmises	-0.1622376535618379	-9.2955328271989	1.0426898869671235	108.61427108144682	1.021513410863163	109.80400037435085	0.02243484703815568	-0.27853228405257546	0.30096713109073114	79.24123249405488
7	3.0	perception	488	diff_vonmises	-0.0433733114421023	-2.485107689138944	3.9723841319841933	2.3898868818071266	0.5305516065247463	3.4014026325825797	0.9715748275226421	-0.48544154347194923	1.4570163709945914	61.93075270019037
8	3.0	wm	488	diff_vonmises	0.15061843784252174	8.62980080523002	0.9668133832399015	169.20666460285426	0.9523117234398639	169.97224657970585	0.21096784655083667	-0.2461663633538862	0.45713420990472287	88.71180322425752
9	4.0	ltm	488	diff_vonmises	-0.5850207274752638	-33.51921861200574	0.8696815438838028	211.9379361607557	0.854256224017553	214.4998525622404	-0.18087861323168397	-0.5146065150588868	0.3337279018272028	80.49149106671206
10	4.0	perception	488	diff_vonmises	-0.038712386325313076	-2.218056351320401	2.1157312096190433	3.0656199811302454	0.3507339251080119	4.66735339470145	0.6128438250970891	-0.5440472610027659	1.1568910860998551	82.04472398487115
11	4.0	wm	488	diff_vonmises	-0.20577328367835387	-11.789940691317906	0.6141468618702637	159.04967517743057	0.5985470426236311	161.8081013488439	-0.26186896737416276	-0.5137949955563528	0.25192602818219	92.41728137884802
12	5.0	ltm	488	diff_vonmises	-0.1501542298328124	-8.603203645457507	0.8752300186269295	104.04883996244536	0.8492166416387336	105.17749165816645	0.16294794953591918	-0.3110414111408506	0.4739893606767698	91.4146340507692
13	5.0	perception	488	diff_vonmises	-0.12062443560324652	-6.91127106621361	1.108721670553771	138.45539375224436	1.0679424725684616	139.53318468442495	0.6764223755198273	-0.4778080964747726	1.1542304719946	85.82737627496724
14	5.0	wm	488	diff_vonmises	0.028033352954111978	1.6061928098712148	0.41901405088382726	45.96087777637428	0.37678949480988594	46.85884884007239	0.15472896885824916	-0.3330823823943785	0.48781135125262765	132.87053786265295
15	6.0	ltm	488	diff_vonmises	-0.45863399619289746	-26.27779232307209	0.715891292201903	132.21907407464684	0.7038198776687734	133.0006932380142	0.08134850048256936	-0.2095073963370293	0.29085589681959867	100.05298229108708
16	6.0	perception	488	diff_vonmises	0.0811077199769498	4.647130040608138	0.1410640407287922	162.6919786260289	0.12866292499438967	163.59355366279658	0.1786627449407696	-0.423754814157391	0.6024175590981606	163.9792764512465
17	6.0	wm	488	diff_vonmises	0.20080554717020108	11.505310355667692	0.43147599239595874	2.8193024380474276	6.204529149801455e-16	3.8293860980205094	0.05025417369220775	-0.3311112126923406	0.38136538638454837	155.0049876250348
18	7.0	ltm	488	diff_vonmises	-1.061939012255595	-60.844623502537	0.0001748219409046278	4803.491781365102	3.386269283303407e-34	4804.86261304189	-0.08451800846637525	-0.35181958413272696	0.2673015756663517	150.27965431010165
19	7.0	perception	488	diff_vonmises	-0.10744117119845607	-6.15592565561407	0.676019717284105	182.24302869995728	0.6556983372614996	183.9810213532445	0.2247078674575178	-0.4946768773317114	0.7193847447892292	104.22418630637675
20	7.0	wm	488	diff_vonmises	0.2479801237046305	14.208214491407388	0.8030875596550547	140.07888487473056	0.7860389075726695	141.78394760049406	-0.05712047591357816	-0.358306334008617	0.30118585809503884	87.50340008766565
0	1.0	ltm	489	diff_vonmises	-0.35081120983425	-20.100001729380846	0.0004695805724258714	1834.0092208316912	1.4636087170500012e-24	1835.1136976445641	-0.038700424539115375	-0.3128332823405344	0.27413285780141905	176.48451826570943
1	1.0	perception	489	diff_vonmises	-0.11049723198383055	-6.331025040551463	13.388561536911453	0.7387000587814508	0.04062593155664308	2.086153953031791	0.7220038652557907	-0.33740866556532445	1.059412530821115	36.871841054664884
2	1.0	wm	489	diff_vonmises	-0.05559512661551946	-3.185366116564698	3.318471605346713	0.48714829480253524	0.026248630525424737	1.3358219796585264	0.11956357209505455	-0.2075745103970483	0.32713808249210286	74.03305426698361
3	2.0	ltm	489	diff_vonmises	-0.08516518882737965	-4.879605881243567	6.576528787020989	0.25375140079278224	1.6770220859328306e-19	0.720536022347239	0.13959113849218974	-0.11467637645398097	0.2542675149461707	53.089355149624055
4	2.0	perception	489	diff_vonmises	0.013683370871040114	0.7839994004228475	6.387312820020163	1.5049495131603314	0.6663011117532983	1.7527635543508853	0.997587858632104	-0.2947604292513242	1.2923482878834283	50.38382456437307
5	2.0	wm	489	diff_vonmises	0.3746739834592527	21.467237945569593	3.206099667844222	0.4397043834012879	2.049499906508174e-12	0.7344320286710122	0.18212205413270963	-0.11639758402583468	0.2985196381585443	76.66705211804228
6	3.0	ltm	489	diff_vonmises	-0.1880127679874459	-10.772338100253004	2.0978414943336094	75.886476843127	2.076949631677605	76.15204791977888	0.10186128659029237	-0.11505417410499774	0.2169154606952901	59.42879684258719
7	3.0	perception	489	diff_vonmises	-0.04218654969183172	-2.417111249560881	5.5665730013763	1.582346970881676	0.43277138605208976	1.5972117216909196	1.0782024094017004	-0.24814270341382386	1.3263451128155244	55.18641734157558
8	3.0	wm	489	diff_vonmises	0.22558817713299853	12.925250457770444	1.266098199045715	83.02744383482457	1.251637237691773	82.88761053606858	0.274104191895006	-0.06538156136612638	0.3394857532611324	86.5331934092473
9	4.0	ltm	489	diff_vonmises	-0.39007472960031325	-22.349635700804754	17.821404510169952	0.240495756989788	3.172802969995984e-14	0.9151014897431131	0.2563396508572263	-0.14564292552336913	0.4019825763805954	32.07807529441595
10	4.0	perception	489	diff_vonmises	-0.047918795551787165	-2.7455447444676673	2.9646205888312855	2.044838960071006	0.19067400090334952	2.724944241816935	0.8101562022671298	-0.377769293394683	1.1879254956618128	75.4386651440077
11	4.0	wm	489	diff_vonmises	-0.32373773376237364	-18.54880581371391	1.0224974437110466	135.98753059815482	1.009696736903347	136.69275257872883	0.0865325826264467	-0.18821456016640603	0.2747471427928527	83.36239045454045
12	5.0	ltm	489	diff_vonmises	-0.08570805303833977	-4.9107097093802805	1.4473716099342895	109.27863343164262	1.429259940743285	109.66161028611702	0.18949840353482728	-0.15463804447947638	0.34413644801430365	73.47865899763804
13	5.0	perception	489	diff_vonmises	-0.07340936641336371	-4.206046872215158	1.0223073314256685	124.01525651026039	0.9915125155355271	124.27433089331831	0.6338895076276501	-0.29446903091210785	0.9283585385397579	92.27936096820937
14	5.0	wm	489	diff_vonmises	0.11686149607249342	6.695670512538519	1.148962611669037	1.3353588819682465	4.265744564565813e-15	1.4029756808715725	0.27034975393105204	-0.1736943134304872	0.44404406736153923	122.51861231645448
15	6.0	ltm	489	diff_vonmises	-0.4889969631819863	-28.01746218504192	0.6786085984511673	114.21465114544019	0.6638950853891985	114.5559083085106	0.2250748880714184	-0.18661506770828495	0.41168995577970335	109.70395755607282
16	6.0	perception	489	diff_vonmises	-0.002493315442675535	-0.1428564518601007	0.7782664449060234	146.6329839901318	0.7608376543496714	146.91854076032695	0.4034338075687032	-0.242316959673607	0.6457507672423102	104.4020976680513
17	6.0	wm	489	diff_vonmises	0.20063877985308548	11.49575529223625	0.00027781254171538783	4567.306900245596	4.018695691222586e-32	4567.5869426543095	0.15738089663398114	-0.2464931167121449	0.40387401334612605	178.62930939036426
18	7.0	ltm	489	diff_vonmises	0.12225756405232624	7.004842433748624	1.3606653832628797	147.8496780828297	1.3420330029822394	148.95108620395308	0.05003572886969465	-0.28829667336187015	0.3383324022315648	69.72825372049604
19	7.0	perception	489	diff_vonmises	-0.21494912059703125	-12.315677420258444	2.2458531713683634	1.4598086622784296	2.923861289466686e-12	2.259491534354944	0.4477897459733865	-0.3505645389537159	0.7983542849271024	91.69689670510172
20	7.0	wm	489	diff_vonmises	0.4289475960548848	24.57688688622738	1.0221297349077312	30.98266605016465	0.9653698853636918	31.509424226868827	0.15627452692000432	-0.17285767951000164	0.32913220643000596	87.38224893867377
0	1.0	ltm	490	diff_vonmises	-0.061865814966384075	-3.5446500937110903	7.737770853769831	0.17001353056570337	5.785123059040696e-20	3.3772773038521557	-0.3521369081545305	-0.5375103418372857	0.18537343368275522	48.88261989380163
1	1.0	perception	490	diff_vonmises	-0.06419965218507438	-3.6783691164125956	11.288827400209934	0.9115995032857732	0.13911420628230356	4.168901655017952	0.44872653807379104	-0.7053981405823916	1.1541246786561827	39.373989236678085
2	1.0	wm	490	diff_vonmises	-0.1055167001536663	-6.045661586952485	6.834825866808305	0.316243793816184	0.05413055369577511	3.3146483241800255	-0.23314404650378195	-0.5334556070194099	0.3003115605156279	50.016316669431404
3	2.0	ltm	490	diff_vonmises	-0.1768397804446955	-10.13217306950116	3.507999553521627	0.5299669790980922	8.235253145069129e-35	2.603271455608986	-0.03527373381641247	-0.4139833514224238	0.37870961760601135	73.22983489590271
4	2.0	perception	490	diff_vonmises	-0.040538542273320564	-2.3226873798739422	8.711165496532892	1.3255616389098697	0.21389129890407158	3.607523741043049	0.8338811169447505	-0.6124815534001871	1.4463626703449375	44.5428675796455
5	2.0	wm	490	diff_vonmises	-0.05965854410123329	-3.418182788895761	3.1896927077610937	0.6142130903449403	0.021787930185607825	2.9176135372874827	-0.058041270622518015	-0.4558032216728151	0.3977619510502971	74.99883022112124
6	3.0	ltm	490	diff_vonmises	-0.21308938869748062	-12.209122631388347	2.3299223660391064	0.8963631684521166	0.11072946437407176	2.3349901595989175	0.09286982729234838	-0.335207379738227	0.4280772070305754	83.2783758229949
7	3.0	perception	490	diff_vonmises	-0.07070608364766233	-4.051160178910016	1.9397587554317983	12.041682237937884	1.227830783476943	13.253491250786272	1.0053178774043445	-0.6225656446030163	1.6278835220073609	71.4329456103834
8	3.0	wm	490	diff_vonmises	-0.08872567541371393	-5.083606735653462	1.2447481024190945	270.7827410317845	1.2295723026425533	272.1072493307112	0.24538275647982744	-0.3906221678003554	0.6360049242801828	76.34337650264612
9	4.0	ltm	490	diff_vonmises	-0.09273192761762054	-5.313148078602296	1.4488489382341136	2.43545124330711	0.5210147004765864	5.240545942681124	-0.28065710658440524	-0.5421468823103253	0.26148977572592	74.07590413212804
10	4.0	perception	490	diff_vonmises	-0.17340447023923594	-9.935344293410107	1.9744936946565799	4.216367281497881	0.46744073046272794	6.2330587100659685	0.6582375424225291	-0.6541836902395509	1.3124212326620799	81.14353294502592
11	4.0	wm	490	diff_vonmises	-0.3385409628334325	-19.396968362650945	0.5973664639760742	158.35650407241843	0.5837224213675628	161.10365419417622	-0.3125178837419895	-0.49365814586234436	0.18114026212035483	89.07090318116401
12	5.0	ltm	490	diff_vonmises	-0.02972444476903057	-1.7030852336351687	2.213753483507873	0.9607822597709413	0.05997007239361423	2.3409414445648933	0.1316038097320848	-0.3450043523141824	0.4766081620462672	88.30406978828555
13	5.0	perception	490	diff_vonmises	-0.09103947285254532	-5.2161775635466805	2.163781141610958	3.1214534280897737	0.3302848831782486	4.5976846405458796	0.6975297815316279	-0.543693668215375	1.241223449747003	82.22548447692
14	5.0	wm	490	diff_vonmises	-0.21860915373522463	-12.525381871954947	1.3035191370801285	1.4229433989427784	0.10625467420999676	2.9143042816799456	0.052086570199946336	-0.37411576262925017	0.4262023328291965	107.83533445839204
15	6.0	ltm	490	diff_vonmises	-0.30432179236714935	-17.436354316494207	0.6869488817679427	126.63658009198842	0.6729943601609545	127.88555542587189	-0.012501641705590316	-0.2743645413502893	0.261862899644699	96.89018683798137
16	6.0	perception	490	diff_vonmises	0.12337860372012163	7.069073275380047	0.00023467541224645062	7697.748434655533	3.429393988030207e-32	7698.924183568131	0.10039940032925188	-0.4746181673319825	0.5750175676612344	179.41944794976467
17	6.0	wm	490	diff_vonmises	0.10103194334820909	5.788703949857212	0.3330385538919369	2.643556978132182	5.2411822647387286e-15	3.9831024513483553	-0.06286656986985661	-0.3405622401237641	0.2776956702539075	160.90084115008554
18	7.0	ltm	490	diff_vonmises	-0.5012010047768612	-28.716702261430363	0.8948862204741271	96.68082843110827	0.8726700406385491	97.71397593685542	0.08132768495527287	-0.25887929004938215	0.340206975004655	88.39171528153466
19	7.0	perception	490	diff_vonmises	-0.1273613556660986	-7.297268152732044	0.5175868295013627	203.16541857100196	0.5045198959786674	204.7566214243271	0.10305114757538547	-0.44013481776898544	0.5431859653443709	117.360823361698
20	7.0	wm	490	diff_vonmises	0.22527280761204094	12.907181115232511	0.8778461951001968	105.79872005090948	0.8585919449077548	107.13412605735839	-0.03193729960220537	-0.2870519203234423	0.2551146207212369	84.24269495761914
0	1.0	ltm	491	diff_vonmises	-0.1787251867287108	-10.240198892242681	0.00042153173879713653	2758.4967344174606	1.345999822479199e-26	2759.6983930499964	-0.006167637381111035	-0.3762931812859165	0.37012554390480545	179.06404068094287
1	1.0	perception	491	diff_vonmises	-0.118744452763617	-6.803555983945818	10.34091207432897	0.9473809814116742	0.2565443999982653	2.299401179213748	0.7346235565845642	-0.40319287607179194	1.1378164326563562	40.997697767993515
2	1.0	wm	491	diff_vonmises	-0.018670214503364705	-1.0697244936467358	2.1230143250952023	0.9240723506237569	0.21325585213220394	1.7795651263552699	0.147579664089388	-0.23184602995783796	0.3794256940472259	84.14915752481889
3	2.0	ltm	491	diff_vonmises	0.01937568167602126	1.1101447852249835	4.419426114296436	0.3308736393631355	4.3817341629664826e-20	1.0083019070310821	0.10806058586646186	-0.16043729709470625	0.2684978829611681	65.04627564045288
4	2.0	perception	491	diff_vonmises	-0.002101014204675031	-0.12037924662491459	5.883466398094155	1.352151090742944	0.4216743014293668	1.847449839087911	0.8490352185357646	-0.29863098884561284	1.1476662073813775	53.21444833406818
5	2.0	wm	491	diff_vonmises	0.5499492773196768	31.509772536687166	3.157022094117131	0.5452627054569702	2.6334586452037472e-20	0.7841341827305717	0.24277581355815991	-0.12413311159141376	0.3669089251495737	77.23346772343484
6	3.0	ltm	491	diff_vonmises	-0.2085378540274733	-11.948338904489457	2.2685162835054236	0.8932822013099044	0.7856164508215318	1.244828320426201	0.1224793194248287	-0.1201734232222528	0.2426527426470815	71.49199695676316
7	3.0	perception	491	diff_vonmises	-0.08202670563324348	-4.699784040146826	4.36667647219186	1.5628968631016424	0.05573923381916325	1.8031834409279195	0.9569837392800538	-0.27775424604898136	1.2347379853290352	64.67995393529264
8	3.0	wm	491	diff_vonmises	0.19520028125686592	11.184152275785046	0.7883065078093405	79.75969631316445	0.7741450965995708	79.37651841385023	0.3301571277526705	-0.07253903064341127	0.40269615839608175	111.74758331322744
9	4.0	ltm	491	diff_vonmises	-0.29071503604837007	-16.65674460656519	12.658504830051664	0.3201633946535895	0.13041599583327892	1.0457981528808125	0.26085087396262563	-0.17658554494269563	0.43743641890532126	37.51436916223429
10	4.0	perception	491	diff_vonmises	-0.09434189784612208	-5.405392577837147	2.463631077742262	2.2893279995425733	0.205425850755181	3.1994864298572696	0.7187886249804126	-0.4218210995062993	1.140609724486712	81.38889249585023
11	4.0	wm	491	diff_vonmises	-0.5202257570052555	-29.806740270399462	1.2427219929861528	119.10531091841573	1.2264152625244118	119.73906424709703	0.11350730338659076	-0.18560919192933056	0.2991164953159213	76.32229065421221
12	5.0	ltm	491	diff_vonmises	-0.32341748134005793	-18.530456701536377	1.128605399425421	114.60981144779058	1.1136417145918822	115.03568395142032	0.1655972164144046	-0.1527593200090287	0.3183565364234333	82.97419509594805
13	5.0	perception	491	diff_vonmises	-0.07479018430060419	-4.285161909430209	2.402161919775037	1.8580660522380716	0.08116255902275088	2.23219593519602	0.6849100626319373	-0.3185517199484175	1.003461782580355	86.1867594483499
14	5.0	wm	491	diff_vonmises	-0.17961052520956225	-10.290925050635993	0.47794850239780223	108.21859822178847	0.4645426875619298	108.20866178062441	0.2722562402528723	-0.1667961870128689	0.43905242726574123	130.0833282628339
15	6.0	ltm	491	diff_vonmises	-0.4113210093063226	-23.566957858313543	1.1901951333637648	1.252083301295563	9.719058831613587e-20	2.001098183471573	0.15394106716113498	-0.2747754817554557	0.42871654891659067	120.0908232624931
16	6.0	perception	491	diff_vonmises	0.13469344328964702	7.717365828581474	0.543005113282431	156.89748978733985	0.5276797872149162	157.44432310707668	0.31394519226399353	-0.3107541011207893	0.6246992933847828	121.38277356459487
17	6.0	wm	491	diff_vonmises	0.34211222937856156	19.601586863203107	0.00015618383150967785	5394.604656144678	6.750418933899066e-30	5395.177277372868	0.0429624954231258	-0.22522302259346816	0.26818551801659396	176.32816968557475
18	7.0	ltm	491	diff_vonmises	-0.021258777634778347	-1.218038236079906	0.9492821033012593	121.9409590925552	0.9284149949241891	123.0370703304499	0.12390432817584696	-0.28803797177666013	0.4119422999525071	86.64171331036155
19	7.0	perception	491	diff_vonmises	-0.2789353232047586	-15.981816776750204	1.1290733791835876	5.3975000141140015	0.4372880934657201	6.237061337734347	0.5091175094855334	-0.40852190152607726	0.9176394110116106	102.43228152715925
20	7.0	wm	491	diff_vonmises	0.28712563440607397	16.451087041484296	1.0250851963615129	39.185794329224606	0.9760399764472741	39.263782447654165	0.3372127899875448	-0.14472136870452212	0.4819341586920669	93.17270578300014
0	1.0	ltm	492	diff_vonmises	-1.6285255286538542	-93.30763962117706	0.42221797707219066	61.73300411023695	0.3962383193158501	64.89596181464127	-0.4248342182403171	-0.5383499041067932	0.11351568586647609	93.38030965378178
1	1.0	perception	492	diff_vonmises	-0.039883377943023816	-2.285149228860423	9.15722988266128	1.064328093070774	0.1632635473552719	4.486853738409025	0.43108235187527777	-0.7567197930078021	1.1878021448830798	43.35306541282296
2	1.0	wm	492	diff_vonmises	0.03918571369890056	2.245176012154976	7.291323945491516	0.2874876224896844	0.051731795964677446	3.228364963306849	-0.2367434972708825	-0.5203761027088388	0.2836326054379563	48.514663808146
3	2.0	ltm	492	diff_vonmises	-0.15585985711524936	-8.930112008215842	124.66442802970725	0.34879076639598156	2.358833119483005e-59	1.7772100457165196	1.2690664054345766	-0.2828517636883574	1.551918169122934	12.095020479908953
4	2.0	perception	492	diff_vonmises	-0.03384574580904079	-1.9392183893306312	9.94925646815071	1.420190714612947	0.32319379385181707	3.3633370585501634	1.0429539336758684	-0.6029765827635423	1.6459305164394107	41.47795899856152
5	2.0	wm	492	diff_vonmises	0.045359340118807656	2.598898750306113	3.411065817837287	0.4765315639178665	2.0784114769425782e-19	2.3694294140791308	-0.04157981396795574	-0.3767408210413945	0.33516100707343877	74.29630098416152
6	3.0	ltm	492	diff_vonmises	-0.22904425415396046	-13.123269084743708	2.1991071763707786	0.4802885542984408	0.320344451505547	1.1131095880065085	0.024421533454217825	-0.14392727435850627	0.1683488078127241	77.3150822031813
7	3.0	perception	492	diff_vonmises	-0.05971077539402856	-3.4211754215314416	3.16061112963262	3.71716522126369	1.1590721322542565	4.134351643719379	0.9714273082324254	-0.4097055891554403	1.3811328973878658	62.88703593500864
8	3.0	wm	492	diff_vonmises	0.016845254824990195	0.9651620062943244	1.4836070909398498	161.1471124420813	1.468571080391996	161.69199108347166	0.19295910190145094	-0.1973709512325179	0.39033005313396885	71.44386885667234
9	4.0	ltm	492	diff_vonmises	-0.2990668049032462	-17.135265713418402	2.3641204570100434	0.8252211772799802	0.4484068024058523	3.0614900280547706	-0.25541521114183885	-0.4412348292433926	0.18581961810155373	63.41373105429744
10	4.0	perception	492	diff_vonmises	-0.10800874490291683	-6.188445233442277	3.642475652246577	1.7176005676324413	0.1904477526306695	2.911943440128416	0.6987329434045949	-0.4278037421938182	1.1265366855984131	67.97164104947649
11	4.0	wm	492	diff_vonmises	-0.07981620165988665	-4.57313149187658	0.60887189295997	130.7850215183407	0.5954130635923588	133.14026291165305	-0.29018641149475144	-0.41775787374952955	0.1275714622547781	85.27946127450761
12	5.0	ltm	492	diff_vonmises	0.02411386610857812	1.3816227557650804	2.3596711971236397	0.9056291032613263	0.23755517323201975	2.4331091351144716	0.03160691339362315	-0.33440267081643815	0.3660095842100613	77.11814885092147
13	5.0	perception	492	diff_vonmises	-0.11369954119409104	-6.514503842995261	2.412155807665307	2.7878022953141897	0.3687311134398296	4.22037842650857	0.6696224177807857	-0.5143297444133377	1.1839521621941234	77.74157657906167
14	5.0	wm	492	diff_vonmises	-0.07595576182834975	-4.351944582465322	1.6130352902359628	0.8725857979234152	2.911805283738406e-16	2.2185132207802263	0.0419120232210618	-0.33739968490139377	0.37931170812245557	107.04437306420202
15	6.0	ltm	492	diff_vonmises	-0.3372894705210544	-19.325263135058613	0.6638479174815713	126.13769715916114	0.6512213817553676	127.21796386987558	0.005489118579909302	-0.24539955110582135	0.25088866968573065	99.67119466782287
16	6.0	perception	492	diff_vonmises	0.3233538232835172	18.526809363564585	0.00014909069041901747	13408.857693444537	2.544613246817786e-29	13409.942789453868	0.14547496526984105	-0.4908480374656392	0.6363230027354803	176.69801105244926
17	6.0	wm	492	diff_vonmises	0.16722196602866843	9.581112895322729	0.682987459330062	1.5222278043854618	3.571918882979887e-18	2.887369884399834	-0.031318775802777976	-0.35028254686213645	0.31896377105935847	142.51884764324393
18	7.0	ltm	492	diff_vonmises	-0.5893159115891439	-33.7653145339627	0.6473242586865834	61.088767845102595	0.6269900592133473	61.90483774111403	0.014981054881051392	-0.1913818003852059	0.2063628552662573	102.17979027170905
19	7.0	perception	492	diff_vonmises	-0.14968014195393978	-8.576040410879797	0.5911868341434483	122.20848918368816	0.573895939384297	123.37309554485833	0.09569513504686	-0.31812618132419246	0.41382131637105246	110.25463988767066
20	7.0	wm	492	diff_vonmises	0.2923894937147718	16.752683963823333	0.6556111603512186	46.783145396941414	0.6252837960041199	47.797216815828286	-0.004683592766053124	-0.22681145593618446	0.22212786317013133	100.43046826153264
0	1.0	ltm	493	diff_vonmises	0.042863828429406926	2.455916462777889	5.775011601162071	0.2905081750429985	1.1204467557553417e-21	3.649728825850374	-0.3090186312655132	-0.5808697630873406	0.2718511318218274	56.73030553139304
1	1.0	perception	493	diff_vonmises	-0.07449730548589424	-4.268381189438535	9.976401947862113	0.8862583545602047	0.14587759746688012	4.2054132328398515	0.33162278679732893	-0.709153362353633	1.040776149150962	41.65607973324603
2	1.0	wm	493	diff_vonmises	-0.12288702465551875	-7.040907869681313	3.968384197074427	0.5167283800368182	0.0600409574205797	3.585683168946796	-0.2098752729879429	-0.562772667509009	0.3528973945210661	64.74483145072821
3	2.0	ltm	493	diff_vonmises	-0.1085715156855763	-6.220689624121938	2.2244948884699984	0.6256362525302055	2.3117495615618814e-29	2.670029226833169	-0.08088075802599681	-0.4209259391450299	0.3400451811190331	92.1562680599583
4	2.0	perception	493	diff_vonmises	-0.023110291729726253	-1.3241221794294054	7.454591123305852	1.342781674829479	0.25925626355303183	3.3852365627863463	0.7495553686207371	-0.5718104857407854	1.3213658543615225	47.67728873148087
5	2.0	wm	493	diff_vonmises	0.1424358730970699	8.160974379723092	3.3764646247945533	0.6360505051459678	0.05498189721177855	2.5439106370179374	0.01789436482178436	-0.3925046728723699	0.41039903769415426	71.49836822023306
6	3.0	ltm	493	diff_vonmises	-0.23353807536821392	-13.380746074206787	2.4229374075500036	0.7937187159600662	0.07647007908645252	2.2129461192514817	0.0795808722720377	-0.32646225629183384	0.40604312856387154	83.29662436346592
7	3.0	perception	493	diff_vonmises	-0.08116799081524136	-4.65058330526996	2.7701908441703953	3.600457273972755	0.6293445518121878	4.873028302446988	0.9314605626961299	-0.5645457220930538	1.4960062847891837	70.16641157495312
8	3.0	wm	493	diff_vonmises	-0.03023250302816572	-1.7321948276303767	1.0671143410349966	209.56275896759794	1.051712449707137	210.55478866106026	0.2584027901257855	-0.31195690056032177	0.5703596906861073	84.0459382021588
9	4.0	ltm	493	diff_vonmises	-0.13000370996395536	-7.44866390197749	2.337003056180716	0.8526840332315732	0.21665117949941548	3.4466945943926324	-0.19044313969889837	-0.4956617880376545	0.3052186483387561	74.03858090746198
10	4.0	perception	493	diff_vonmises	-0.1327292229045881	-7.604824290484037	1.7627352293388134	4.697686289683765	0.49693913744407525	6.686459482486849	0.5985941275082665	-0.6365454604414177	1.2351395879496843	83.7657218335246
11	4.0	wm	493	diff_vonmises	-0.32697471951675805	-18.734271435784105	0.6431785594031917	185.874798600241	0.6308052652275705	188.34522504468848	-0.23376156967995598	-0.4614262969166383	0.2276647272366823	90.13802865789866
12	5.0	ltm	493	diff_vonmises	-0.14848738441135245	-8.507700437707147	1.4272550113806686	1.7236493622722475	0.20993153444340815	3.198434938208233	0.10337681893538464	-0.3706583046638134	0.474035123599198	97.78405344286067
13	5.0	perception	493	diff_vonmises	-0.08271833069403238	-4.739411237135509	1.7831880341609367	4.193462704208885	0.466566199331623	5.781406400205833	0.6273439126634064	-0.5594606964178106	1.186804609081217	84.90713069415642
14	5.0	wm	493	diff_vonmises	-0.2176048985992878	-12.467842291111431	0.4989679873145788	173.15159527163303	0.4859177181697305	174.48305225682415	0.09679781078964567	-0.3795193676059494	0.47631717839559506	119.73753695372443
15	6.0	ltm	493	diff_vonmises	-0.3577163636364817	-20.495637899137435	0.68179994981566	176.02077426514296	0.6689543346241125	177.5704321374587	-0.001389336479469705	-0.3467104538954402	0.3453211174159705	97.87447367725471
16	6.0	perception	493	diff_vonmises	0.1376459175673329	7.886530143813811	0.3623839089488365	5.730259980151368	1.0502608840009223e-22	7.20313512477623	0.12191674407456454	-0.5319870327135496	0.6539037767881142	159.1118684780575
17	6.0	wm	493	diff_vonmises	0.15196948720973433	8.707210231885123	0.5712537534645016	1.836816442545103	2.884897292959847e-15	3.430423307122697	-0.06817385773970835	-0.3935413198843276	0.32536746214461926	148.10235148200246
18	7.0	ltm	493	diff_vonmises	-0.474453820333612	-27.184201478974206	0.8160527249502987	85.61578292324667	0.7872129374352371	87.04684398880794	0.040476103630211924	-0.33270952298862966	0.3731856266188416	90.96301936460928
19	7.0	perception	493	diff_vonmises	-0.1446907927203957	-8.29017175728089	0.4849196994303219	285.7413112065023	0.4737381957009631	287.6789651916464	0.1265570162067604	-0.5485473806961423	0.6751043969029027	121.04626446825777
20	7.0	wm	493	diff_vonmises	0.27740795132228857	15.894304814137719	0.8878004831669872	129.86615240027223	0.8673207049953037	131.49757378812964	-0.009296338469027887	-0.36070420307706286	0.35140786460803497	84.94067929290628
0	1.0	ltm	494	diff_vonmises	-0.33449352437452573	-19.165067221116654	1.2856552626521813	0.5664423293540863	2.7386165336901563e-23	3.727291453441175	-0.369555788804517	-0.5761210736308838	0.20656528482636682	117.03995950439422
1	1.0	perception	494	diff_vonmises	-0.012845888161523619	-0.7360151757523717	7.349280391418826	0.8952085901628744	4.437381369880435e-15	4.321027859875233	0.26276085629649115	-0.68771255003601	0.9504734063325011	50.1746261829785
2	1.0	wm	494	diff_vonmises	-0.05137032201402599	-2.943302643631672	3.801122685357027	0.6585953195474572	0.11444754876440023	3.8708846370337286	-0.19609841399352496	-0.6052417257966604	0.4091433118031354	64.08820807873641
3	2.0	ltm	494	diff_vonmises	0.11425218925113108	6.546168244219761	1.643464889093397	0.5148983273951554	0.04282267618096489	1.7636880095261902	-0.057102972543395164	-0.25999993883613853	0.20289696629274337	100.89111405187253
4	2.0	perception	494	diff_vonmises	0.033567522008397	1.923277339793653	5.8538237435598335	1.908917683504398	0.5429190583414597	3.1828344364204373	0.9885248269428325	-0.5318052367752273	1.5203300637180597	51.9579102880854
5	2.0	wm	494	diff_vonmises	0.19871498184406375	11.385529785683634	2.3922621933568005	0.947548124654691	0.2533862697876407	2.254777238574789	0.0890917424608193	-0.30527462621505647	0.39436636867587577	77.26176829629946
6	3.0	ltm	494	diff_vonmises	-0.17483857357810323	-10.017512362112823	1.1194813974437847	100.75150216147433	1.10316712485309	101.59196626201731	0.0037995419642555817	-0.19674574459194183	0.2005452865561974	75.60231473722115
7	3.0	perception	494	diff_vonmises	-0.02859058120197815	-1.6381196366994162	5.265972909964008	1.7603226549646036	0.4196440763252636	2.3801118045048253	1.017182525732188	-0.372609032961951	1.3897915586941392	55.97573178918077
8	3.0	wm	494	diff_vonmises	0.1930486768377416	11.060874423387526	0.941128390371558	118.9504617296527	0.9247710395248365	119.49688878735103	0.19098847717925338	-0.19164264882144977	0.38263112600070315	90.88296565300462
9	4.0	ltm	494	diff_vonmises	-0.6939133377978058	-39.7583056036501	0.8073534337723703	216.07441558159675	0.7929087101930361	218.39495008738217	-0.1054436876895295	-0.47866047061843275	0.37321678292890326	86.17003920678208
10	4.0	perception	494	diff_vonmises	0.02467811135083866	1.413951626756946	2.554598485124949	2.4824051405077707	0.2702306607826053	3.6333936150502604	0.7375505613945452	-0.4701605079342202	1.2077110693287654	78.39961831944831
11	4.0	wm	494	diff_vonmises	0.03175594725601156	1.81948175220951	0.67764409443824	6.975348730842488	0.35793873785386954	9.670773091698054	-0.17752594509672837	-0.5427430460135146	0.3652171009167863	107.45186186474771
12	5.0	ltm	494	diff_vonmises	-0.12336299731702872	-7.068179094349444	0.8690963492140967	125.15019961152261	0.8489175987461967	126.25760527209457	0.13515669221622062	-0.2958017149337753	0.4309584071499959	91.02583325105547
13	5.0	perception	494	diff_vonmises	-0.1207724791345199	-6.919753335739787	1.109428050614287	234.22196488902844	1.0862626232986672	235.1414002760565	0.686985549103241	-0.44631335807979156	1.1332989071830326	85.95394687877544
14	5.0	wm	494	diff_vonmises	0.16634619925653366	9.530935155441611	0.5172864128951888	5.24247388270314	0.1596330046722421	6.1168182724237266	0.17568446248508018	-0.3589038586336801	0.5345883211187603	140.56358672973738
15	6.0	ltm	494	diff_vonmises	-0.5731148200533741	-32.83706036545797	0.69309191458559	170.96567281608478	0.6837657785527876	171.52974591229784	0.1449734548001942	-0.19312769605770264	0.3381011508578968	105.02494698166029
16	6.0	perception	494	diff_vonmises	0.04822499391799234	2.763088618545025	0.2565984155348512	168.79485870641903	0.24227588078386975	169.48295726553982	0.2884943289098416	-0.416453372122497	0.7049477010323386	151.04990817325353
17	6.0	wm	494	diff_vonmises	0.1563215696522886	8.956566187936469	0.56212445816204	3.1396754056945375	1.597281964642883e-13	3.992813355293256	0.17582037413549378	-0.371888631540711	0.5477090056762048	148.54095843823285
18	7.0	ltm	494	diff_vonmises	-1.1323486879621116	-64.8788007574052	0.00020475869592952747	3567.7651594120152	3.9050149378305304e-24	3569.145309308978	-0.10338437678421997	-0.33591907653885755	0.23253469975463759	146.54842172647207
19	7.0	perception	494	diff_vonmises	-0.03168515783714225	-1.8154258172741147	2.19786021134062	1.5014597745160612	2.7913176856639443e-13	3.119524708836366	0.3233155471440398	-0.4863793766194881	0.8096949237635279	92.70980767623965
20	7.0	wm	494	diff_vonmises	0.10530511372084583	6.033538577349643	0.554649789102281	145.2494281965182	0.540641816602161	147.0164128311557	-0.06659755638266063	-0.3769467729860754	0.31034921660341475	106.31628213298822
0	1.0	ltm	495	diff_vonmises	-0.12673860101943502	-7.261586939806059	0.00043165235536577417	2434.854553048641	8.225875267377254e-27	2435.847294059255	0.0092902138530917	-0.3252533914470632	0.3345436053001549	179.5165081393435
1	1.0	perception	495	diff_vonmises	-0.09832533455923492	-5.633626689455977	13.453056570531627	0.7630347761013414	0.11652533312841576	2.01087095183573	0.7470958973068618	-0.33748577949861297	1.0845816768054748	36.55034188479041
2	1.0	wm	495	diff_vonmises	-0.009539414011175926	-0.5465681618683441	2.5895258817639992	0.6070314122094123	1.4315891166655227e-13	1.2968529968555491	0.15878181653121995	-0.2043430326786344	0.36312484920985433	85.47808483483809
3	2.0	ltm	495	diff_vonmises	-0.036581511745711774	-2.095966231237533	7.2540780150953985	0.25903535466313	3.740783614038181e-30	0.6627828563460981	0.16770098439506737	-0.10548503111964277	0.2731860155147101	50.50562511616769
4	2.0	perception	495	diff_vonmises	-0.0009508599437853515	-0.05448026168694735	6.810927163949302	1.311031349547299	0.539472228348497	1.5109012704765812	0.9539990751500375	-0.2553187447497556	1.209317819899793	49.558445775551235
5	2.0	wm	495	diff_vonmises	0.26335026248687504	15.088858574160348	3.157607457976073	0.5242123181884601	0.22668119969516068	0.6660261690967714	0.2221812260401692	-0.09206601787503894	0.31424724391520814	72.88119857683037
6	3.0	ltm	495	diff_vonmises	-0.23308737167964977	-13.354922655041083	2.152326668381332	68.16715377438518	2.130444825270998	68.35011985512699	0.12669836272889512	-0.09837193023597024	0.22507029296486536	60.0772521579531
7	3.0	perception	495	diff_vonmises	-0.04924159568819235	-2.821335609423014	5.31214856906529	1.5698508309512977	0.3300146606596349	1.4755864017173979	1.0878328723139492	-0.22480778349418898	1.3126406558081383	57.09740043045065
8	3.0	wm	495	diff_vonmises	0.09684428023993241	5.5487685277303225	1.3982676061034447	53.05125723891051	1.375052306775361	52.84548940194969	0.30492299345925744	-0.058578015477392054	0.3635010089366495	83.69428265453007
9	4.0	ltm	495	diff_vonmises	-0.34984742007312325	-20.04478064373036	22.128259307349662	0.2288045062086396	1.9392697278393602e-20	0.7021864706994595	0.3151510715080109	-0.11175644778407132	0.42690751929208226	28.764070333964895
10	4.0	perception	495	diff_vonmises	-0.06722897767560093	-3.8519366817911647	3.1009007225381153	2.0928994703587662	0.157552122854458	2.6974969799395985	0.8972924135026785	-0.38255386547882764	1.2798462789815062	74.58303336622384
11	4.0	wm	495	diff_vonmises	-0.28517506032370227	-16.339327378936797	0.9756890358018779	110.39050195855401	0.9624111855035344	110.84332236068435	0.1264563663715279	-0.14606635328356	0.2725227196550879	88.3069041718756
12	5.0	ltm	495	diff_vonmises	-0.04915895582859571	-2.816600694248573	1.383030790650182	105.25941165393856	1.3660560426938508	105.68856632991228	0.14474543627129322	-0.1502460534782788	0.294991489749572	74.05970428907543
13	5.0	perception	495	diff_vonmises	-0.01797477595638504	-1.0298787999940906	0.909353450655945	207.06110672353697	0.8912901653453142	207.44910836379114	0.587767075208987	-0.31866400598149447	0.9064310811904814	96.75271395686906
14	5.0	wm	495	diff_vonmises	0.047631012606351726	2.729055996278373	1.1697692740799315	1.2762015629234487	7.632427801076281e-14	1.4320942337467097	0.24878178894351188	-0.1819824525439184	0.4307642414874303	121.80886878333001
15	6.0	ltm	495	diff_vonmises	-0.492481329665034	-28.217101678797395	1.5432054963642716	1.2563683314072243	1.5465616097824228e-19	1.893075229508161	0.2523541021341955	-0.27600915109510804	0.5283632532293036	108.33324045017751
16	6.0	perception	495	diff_vonmises	0.025437491265783478	1.4574608909302875	0.9291801331743202	253.96333179767265	0.9160637838281069	254.38143802050212	0.49741515913031265	-0.2853507461443421	0.7827659052746547	95.09535860173526
17	6.0	wm	495	diff_vonmises	0.1255314513959447	7.192422361139259	0.0006461655332972259	2240.807634894017	8.294388229435855e-26	2241.2236860585026	0.1642649588273457	-0.29662370631018575	0.46088866513753146	179.37895733468895
18	7.0	ltm	495	diff_vonmises	0.12416483017667865	7.114120733082291	1.3002509721997118	161.61548042908336	1.282457488031817	162.7793772804029	0.06460813053399761	-0.3025664893733122	0.3671746199073098	71.72294592200143
19	7.0	perception	495	diff_vonmises	-0.18578607801277322	-10.644758162420166	1.6223293956788476	1.8078759335511898	1.9177968126907386e-17	2.612490617151111	0.40545775453985367	-0.38377500040256723	0.789232754942421	106.69700628566437
20	7.0	wm	495	diff_vonmises	-0.18279594891472567	-10.473436384902781	0.00030181031539220607	3758.2334614878737	2.663296867673199e-25	3758.675387000557	0.11019807961554307	-0.250840100787741	0.36103818040328406	179.03034876646916
0	1.0	ltm	496	diff_vonmises	-0.30590341996439263	-17.526974902577667	0.00037551662484026455	2425.2128143974146	1.5424703612040207e-27	2427.18986302014	-0.16970475995526613	-0.4595821514618592	0.2898773915065931	177.32119544527944
1	1.0	perception	496	diff_vonmises	-0.0921110844135828	-5.277576383271554	9.279149189110298	1.096086060886081	0.23645238694338747	3.161282014583101	0.6844379044828006	-0.5458471307319235	1.230285035214724	43.047993244493284
2	1.0	wm	496	diff_vonmises	-0.10648363924262819	-6.101063115796225	4.487209818529067	0.39416651811923575	3.463676630046664e-11	2.1023008503456473	-0.01205000875822082	-0.33455073546994674	0.3225007267117259	64.53966575960982
3	2.0	ltm	496	diff_vonmises	-0.09663689648709109	-5.536886313952931	3.653695151659071	0.43444852634020537	2.217756252233733e-18	1.7678679781748765	0.03642022199298539	-0.28115178107106026	0.31757200306404565	71.72465408184561
4	2.0	perception	496	diff_vonmises	-0.035867487944105825	-2.055055680933626	7.228259522185829	1.2883772980446049	0.20651321605122	2.5573632396062584	0.8611627553788523	-0.4205257673725633	1.2816885227514156	49.067579924939906
5	2.0	wm	496	diff_vonmises	0.321005306723017	18.392249276531345	2.805660239683832	0.545912750860948	3.450935501141159e-15	1.6784807075908308	0.0769213035572659	-0.26588037147331933	0.34280167503058523	82.04850011924293
6	3.0	ltm	496	diff_vonmises	-0.1698568683711741	-9.732081678977439	2.575532484430346	0.6072798571030303	0.07267973482605089	1.3902026353505044	0.12657269551681685	-0.20562586351820883	0.3321985590350257	81.90599614016048
7	3.0	perception	496	diff_vonmises	-0.0891398140471146	-5.107335131480637	2.610346249888029	3.3103951857183467	0.5872469718752863	3.915645319026483	0.9706009360213297	-0.42715312551755924	1.397754061538889	73.6843086614222
8	3.0	wm	496	diff_vonmises	-0.04401759593110675	-2.5220224711646417	1.059893849246259	142.29350540275698	1.0449976334420852	142.53544277745235	0.3142079373989759	-0.16735080331311458	0.4815587407120905	89.20430238949803
9	4.0	ltm	496	diff_vonmises	-0.18699649933640802	-10.71411019569708	5.29258264757387	0.5829346283119314	0.37103750434126337	2.1320827934591913	0.04569945405375403	-0.3592101879117551	0.4049096419655091	52.71416278721625
10	4.0	perception	496	diff_vonmises	-0.15581674029754464	-8.927641596535327	2.2020825673841373	2.9093359275540127	0.2845526546532521	4.258953271389238	0.7073609341082615	-0.5200782100743107	1.227439144182572	82.9258953947787
11	4.0	wm	496	diff_vonmises	-0.5587807019056115	-32.01577589254929	1.0709672658000218	171.50589145055415	1.0555926013395835	172.93300100160926	-0.006873557682830267	-0.3265112199895768	0.3196376623067465	76.89953592669012
12	5.0	ltm	496	diff_vonmises	-0.232956235580294	-13.347409110006188	0.8045885777479697	135.7145242970446	0.7908177486337576	136.43081291227867	0.14065178446846005	-0.2150592846946875	0.35571106916314754	96.32708140396106
13	5.0	perception	496	diff_vonmises	-0.0920166424283833	-5.272165256110785	2.941309249052992	1.829639424044773	3.9601772678760926e-14	2.4874086990212043	0.7889708308467298	-0.39258041719112724	1.1815512480378572	80.13721009644624
14	5.0	wm	496	diff_vonmises	-0.26492810893304897	-15.17926251624583	0.523223654370753	96.08020326403748	0.5053574099922846	96.68678457262831	0.1712521113431933	-0.2458731104437959	0.4171252217869892	121.34185043269302
15	6.0	ltm	496	diff_vonmises	-0.3120184313562669	-17.87733924700648	1.1144713445689518	0.9128007817289445	7.16948609092325e-17	1.8158385527954182	0.04256756170635906	-0.2533088779435268	0.29587643964988586	123.33663613251801
16	6.0	perception	496	diff_vonmises	0.1769804810168676	10.1402346184617	0.07908261290224289	210.26696065675623	0.07056671574552688	210.95519540288032	0.17783093736075983	-0.3758866390356168	0.5537175763963766	170.40301327614003
17	6.0	wm	496	diff_vonmises	0.21036257087109833	12.052887478435604	0.0002135521797447412	3261.6805361214115	7.118455219337648e-30	3262.5370702027317	-0.025458139140482672	-0.24717328987367182	0.22171515073318915	178.5076200304074
18	7.0	ltm	496	diff_vonmises	-0.31818131725578236	-18.230446598669403	0.6966770772938579	105.28550240322869	0.6784040101769284	106.14589962501849	0.12518428346770705	-0.2490664058184251	0.37425068928613214	102.91712859937462
19	7.0	perception	496	diff_vonmises	-0.22041984952504434	-12.629127098693724	0.6848410506731045	282.6501742270058	0.6725833616457434	283.74183224177614	0.3547126660973561	-0.41216128918625117	0.7668739552836072	106.70408010497664
20	7.0	wm	496	diff_vonmises	0.2640426386131058	15.128528804028987	1.0027373832345285	31.730178743698026	0.9354405428732699	32.41529199539842	0.17920997240022096	-0.21653306657571303	0.395743038975934	88.07186845566838
0	1.0	ltm	497	diff_vonmises	0.08251443426028827	4.727728832024203	2.148279244935421	0.5803259246602537	4.5094754753675205e-24	4.305518973994567	-0.37269117286973213	-0.6809889006045223	0.3082977277347902	93.7352338606932
1	1.0	perception	497	diff_vonmises	-0.0007859164274818597	-0.045029694344709985	7.957488076809092	1.0447433342175645	0.08067859572062527	4.804794889692876	0.3284581881034345	-0.7789157760267785	1.107373964130213	47.044306844308466
2	1.0	wm	497	diff_vonmises	-0.05627600319469229	-3.2243774709206057	4.505446599350836	0.4762657260977346	0.014072130630296598	4.249070796053885	-0.295246518940916	-0.6726076105681494	0.3773610916272334	63.15363168126507
3	2.0	ltm	497	diff_vonmises	0.05252324180974461	3.0093600820434343	2.0807995705588813	0.5409177310838691	2.2037445281463526e-17	2.3555725540293913	-0.08910109116789999	-0.3704475041516605	0.2813464129837605	95.19476847476184
4	2.0	perception	497	diff_vonmises	-0.012115715004954414	-0.6941793355672112	6.857432473838519	1.513287714288196	0.26994678987839926	3.213961784035988	0.8917464884592591	-0.5345168304957283	1.4262633189549874	49.754153814932295
5	2.0	wm	497	diff_vonmises	0.01469611814595066	0.8420255449885973	2.4109658827162934	1.366622102071417	0.32511528659132155	3.2229728431733515	0.09677642632411376	-0.4290102957068933	0.5257867220310071	74.69729168262202
6	3.0	ltm	497	diff_vonmises	-0.17364151234636843	-9.948925805715687	1.4156921167446963	1.4843684299780782	0.3811713609016834	2.5597958518818276	0.04552653044155408	-0.25208947594511755	0.2976160063866716	89.51424047826016
7	3.0	perception	497	diff_vonmises	-0.05086499267237446	-2.914349405090915	3.3000776224303436	2.7673142124515326	0.5239439936319547	3.4976005892501134	1.0342038233059248	-0.450955136751166	1.4851589600570907	67.5540408243377
8	3.0	wm	497	diff_vonmises	-0.06393963123840853	-3.6634710135836457	1.5848239099887333	2.9481261448875653	0.6437631199500475	3.8533004177070658	0.26507391698446026	-0.2902389918157373	0.5553129088001976	83.36783450310449
9	4.0	ltm	497	diff_vonmises	-0.24498339061474295	-14.036514333029633	0.4406027895732082	42.91983669824055	0.39271878778162816	45.34157873572682	-0.1710835778008235	-0.49919409109538115	0.32811051329455765	118.87519379330648
10	4.0	perception	497	diff_vonmises	-0.06854198199029178	-3.9271662875054174	2.8125731424810407	2.4206639246912305	0.09985138462891066	3.826449311302056	0.856605391347775	-0.555506638107607	1.4121120294553822	78.76324876538027
11	4.0	wm	497	diff_vonmises	-0.10909639486756752	-6.250762986004315	0.5592308323367742	203.80683521921887	0.5453878437150184	206.34302616247183	-0.11619088026034774	-0.5297920772994971	0.4136011970391493	104.93741369163439
12	5.0	ltm	497	diff_vonmises	-0.0526135755222817	-3.0145358225195573	0.592173234935238	93.08862489050829	0.5677717376302964	94.50334531454445	0.061968285739947504	-0.3579060729232708	0.4198743586632183	108.85057030825848
13	5.0	perception	497	diff_vonmises	-0.06962957336866281	-3.989480683320893	1.4258415767812334	7.310510556071819	0.6532495095026124	8.632648998789561	0.6913468678740871	-0.5371674221840329	1.2285142900581199	88.00753216515125
14	5.0	wm	497	diff_vonmises	-0.050755945859599784	-2.908101482949573	0.3419395294595255	152.16773726118845	0.3278838676499091	153.72270164086763	0.051867698672410256	-0.44954957947293295	0.5014172781453432	137.96146180103565
15	6.0	ltm	497	diff_vonmises	-0.4699241867204356	-26.924672590198607	0.5492772355216672	206.80315975142435	0.5394086862565849	208.1306331784558	0.0465072927087391	-0.33621124007971304	0.38271853278845214	112.13732261769974
16	6.0	perception	497	diff_vonmises	0.09375467016289027	5.371746909974719	0.20729668805425694	273.20431558267194	0.19705635369803595	274.3087024265076	0.27324431149805406	-0.5392223470397113	0.8124666585377653	156.05421146379388
17	6.0	wm	497	diff_vonmises	0.06290009086757715	3.6039097377015437	0.5906777120440033	3.0476593372703027	1.2597053503514498e-10	4.503163060434729	0.08723731026576564	-0.4699952585230497	0.5572325687888153	147.43852215658563
18	7.0	ltm	497	diff_vonmises	-0.5612075058465239	-32.15482151606929	2.197224103667775	0.5617751762126572	2.273163813047556e-23	1.8187159328473184	0.017221877977093958	-0.2856713996880863	0.30289327766518026	92.37097243849661
19	7.0	perception	497	diff_vonmises	0.03599600346845423	2.0624190780807004	0.5893157829352655	344.3424303511935	0.5790098303988767	346.01176775569013	0.2339225382213641	-0.5081538974195325	0.7420764356408966	111.93146459182773
20	7.0	wm	497	diff_vonmises	0.16420005935096663	9.407970396608015	0.6784728769093208	155.97402520957218	0.6639572174270066	157.5531615665726	-0.007632416450768176	-0.3508664293356887	0.3432340128849205	97.92832440280327
0	1.0	ltm	498	diff_vonmises	-0.69593594683728	-39.87419256521697	1.238924296508164	0.7934308933961907	1.6757849706557676e-25	1.0529441910837887	0.1389249538098474	-0.14185801770573045	0.28078297151557785	116.50714323547047
1	1.0	perception	498	diff_vonmises	-0.12687436557248444	-7.269365675703271	14.806827755806708	0.7722902380936414	0.06545162307269546	1.1316570019768724	0.9829488933475647	-0.18519271043292354	1.1681416037804884	35.08478702587715
2	1.0	wm	498	diff_vonmises	-0.07768646231953474	-4.451106416211441	3.5097815222689768	0.37638321811333497	2.655495431942301e-14	0.34038015615059464	0.2150776874501364	-0.05393236351774364	0.26901005096788	73.21686718181462
3	2.0	ltm	498	diff_vonmises	-0.1594438117396062	-9.135457482157884	8.90630697789596	0.28733996793543803	1.1886823005480995	0.18838946194406922	0.2659901716573193	-0.035506302275716155	0.30149647393303547	43.14975054584923
4	2.0	perception	498	diff_vonmises	0.009115716571666807	0.5222920867939721	6.489370132813492	1.48687181028037	1.0636957244863756	1.0351859131688765	1.1130666300042544	-0.16331610035872612	1.2763827303629807	49.95941120091837
5	2.0	wm	498	diff_vonmises	0.5831960719524176	33.414673551481414	2.236952883514104	0.4388904306070503	6.110606175612132e-27	0.16432524818268604	0.21601014056518672	-0.02339153812780012	0.23940167869298684	91.5342373671995
6	3.0	ltm	498	diff_vonmises	-0.2001592006085092	-11.468277425579956	3.4803525886058533	46.545572835324805	3.450499309952475	46.56345548779445	0.14593026273457355	-0.06278566681556619	0.20871592955013973	49.067301697955
7	3.0	perception	498	diff_vonmises	-0.03859750927563948	-2.211474381211189	5.805948208866067	1.5393218544221956	0.6153718067217555	1.123469921466248	1.143132386860909	-0.17161944887820432	1.3147518357391133	53.973994855457306
8	3.0	wm	498	diff_vonmises	0.3433169774454077	19.670613842809935	2.1098940309758376	1.871389555033169	2.0528217037004386	1.3419171882660457	0.2937978293432475	0.003069477130015579	0.2907283522132319	91.57006075674704
9	4.0	ltm	498	diff_vonmises	-0.373397649863453	-21.394109417279516	13.636663789032472	0.3200426412745393	0.7765129205782997	0.46312388359528234	0.3283208631297757	-0.10211271292285226	0.430433576052628	35.19684742342574
10	4.0	perception	498	diff_vonmises	-0.06918065780698553	-3.96375971627904	3.296300106721255	1.7878503671622208	0.10445863147624229	2.115812795110232	0.8622391130803786	-0.3100336497297857	1.1722727628101643	73.52104397457597
11	4.0	wm	498	diff_vonmises	-0.5043043561361077	-28.89451119666137	1.6205384445845146	75.61095155724323	1.6009464107388776	75.77488205216007	0.17916784113414508	-0.09962276373306267	0.27879060486720775	71.21749507790865
12	5.0	ltm	498	diff_vonmises	-0.011907238674762068	-0.682234521718814	2.216747289752489	58.95444193196436	2.1934632982023183	58.88558408093733	0.24124559242302723	-0.06162729268978673	0.30287288511281396	64.35030242126538
13	5.0	perception	498	diff_vonmises	-0.09327998051591957	-5.344549196624743	2.118933428531516	1.8213604069975655	0.15179868872032462	1.4104081512309647	0.7130991370908151	-0.17770544339172462	0.8908045804825397	91.04412502909102
14	5.0	wm	498	diff_vonmises	0.1704397234416948	9.765476814586075	1.4394263995782057	0.9752737813662116	2.883966661504009e-16	0.5166940460563946	0.3298042964621203	-0.0590776082591122	0.38888190472123246	112.25176049863782
15	6.0	ltm	498	diff_vonmises	-0.45753827083937065	-26.215011884809524	0.6235851340970195	36.80398033080517	0.5923734931806025	36.72252331184918	0.23908945215654498	-0.1108007932500632	0.3498902454066082	118.91356899207076
16	6.0	perception	498	diff_vonmises	-0.003037457691907067	-0.17403350619582325	0.8458269065893349	116.42292342030119	0.8307114835653416	116.22781288280478	0.3962766079835873	-0.13068984244046433	0.5269664504240517	104.59625707500047
17	6.0	wm	498	diff_vonmises	0.21224081267803593	12.160502806878155	0.00022276039343424088	4308.743418759113	9.729356247213242e-30	4308.528324333224	0.18700092853362094	-0.11851723217432664	0.3055181607079476	178.48290873229269
18	7.0	ltm	498	diff_vonmises	0.1848123339702923	10.588966738460002	1.685106687281561	150.06261068373274	1.6657183509583502	150.7812136516757	0.15803783426474638	-0.24385306303737408	0.40189089730212046	65.3847195209081
19	7.0	perception	498	diff_vonmises	-0.2755520611060705	-15.787970137508802	3.00627129004748	1.2721956285673113	9.487543245947506e-16	1.4378155394839855	0.6053739420597252	-0.22679334149998076	0.8321672835597059	79.2340576840001
20	7.0	wm	498	diff_vonmises	-0.3050178458539136	-17.476235243601167	0.00018715827952304787	5167.954939883443	2.415110237057405e-30	5167.891250788594	0.1640770461738157	-0.1437897741782308	0.3078668203520465	177.3467786671084
0	1.0	ltm	499	diff_vonmises	-0.11848342347839748	-6.788600107573424	0.3394074150231876	2.6688994271494915	2.438982902604229e-16	5.010825830942059	-0.21788803110072796	-0.5035080146746398	0.28561998357391183	160.55283493658897
1	1.0	perception	499	diff_vonmises	-0.10480569421269673	-6.0049239473261995	11.364679386169582	0.7060548131983203	0.06964456719632811	3.2061155206257634	0.3922694253207716	-0.5245140539482717	0.9167834792690432	39.6892939615513
2	1.0	wm	499	diff_vonmises	-0.03695844892611306	-2.117563140816088	2.3025535876936285	1.020869566796995	0.1829171297201238	3.063709866615901	-0.007512487992809791	-0.43003104459342967	0.4225185566006199	79.17462014591598
3	2.0	ltm	499	diff_vonmises	0.06944110310559407	3.9786821326833337	2.4467840960778178	0.43124904154866944	7.047748902136646e-36	1.5863041903623525	-0.001504612771242253	-0.2505872730208626	0.24908266024962034	87.92599028867815
4	2.0	perception	499	diff_vonmises	0.02225425358661727	1.2750748067270445	5.9438811283387	1.5102426235763933	0.5085282290291322	2.5168012177001335	0.8100436380401158	-0.42011385046869726	1.2301574885088131	51.86871119354757
5	2.0	wm	499	diff_vonmises	0.37140161573139724	21.27974508574866	3.348714989438172	0.5717694798057644	0.06651440755170128	1.3811807652866381	0.16378947767675406	-0.21019086007633406	0.37398033775308814	72.48231815600474
6	3.0	ltm	499	diff_vonmises	-0.2280592794266096	-13.066834189939456	1.2882824826511463	57.58444608215246	1.2556060160572267	58.31363956708278	0.05973939686140639	-0.19397864485159122	0.2537180417129976	73.05001736747744
7	3.0	perception	499	diff_vonmises	-0.06067728360810591	-3.4765522630628007	5.250506718955141	1.5451651170093375	0.2119021554210846	2.2018641567433983	0.9465965218650343	-0.3419423891600992	1.2885389110251335	57.52004557407295
8	3.0	wm	499	diff_vonmises	0.23738057963706422	13.60090535157291	0.8926362974318272	96.089337194177	0.8751202119283595	96.26026463162742	0.26642234357383643	-0.14472742612428302	0.41114976969811945	97.69557802463225
9	4.0	ltm	499	diff_vonmises	-0.3488328279641015	-19.986648797956136	5.5798793009835075	0.387184581725283	5.49079348438424e-32	1.8360125739914415	0.06366273095552893	-0.29220541062860705	0.355868141584136	57.72666629024394
10	4.0	perception	499	diff_vonmises	-0.025479977649108948	-1.459895181381612	2.164169514235084	2.940741294589832	0.38004170697640727	4.196957421928171	0.648328493134806	-0.4797782726390384	1.1281067657738444	81.25754490389923
11	4.0	wm	499	diff_vonmises	-0.25622539212160494	-14.680633572652537	0.7953621588762099	186.40336774033142	0.7841785610503116	187.8280975937422	-0.030201132788015173	-0.30539322850706085	0.2751920957190457	88.72658079185503
12	5.0	ltm	499	diff_vonmises	-0.23476408444533656	-13.450991219970643	1.0003334995334878	153.72035253790472	0.9835894388251437	154.7455498204647	0.14007994061990559	-0.2781370609950713	0.4182170016149769	84.7605468528496
13	5.0	perception	499	diff_vonmises	-0.07463811365139705	-4.276448903042826	1.0008882636301983	275.7526476139313	0.9833224827574143	276.8094338011333	0.5591317513757303	-0.4375248627679973	0.9966566141437276	89.46171968696609
14	5.0	wm	499	diff_vonmises	-0.021226883907473706	-1.2162108601124089	0.7675039528095494	2.700205261694855	0.10974489828064868	3.2427230863909458	0.228913085035789	-0.28802299347591065	0.5169360785116996	132.34042243288897
15	6.0	ltm	499	diff_vonmises	-0.4871186879710353	-27.909844942690384	0.712926713822612	175.03752423663224	0.6990213516121265	176.09729128230376	0.16266807942101735	-0.3082753583854956	0.47094343780651293	101.69920178931625
16	6.0	perception	499	diff_vonmises	0.0050909339000620845	0.29168902625363347	0.7052524422727264	237.77714559049105	0.6909196838429013	238.89649838015555	0.3329196462539272	-0.4026791653207056	0.7355988115746328	104.83993204160654
17	6.0	wm	499	diff_vonmises	0.28474725240524607	16.31481579076698	0.0003642393283446788	3754.1560368889063	1.2498727333729166e-27	3755.224326928266	0.047623151594052615	-0.38763080007743156	0.4352539516714842	177.38423660492987
18	7.0	ltm	499	diff_vonmises	-0.0787182207788378	-4.510221821406426	0.9249968455096592	115.47369140232647	0.9027657017270259	117.21210895168946	-0.07339060265795183	-0.36684193127226905	0.2934513286143172	80.70665051282708
19	7.0	perception	499	diff_vonmises	-0.18207005688895184	-10.43184583544374	1.5216163997058738	2.0299899426278873	8.540787856567686e-18	3.7137922712209086	0.2958484039362054	-0.5487761066904285	0.8446245106266339	109.68904747881568
20	7.0	wm	499	diff_vonmises	0.4074109666115433	23.34292891418673	0.9592430416285374	75.03416387207089	0.9235495892925806	76.26612401942009	0.10577130359493125	-0.31200600985020444	0.4177773134451357	85.73438610102892
