	roi	task	n_boot	func	loc	loc_deg	kappa1	scale1	kappa2	scale2	maxr	minr	amp	fwhm
0	1.0	ltm	337	diff_vonmises	0.0103821625389707	0.5948540957018486	5.038266316381987	0.2822387110844045	0.0064322328851505	2.4720878282624645	-0.150274791434427	-0.3923590940014538	0.2420843025670268	60.294030680589145
1	1.0	perception	337	diff_vonmises	-0.0101552119496958	-0.5818507847783939	12.353511141555453	0.6511660468402197	0.0439993337005139	2.967851347088535	0.4098038436793481	-0.4807513907488971	0.8905552344282452	38.26570452085
2	1.0	wm	337	diff_vonmises	0.0715377953666476	4.0988137501794455	4.3484292354640806	0.4250919704573526	0.0304415368337434	2.7297684878827906	-0.1057805123016741	-0.4301781138916581	0.3243976015899839	63.68549323776455
3	2.0	ltm	337	diff_vonmises	-0.0193184923616831	-1.1068680788801613	3.115103807761828	0.7392256460888323	0.2938330842087978	1.930583378273407	0.0911745510286991	-0.2797427646014906	0.3709173156301897	68.25748755839331
4	2.0	perception	337	diff_vonmises	-0.0088953188879235	-0.5096642297010214	6.912654412075466	1.1999519087336892	0.2715210781642346	2.4090351981871936	0.739946571089324	-0.4003575885853349	1.140304159674659	49.66060280648625
5	2.0	wm	337	diff_vonmises	0.0724027829157484	4.148373886074287	4.395519043029633	0.595873638201303	0.2092156559219622	1.8922339882456956	0.1149821516346474	-0.2963017305008633	0.4112838821355107	60.24943274463493
6	3.0	ltm	337	diff_vonmises	0.0165417693233445	0.9477735679066196	1.8378449699362531	2.1820471766639917	0.8149049438261666	3.034520826309753	0.1393771006265917	-0.2423069192020416	0.3816840198286333	74.21354312037607
7	3.0	perception	337	diff_vonmises	-0.0134050866909321	-0.7680548913974007	4.576849445512549	1.7063421171450184	0.2292532641198107	2.5706062712344724	0.903332189964806	-0.3903404013958875	1.2936725913606937	61.04616908728738
8	3.0	wm	337	diff_vonmises	0.0016375577030099	0.0938251450916054	2.574884121933956	1.019346313777358	0.4526534825034591	2.0503013691153784	0.1234296299886427	-0.2644599621976677	0.3878895921863105	71.20902983086788
9	4.0	ltm	337	diff_vonmises	-0.1134731412343378	-6.501532080819471	1.0072801496654118	142.42123851172656	0.9885503406429248	143.87903191774916	0.0096956312116631	-0.3337919352966096	0.3434875665082728	80.07629844444827
10	4.0	perception	337	diff_vonmises	-0.0938078059642991	-5.374791367136494	2.1158142443207018	2.9188000275568764	0.3256776806374873	4.32819447475229	0.6284409472587609	-0.5091707888905959	1.1376117361493567	82.99129690078263
11	4.0	wm	337	diff_vonmises	-0.1022677916578802	-5.859512842119746	1.0436485400024151	306.34508337737947	1.0331527302418333	308.0039625377512	0.028837127894036	-0.3881098440855055	0.4169469719795415	78.92161282248841
12	5.0	ltm	337	diff_vonmises	0.0084326413208147	0.483154757830309	1.2407851103003642	2.175341352042788	0.2899369434745278	3.2406304422284635	0.1660848889972358	-0.310483470226894	0.4765683592241298	101.0878494336548
13	5.0	perception	337	diff_vonmises	-0.0526928536651108	-3.0190781255113013	1.956040176603998	2.7768419029957343	0.2870921997271408	3.7722806418120527	0.6296017470837421	-0.4343763497017147	1.0639780967854569	87.47463891923212
14	5.0	wm	337	diff_vonmises	0.0510053556365283	2.922391610536881	0.6841056018775987	169.98359150354594	0.6695490830009986	171.06453606158445	0.1697544411321345	-0.320402111521167	0.4901565526533016	104.0464032091074
15	6.0	ltm	337	diff_vonmises	-0.0978483443718161	-5.606297164847731	0.5026805644130646	202.2549693401374	0.4928091579456865	203.25060535888647	0.12869285126758	-0.3168010182914322	0.4454938695590122	120.84487486179378
16	6.0	perception	337	diff_vonmises	-0.0862172228689334	-4.939882991728691	0.615906208807425	175.58654602089447	0.5974083506214651	176.637298908539	0.3366161911637064	-0.4166320912048231	0.7532482823685296	112.9451248634601
17	6.0	wm	337	diff_vonmises	-0.1017947138311846	-5.832407479268868	0.590605222303058	141.2177925570629	0.5738687164199937	142.1930552875135	0.192355059183356	-0.3281066078767551	0.5204616670601112	113.44289980237365
18	7.0	ltm	337	diff_vonmises	0.0124266906437704	0.7119969272027549	0.7988587151465371	196.45278550797445	0.7833705981824235	198.0468863988767	0.1020804111913875	-0.3929907448741581	0.4950711560655456	93.1521926032535
19	7.0	perception	337	diff_vonmises	-0.0629241932682945	-3.605290703538784	2.3300943541787764	1.988447238072221	0.0637377243705333	3.462518989094097	0.5373826752864149	-0.506417493287998	1.043800168574413	87.09818235212671
20	7.0	wm	337	diff_vonmises	0.2096967002864365	12.014735904232577	2.6994982130796163	0.8632426265116996	0.1002487151279153	2.3261165270926423	0.1238637720062422	-0.3426593395635546	0.4665231115697968	78.4271166342098
0	1.0	ltm	95	diff_vonmises	0.0258711783318976	1.4823093294480385	5.497329675214719	0.275952268880219	9.435467267657625e-19	3.3980949239706386	-0.2892273436306217	-0.5408193780120624	0.2515920343814406	58.17833486439761
1	1.0	perception	95	diff_vonmises	0.0120689872900305	0.6915020347157848	11.477417117953388	0.7833844756131335	0.0584690002697989	3.9564307370083256	0.379561768446686	-0.6444415274956938	1.02400329594238	39.5358445030449
2	1.0	wm	95	diff_vonmises	0.0237923114765831	1.3631990324688883	5.178632739433896	0.3811274649866711	0.0194788683935511	3.671391679388053	-0.2590691617867395	-0.5823896803544909	0.3233205185677513	58.61626089667149
3	2.0	ltm	95	diff_vonmises	-0.0201102915794823	-1.152234832281815	3.1288590977894906	0.7434311535305548	0.1798610818173664	2.4644331151675334	0.0329421855489141	-0.3672510311092584	0.4001932166581725	69.88029007461105
4	2.0	perception	95	diff_vonmises	-0.0186516079887472	-1.0686584188877064	7.069692404433123	1.324927746570749	0.215575777974143	3.1245015433485226	0.7688986667936176	-0.5163274738643058	1.2852261406579233	49.28524487122837
5	2.0	wm	95	diff_vonmises	0.0405867501653929	2.3254494886289137	3.9124745558465306	0.6927182904560932	0.1239475115613567	2.588846598495202	0.061554937943683	-0.4002122984325986	0.4617672363762816	64.75545583017842
6	3.0	ltm	95	diff_vonmises	0.0387924773202619	2.2226452273079778	3.1061527401141142	0.6466055212862547	0.0988993004988046	1.725254243759408	0.1295557514220926	-0.2583355867725428	0.3878913381946355	73.74287023286496
7	3.0	perception	95	diff_vonmises	-0.0014862418878201	-0.0851553875076506	4.410974425974341	1.906490544307298	0.1885219013641299	2.9708349398249405	0.9798366669460394	-0.4499227399031222	1.4297594068491617	62.470308942052725
8	3.0	wm	95	diff_vonmises	-0.0379158387498537	-2.172417537065202	3.3244786014223977	0.7429191267232399	0.1276642955339994	1.9958453906454168	0.1562182577824794	-0.2991041186986365	0.455322376481116	70.64227324275495
9	4.0	ltm	95	diff_vonmises	-0.0530635298735648	-3.040316307821631	1.9832360406609624	0.844011735209361	0.0921521508306826	3.1305546899686267	-0.1119788001041507	-0.4526814110012154	0.3407026108970646	87.76154530994603
10	4.0	perception	95	diff_vonmises	-0.0582770277891102	-3.339027734882634	1.8440069285996443	3.7625211151951503	0.3495799576945882	5.95031356775287	0.544526930368685	-0.6596446697237613	1.2041716000924465	85.70722180907114
11	4.0	wm	95	diff_vonmises	-0.0511751292799778	-2.9321189237790923	0.7522708480044307	286.26045040746925	0.7414465173969625	288.7250344914477	-0.1293159767438823	-0.5000545142106461	0.3707385374667638	88.63935046816587
12	5.0	ltm	95	diff_vonmises	-0.0366916092236613	-2.1022743520590788	1.7406916840320978	1.091532609384401	1.753885007306794e-20	2.254489647075628	0.1587618656851407	-0.3428899790122804	0.5016518446974212	103.482849216792
13	5.0	perception	95	diff_vonmises	-0.047071838275765	-2.6970176671237063	2.0318974560379437	2.8910346512190443	0.2060671247668209	3.931038826316438	0.7450078496767284	-0.4888108425890171	1.2338186922657457	88.54906723852255
14	5.0	wm	95	diff_vonmises	0.0134690414214926	0.7717192275384168	1.0346898501989976	3.156838988503285	0.3085579089314386	4.3883591898791625	0.170754352641519	-0.36275526737114	0.5335096200126591	106.83034758205832
15	6.0	ltm	95	diff_vonmises	-0.0475795345715793	-2.7261065221482874	1.0914209817519087	1.189908647091079	7.39018395255076e-18	2.0693687667196308	0.0977365413922676	-0.2812075320030929	0.3789440733953605	124.8552306662214
16	6.0	perception	95	diff_vonmises	-0.0858672700083434	-4.919832169788351	0.8370321327925518	2.750534001036855	4.407880048172574e-19	3.617872352540832	0.2788296637557436	-0.4155725924298249	0.6944022561855685	135.60933779327527
17	6.0	wm	95	diff_vonmises	-0.0386866457024549	-2.2165815222685925	0.4947111010809537	214.6269036622997	0.4854506774514265	215.53855472346507	0.1484287155736297	-0.310360090134111	0.4587888057077407	122.40686700381065
18	7.0	ltm	95	diff_vonmises	0.0651842832766691	3.734784322338335	0.7571539822147408	50.95770814003351	0.7066682996698975	52.48256774983851	0.0550296728229664	-0.3617091336671469	0.4167388064901134	95.8387182114936
19	7.0	perception	95	diff_vonmises	0.0275042076771549	1.575875018752299	0.7969730646312847	374.4783076524726	0.785352371684692	375.7778875777405	0.4400379732741726	-0.4698064090486014	0.909844382322774	98.80269475249511
20	7.0	wm	95	diff_vonmises	0.0602396588427109	3.451478210995266	0.7926609249624913	127.43672045200049	0.7724808876288857	128.953117417483	0.0386118984895063	-0.3512708586884052	0.3898827571779115	91.98760717565769
0	1.0	ltm	193	diff_vonmises	-0.1512020645609179	-8.663240153005193	2.553500724936601	0.4437634548909164	2.175322259537074e-18	1.984685683370412	-0.0510787966606547	-0.3142692787704362	0.2631904821097815	86.06763484451886
1	1.0	perception	193	diff_vonmises	-0.0564130047826378	-3.2322270836964777	14.792162942652435	0.7291395570217191	8.741892867644162e-20	2.4656160864988	0.7164532998253366	-0.3924149879330209	1.1088682877583576	35.22616343768385
2	1.0	wm	193	diff_vonmises	0.0094756987213252	0.542917544669446	4.542063049691598	0.4046245419448201	7.534373399957713e-20	2.065842431885097	0.0044371153113565	-0.3287512184059568	0.3331883337173134	64.14625805160534
3	2.0	ltm	193	diff_vonmises	-0.0818552011351709	-4.689957556239758	3.440382393274312	0.5983257723990073	0.161405785523492	1.5427728975829729	0.1366342308538801	-0.2305618468454221	0.3671960776993022	68.85679462732989
4	2.0	perception	193	diff_vonmises	-0.0427931750996933	-2.4518683251767563	7.400226531054255	1.1749913096949354	0.1818616631528838	2.102250462068869	0.853811892602848	-0.3435561937687095	1.1973680863715574	48.789629657374405
5	2.0	wm	193	diff_vonmises	-0.017287396856132	-0.990494878624096	4.252994557327874	0.5413672568791407	0.1389845325570807	1.5310197908891658	0.1516966738091223	-0.2366254343203505	0.3883221081294728	62.86599941236685
6	3.0	ltm	193	diff_vonmises	-0.0311226494246815	-1.783196459299513	1.6891099163726435	1.976132122340591	0.6923976242058683	2.49550008132182	0.2135178483040324	-0.186767106412171	0.4002849547162034	81.55128982938979
7	3.0	perception	193	diff_vonmises	-0.0330272644917767	-1.8923228642410952	3.842807266691491	2.149043400087935	0.3605008237683169	2.572182918834428	1.0479907884023736	-0.361846293109368	1.4098370815117416	65.34805227961363
8	3.0	wm	193	diff_vonmises	-0.1244670534709453	-7.131436852314312	1.8496472089114344	2.6121205370201843	0.9041911702690092	3.1859559619061906	0.2544736276746839	-0.2151665340525272	0.4696401617272111	75.49697607462824
9	4.0	ltm	193	diff_vonmises	-0.1539497866935592	-8.820673034480222	1.8689512392141567	2.0797242620172103	0.7363094076530382	3.0731297631463463	0.1339558055813945	-0.2706194052438594	0.4045752108252539	74.70343341081198
10	4.0	perception	193	diff_vonmises	-0.1165184602538639	-6.676016007909234	2.2142654707300538	3.1392757708457752	0.3744015146877066	4.18804910210177	0.7855156549401509	-0.4786041983165283	1.264119853256679	81.33103042272225
11	4.0	wm	193	diff_vonmises	-0.1663818988535293	-9.532980591679785	1.1671822122318467	276.4184707281108	1.1564950298399934	277.60308163486536	0.1090668587118131	-0.3108546397303797	0.4199214984421928	76.91039554766397
12	5.0	ltm	193	diff_vonmises	0.0047260949870077	0.270785296333482	1.0963296574238963	2.0536939614611884	0.2471973784876941	2.6507749448290743	0.2069756876776056	-0.2420203348244301	0.4489960225020358	110.63337844360464
13	5.0	perception	193	diff_vonmises	-0.023918519725427	-1.3704302324673774	2.215797854365189	2.178443225015863	0.1329754094557292	2.6258655108698887	0.7199417698565809	-0.3519443577630352	1.071886127619616	87.99307508936266
14	5.0	wm	193	diff_vonmises	-0.0258647371823158	-1.4819402787617906	0.6795174324923322	139.66079215343663	0.6656880831509149	140.2808212695657	0.1952141444351269	-0.2319776498351498	0.4271917942702767	107.08003194366746
15	6.0	ltm	193	diff_vonmises	-0.154542199393815	-8.854615781934829	0.3427401312056352	108.88799734186748	0.3315812141294034	109.44916011589191	0.0985266428421169	-0.2188834249266946	0.3174100677688116	139.71990975585396
16	6.0	perception	193	diff_vonmises	-0.0426314616456905	-2.442602826771911	0.4802987141131133	146.69036117169222	0.4627188349784062	147.26879731912703	0.3410121481652481	-0.3530723102201882	0.6940844583854364	127.6934449943342
17	6.0	wm	193	diff_vonmises	-0.153861378513821	-8.81560761890679	0.4931289738174919	112.50797547378176	0.4781778845449455	113.06417988645408	0.17869933842465	-0.2439635275219576	0.4226628659466076	124.76234521265168
18	7.0	ltm	193	diff_vonmises	0.1302689128465024	7.463858907862143	0.8642786843190914	122.1311342065814	0.8459993833064267	122.86277488386752	0.197318396418737	-0.2380843534368466	0.4354027498555837	94.09270617711611
19	7.0	perception	193	diff_vonmises	0.0039698278890534	0.2274543834360889	1.5018341754517688	3.0382192555907306	0.3634430858123471	3.6733835952610026	0.5032027800208245	-0.3362769993771493	0.8394797793979738	95.38473319337254
20	7.0	wm	193	diff_vonmises	0.1145486973017752	6.563156904113321	1.3159634782978933	1.9069285507387788	0.4345448074745424	2.595134027596464	0.1546967646131221	-0.211174968561144	0.3658717331742661	94.16707565525051
0	1.0	ltm	72	diff_vonmises	-0.03795841419066	-2.1748569301343106	3.81391302437469	0.3882688190407727	9.304888236779402e-19	2.729998724170419	-0.1436615082918627	-0.4343512337928022	0.2906897255009395	70.15564754298052
1	1.0	perception	72	diff_vonmises	-0.0390936945591956	-2.239903703815462	14.119968937819548	0.6824516534404022	2.822984703037029e-19	3.1712269515237868	0.5088515574380436	-0.5047164450007016	1.013568002438745	36.06158540184896
2	1.0	wm	72	diff_vonmises	0.0051466748357213	0.2948827466130176	4.290122094292284	0.435967622642411	4.276803710215108e-22	2.9356227898095715	-0.1190377311277945	-0.467153489472458	0.3481157583446634	66.04667495499754
3	2.0	ltm	72	diff_vonmises	-0.035500751002042	-2.034043201961839	2.8449249373632437	0.8641183434844519	0.2552350131694516	2.21016064040123	0.1022878937215316	-0.3141878379006629	0.4164757316221946	71.8413091780541
4	2.0	perception	72	diff_vonmises	-0.0325958506707051	-1.867604673070076	6.731076952586981	1.245589482204911	0.1962554828015584	2.577574384091835	0.7689505988547229	-0.4196549010527551	1.188605499907478	50.76229520745011
5	2.0	wm	72	diff_vonmises	0.0052946748331174	0.3033625218317607	3.870960584876728	0.7052498940022656	0.1619451214399277	2.1551739893502333	0.1318936811001702	-0.3301007363674185	0.4619944174675888	64.78899257528772
6	3.0	ltm	72	diff_vonmises	-0.0182100165489971	-1.0433570931209213	2.5135756203349877	0.9969843795190666	0.2141613585008266	2.030471627441777	0.1936692004625095	-0.277369408898764	0.4710386093612735	78.27675206624397
7	3.0	perception	72	diff_vonmises	-0.0257294052408378	-1.474186329681788	3.9871743810457527	2.128317200998999	0.2275138558059176	3.0879426316434517	1.024177451692878	-0.4549807984394496	1.4791582501323275	65.15781320610239
8	3.0	wm	72	diff_vonmises	-0.080788362283787	-4.628832192634876	2.6220132575465334	1.1881604986417578	0.3236530156553217	2.334830420949053	0.2196021950930109	-0.3103978862029257	0.5300000812959367	74.24649280106294
9	4.0	ltm	72	diff_vonmises	-0.1486672314143177	-8.518004911935137	2.575546930670984	0.8746510225799295	0.1401735486126957	2.5657716986127115	0.0570113640171958	-0.3713924631038849	0.4284038271210807	77.88268653297723
10	4.0	perception	72	diff_vonmises	-0.0863433680536073	-4.9471105784164005	1.917189321631245	3.610093706655829	0.3192962376729287	5.264837893991888	0.6910346003397585	-0.5951434279900867	1.2861780283298452	86.46221826704442
11	4.0	wm	72	diff_vonmises	-0.1251298424631365	-7.169411864274598	0.9414277366733949	376.5109980706992	0.932137537823946	378.41278400499465	0.0394546349163675	-0.4397705671534879	0.4792252020698555	83.45488636744344
12	5.0	ltm	72	diff_vonmises	-0.0325267154558744	-1.8636435170445491	1.302076939402033	1.6854625216899637	0.1112750415960245	2.553639012473087	0.2176880560114362	-0.3129041220847386	0.5305921780961749	110.18074243951877
13	5.0	perception	72	diff_vonmises	-0.027716507567952	-1.5880389064860565	1.6837043868371904	3.3228628358903585	0.3116794609935021	4.056913648842849	0.6831627988117454	-0.4187241095607215	1.101886908372467	93.03698920473012
14	5.0	wm	72	diff_vonmises	-0.0137863810353796	-0.7899014480864497	0.6640982414473071	158.68387094245077	0.6487542221979191	159.58322726829965	0.2158236270945224	-0.306428472469797	0.5222520995643194	107.36432011514404
15	6.0	ltm	72	diff_vonmises	-0.0985625154133979	-5.647216151380825	0.3663214499498652	96.77182105027212	0.3506088418554909	97.48474452176492	0.1200074177609309	-0.2701961588781909	0.3902035766391218	137.30474901781392
16	6.0	perception	72	diff_vonmises	-0.0320612287206681	-1.836973091697902	0.6191466324180367	13.126553306084933	0.4085154487064443	13.846907429632596	0.3517733501724844	-0.3812043650020138	0.7329777151744983	123.30021787751876
17	6.0	wm	72	diff_vonmises	-0.0647048387233443	-3.7073141729222896	0.4740363090544122	205.0188353867917	0.4644125183004517	205.7461290553861	0.1922739850306527	-0.2975027944062738	0.4897767794369265	126.03197148622962
18	7.0	ltm	72	diff_vonmises	0.0240195942219926	1.376221374536997	0.8130310628350325	144.18937606258743	0.7937042761671067	145.48401572634387	0.1405902004854624	-0.3415958886659869	0.4821860891514493	93.89812228820844
19	7.0	perception	72	diff_vonmises	0.0472364141631872	2.706447170882617	0.7837693947233837	180.978333503614	0.7601940881054565	182.16790276128796	0.4625576057084402	-0.4600364946931901	0.9225941004016304	100.56247875018369
20	7.0	wm	72	diff_vonmises	0.0729679059439475	4.180753050495748	0.7744408645750642	99.98802657900912	0.7501063451760793	101.2677984173978	0.0881745099110205	-0.3193394817004531	0.4075139916114736	95.18004354145545
0	1.0	ltm	170	diff_vonmises	-0.192313652562018	-11.018760634548904	2.317400896671568	0.4703647401709508	1.2125424199962216e-17	2.081071594259698	-0.0661478740357398	-0.3286395716828201	0.2624916976470802	90.3028681521675
1	1.0	perception	170	diff_vonmises	-0.0542989120577352	-3.1110984930602448	14.871685202765988	0.7901234394041631	3.7334279959698063e-22	2.582792324068601	0.793944682764844	-0.4110641653551765	1.2050088481200203	35.129875168267745
2	1.0	wm	170	diff_vonmises	-0.0120036917368228	-0.6877608750960087	5.010508507800231	0.3796162969478642	5.797333928608373e-25	2.1261577078303704	-0.0088652764413047	-0.3383738576229746	0.3295085811816698	60.99633766787019
3	2.0	ltm	170	diff_vonmises	-0.0964850776620532	-5.52818773602763	3.882065184965146	0.4829867084433599	0.0304855320096682	1.470502944368008	0.1240445292215987	-0.2295689974550077	0.3536135266766064	68.2611415018246
4	2.0	perception	170	diff_vonmises	-0.0501255802959174	-2.8719841966001924	7.786001260947301	1.1995033238505943	0.1752522051025173	2.1588799985234663	0.9061054724491394	-0.3542211712975197	1.2603266437466591	47.63818690594155
5	2.0	wm	170	diff_vonmises	-0.0553338348517122	-3.1703952012770125	3.918857688749612	0.5586934483813041	0.1073082174939124	1.598783736917098	0.1422985023974667	-0.2454294728770109	0.3877279752744776	65.92147848665547
6	3.0	ltm	170	diff_vonmises	-0.0372537171076128	-2.1344807614405283	2.04635294618461	1.0333052522887798	0.3730150852793622	1.4773645474056083	0.2106313477958477	-0.1653226094211262	0.3759539572169739	83.10547596120426
7	3.0	perception	170	diff_vonmises	-0.0305449423368926	-1.7500962813744172	3.727674980919713	2.267753669932405	0.419410283649655	2.542718423390628	1.0880337665376731	-0.3472625092655442	1.4352962758032173	65.87969994302031
8	3.0	wm	170	diff_vonmises	-0.1520358746962891	-8.711013954677192	2.3717343205215977	1.400756896443426	0.6511940506154875	1.877695950463742	0.2834085962502255	-0.1948286429848812	0.4782372392351067	73.73534817524148
9	4.0	ltm	170	diff_vonmises	-0.1516006819498863	-8.686079247033605	2.121710792465404	1.4786219891952548	0.5942770334581177	2.470622899678331	0.1370178202086893	-0.2662288881800421	0.4032467083887314	74.1291240574927
10	4.0	perception	170	diff_vonmises	-0.1119577168715603	-6.41470466066102	2.2720806918481102	3.1764014026754483	0.3919802453162561	4.22757659270413	0.8104260481615013	-0.4839259043385601	1.2943519525000613	80.16447907379705
11	4.0	wm	170	diff_vonmises	-0.1749575098392477	-10.02432690790747	1.141607487611558	251.0872491298232	1.1303307618741374	252.2630407821698	0.0971522150612287	-0.3036164205491545	0.4007686356103832	77.55955037171964
12	5.0	ltm	170	diff_vonmises	-0.0027841435659622	-0.1595196758881376	1.2948885142873552	1.323236055098776	0.083547262467297	1.8986460006253405	0.1967704450129713	-0.2381014564889515	0.4348719015019229	112.42115774964202
13	5.0	perception	170	diff_vonmises	-0.014846545322236	-0.8506443873138183	2.3844629966106	2.055897511350833	0.0592026301127833	2.4213944627671697	0.7697949076633077	-0.3529023307163001	1.122697238379608	87.21030678219884
14	5.0	wm	170	diff_vonmises	-0.0450904034549254	-2.583489814509335	0.6516653591685765	124.52494746553504	0.6367435883867775	125.1287105668998	0.1884591597985334	-0.2296797712546752	0.4181389310532086	109.43871482666302
15	6.0	ltm	170	diff_vonmises	-0.1559091758092009	-8.932937761230365	0.3057547965166877	84.15407624482559	0.2931442695731855	84.66027618181977	0.0841203608131415	-0.1993847134944193	0.2835050743075609	144.0521860061741
16	6.0	perception	170	diff_vonmises	-0.0369403342121563	-2.1165252441592832	0.3955871705182947	89.02176161239876	0.3686868803386554	89.5192477616213	0.3268859571310294	-0.3508627215320317	0.6777486786630611	136.98335802081982
17	6.0	wm	170	diff_vonmises	-0.1607318408270483	-9.209256112758403	0.4432180647845856	130.1026124461881	0.4313624022919403	130.61461953069403	0.1653493215388906	-0.2340709807677559	0.3994203023066465	129.7811305444218
18	7.0	ltm	170	diff_vonmises	0.1811765407472584	10.380651131597896	0.8665333121992017	76.33162210507187	0.842084198461592	76.90074729212002	0.1786640531882604	-0.1953936695732032	0.3740577227614636	94.7054287339638
19	7.0	perception	170	diff_vonmises	0.0278306174759889	1.5945769226172	0.87027108608356	107.10429418413874	0.841200202918247	107.55624404710989	0.453206385248599	-0.2838520724452475	0.7370584576938466	98.3274032754947
20	7.0	wm	170	diff_vonmises	0.0866714831548264	4.965910188910762	0.8053005823827846	60.309249889931664	0.7787556530397542	60.86847652301688	0.1381893359526422	-0.1801747613517088	0.3183640973043511	97.55461051828657
0	1.0	ltm	291	diff_vonmises	0.0012819241456857	0.0734488432037058	2.570111008649244	0.3787481874395509	2.0535425387487066e-18	2.5930280831439823	-0.1858254019228557	-0.411364605023868	0.2255392031010123	85.79528978224016
1	1.0	perception	291	diff_vonmises	-0.0075603117914691	-0.4331739574541747	11.696213285091456	0.7302897477004813	0.0087169117976052	3.081628722953993	0.4902276524358469	-0.4914703711094934	0.9816980235453404	39.581457949201706
2	1.0	wm	291	diff_vonmises	0.0612178898142091	3.507526717051096	4.29191325936733	0.4017492523997593	3.6841775000884016e-17	2.6645594732366336	-0.1031849566255986	-0.4240177507838752	0.3208327941582766	66.03798990312484
3	2.0	ltm	291	diff_vonmises	-0.0109596673447825	-0.6279426837233903	3.2067194522824334	0.7411481427832168	0.2480437657646342	2.1216001375184805	0.0779362082263242	-0.3128129663652216	0.3907491745915459	68.08863621319458
4	2.0	perception	291	diff_vonmises	-0.0096287261412853	-0.5516853699829389	6.62651482233773	1.3381950326409404	0.1922855746716401	2.659352086160688	0.8377126422848069	-0.4312459732909984	1.2689586155758052	51.227436517753546
5	2.0	wm	291	diff_vonmises	0.0655712722396403	3.756957156634732	4.469581672251026	0.5461284248454259	0.0981461147634472	1.963403092624417	0.1020474234654318	-0.3069005963639462	0.408948019829378	61.751418906625815
6	3.0	ltm	291	diff_vonmises	0.0439885605844857	2.5203588683465594	2.923189089795253	0.6307675050229201	0.1019257812675598	1.4712814623120998	0.1483934323104772	-0.2175031305575955	0.3658965628680728	76.15602532358807
7	3.0	perception	291	diff_vonmises	-0.0015640936210226	-0.0896159632479324	4.323579279596793	1.8174616173216136	0.1378482063275337	2.607975868019775	0.9835214309932054	-0.3949224943883825	1.378443925381588	63.802325335794
8	3.0	wm	291	diff_vonmises	-0.0517250310634608	-2.9636259751193874	2.999209286342373	0.8044030213244344	0.2203785895577761	1.7081526899478816	0.1919600971968916	-0.2432900329642397	0.4352501301611313	72.41165659151778
9	4.0	ltm	291	diff_vonmises	-0.1004636249155513	-5.756141702246434	2.6081731137540696	0.6510669672926459	0.1918996461221498	2.440246406228104	-0.0728945002450833	-0.355855676638221	0.2829611763931376	73.43654240457386
10	4.0	perception	291	diff_vonmises	-0.0861248469285613	-4.934590240216817	1.7758231720549351	3.973353733181028	0.386065203753442	5.794078367050642	0.5996308975900695	-0.6030141161684034	1.202645013758473	86.67311004770383
11	4.0	wm	291	diff_vonmises	-0.0627626935842456	-3.5960374532500867	0.9330781992236944	287.7815654992588	0.922552758314194	289.7415416569796	-0.0649226257781379	-0.4199012526504617	0.3549786268723238	80.75245572695417
12	5.0	ltm	291	diff_vonmises	-0.03517715703923	-2.015502633616795	1.5487647035066032	1.029105707845637	1.1531024883043847e-14	1.9197015056876272	0.1489642482523211	-0.285004731965418	0.4339689802177391	108.9608208466609
13	5.0	perception	291	diff_vonmises	-0.0520740196168209	-2.983621546325294	1.9680131583246532	2.8307718581033754	0.2430261546648612	3.521150697921405	0.7420390185083948	-0.415341909816236	1.1573809283246308	89.2726073411182
14	5.0	wm	291	diff_vonmises	0.056925748908797	3.261605158095521	0.6454921280445408	121.3141235202136	0.6274087622530892	122.22229069352886	0.170642222290752	-0.2893676827788205	0.4600099050695725	108.13255248880516
15	6.0	ltm	291	diff_vonmises	-0.0649634588313214	-3.7221320136065934	0.4329961978796107	116.58831759561347	0.4212016331968085	117.3411673443513	0.0789587024882614	-0.2402439842090693	0.3192026866973307	128.34181446852108
16	6.0	perception	291	diff_vonmises	-0.1079147960466661	-6.183062360489034	0.4663066855665616	93.71007934656652	0.4382033490120957	94.41220063009251	0.3230642267376744	-0.3781948063945126	0.7012590331321871	129.0782945005453
17	6.0	wm	291	diff_vonmises	-0.0245933494486082	-1.409095127495641	0.5328981719129067	142.1889003444946	0.5200926689201674	142.9397391320383	0.1535467998306927	-0.2670609894258309	0.4206077892565236	119.26209616692245
18	7.0	ltm	291	diff_vonmises	0.0862330565703605	4.940790195994532	1.747704663854715	1.3090563457092708	0.2349255864691652	2.7524142638181543	0.0757425598184556	-0.3394658848955043	0.4152084447139599	88.37620547673436
19	7.0	perception	291	diff_vonmises	0.0218419220836636	1.2514499518475135	0.8684487065670256	302.89037678231944	0.852606586928364	304.1514398568664	0.5197397958989853	-0.4823489505217573	1.0020887464207426	95.34107252702157
20	7.0	wm	291	diff_vonmises	0.0651145235098483	3.7307873821196864	1.4375845761110582	1.542179695397122	0.2781410343963716	2.9384712061573586	0.045177087508885	-0.3238680827767844	0.3690451702856695	92.9074722793496
0	1.0	ltm	458	diff_vonmises	0.0028404694407824	0.1627469107927199	5.511462540988282	0.3438724901547846	0.0073487028755458	3.293473179263389	-0.2140295610873765	-0.5230500294146951	0.3090204683273185	57.54616838320575
1	1.0	perception	458	diff_vonmises	-0.0290132458189586	-1.6623365354019135	14.44834052190213	0.6324751231555382	0.0172718442583963	3.618975142554151	0.3643203475047027	-0.5802355999670982	0.9445559474718008	35.519199033974104
2	1.0	wm	458	diff_vonmises	-0.0100791479746237	-0.577492640033772	4.121697912160972	0.5339885261619617	0.0845288542909322	3.737983762733685	-0.2289625310209851	-0.5888782602904451	0.3599157292694599	62.51318163989873
3	2.0	ltm	458	diff_vonmises	-0.0838329226668523	-4.803272653057254	2.7464042722896926	0.9625228977613324	0.220431602590403	2.75705129889507	0.0587971342367639	-0.395264475457695	0.4540616096944589	73.07716624385003
4	2.0	perception	458	diff_vonmises	-0.0421793091030496	-2.4166963943824773	7.101547112619948	1.13746197957698	0.1425771022492776	3.0687118442770083	0.62579969870105	-0.4991544594601526	1.1249541581612026	49.59828520646835
5	2.0	wm	458	diff_vonmises	0.0054373156363851	0.3115352378453576	3.747844541934711	0.7816335567337533	0.158664117434122	2.7754090198196137	0.0654303328628826	-0.4261168827170184	0.4915472155799011	65.18486513060088
6	3.0	ltm	458	diff_vonmises	-0.0404684178908342	-2.3186695487165125	1.8237973434529489	2.2467018490458592	0.4955855443136435	3.779115838908437	0.1666336537475237	-0.3913774304475759	0.5580110841950996	80.02009239588114
7	3.0	perception	458	diff_vonmises	-0.0367267558579356	-2.1042881058670866	3.850367142424557	2.283056495749022	0.2340479205335647	3.8035476976041305	0.964470316274446	-0.5605801712561462	1.525050487530592	65.69638174629696
8	3.0	wm	458	diff_vonmises	-0.0452179275027517	-2.590796404236207	2.23146824265898	1.5426791337955943	0.3573157607019428	3.290857628016259	0.1245889823913932	-0.4168396651233299	0.5414286475147232	76.65553463199089
9	4.0	ltm	458	diff_vonmises	-0.1010203118110282	-5.788037511867498	1.8443416918609723	1.397213460387824	0.1851344968394028	3.609542014505741	0.0008146048165558	-0.4770526663245087	0.4778672711410645	87.0534575151868
10	4.0	perception	458	diff_vonmises	-0.0947804676835692	-5.430520778544611	1.647410448982561	4.715988909606981	0.4213218785106933	6.808413736660179	0.5819248089693423	-0.6610211069446056	1.242945915913948	87.72804264188923
11	4.0	wm	458	diff_vonmises	-0.1539055912458275	-8.818140821851506	0.8137603526890601	310.1936085386853	0.8024240922148635	312.58626431351945	-0.0561343691843347	-0.5115297552801721	0.4553953860958373	87.4976662840611
12	5.0	ltm	458	diff_vonmises	-0.0116369497704059	-0.6667481082499954	1.4841753887569884	1.7736803588427907	0.1188599357609664	3.091451361872984	0.2111719309801037	-0.3961137475103917	0.6072856784904954	103.115540584447
13	5.0	perception	458	diff_vonmises	-0.048629466633755	-2.786263198086424	1.8877677434598537	3.015651418765544	0.2336806601806249	4.278078446901007	0.6537341797085653	-0.5105325122670131	1.1642666919755784	90.0278912443876
14	5.0	wm	458	diff_vonmises	-0.0673730496160191	-3.860191395923386	0.6821686505494213	260.2973388559571	0.6709665478819862	261.68154224132275	0.1688916309382477	-0.3872750223550341	0.5561666532932819	103.15098494534632
15	6.0	ltm	458	diff_vonmises	-0.0913659270702758	-5.234882012426884	0.9389429121645736	1.4931020963824808	4.056909772192317e-15	2.5973178607764718	0.0795411462181297	-0.338001326696926	0.4175424729150557	131.10489305586492
16	6.0	perception	458	diff_vonmises	-0.0598436230096316	-3.4287870292238765	0.9990366023637712	2.204977346966453	3.5714432845650783e-19	3.3196512422951865	0.224702040514688	-0.4262236267408015	0.6509256672554895	128.60174122646643
17	6.0	wm	458	diff_vonmises	-0.1204130715786487	-6.899160799663257	0.50176134819948	224.3421876887588	0.4927264821327819	225.43957784932525	0.1093950379521402	-0.329661987761245	0.4390570257133852	120.11488588563812
18	7.0	ltm	458	diff_vonmises	-0.0331376692711577	-1.898648592137696	0.7666674860541004	211.9739596497999	0.7518160030161669	213.5706381637456	0.1309412681977164	-0.4072996950043439	0.5382409632020604	95.85622859092275
19	7.0	perception	458	diff_vonmises	-0.0067376487510278	-0.3860388372754856	0.7574640533096226	335.3764137258981	0.7441774597817544	336.81091878762487	0.4303455442377668	-0.5034565283689751	0.933802072606742	101.02785549167332
20	7.0	wm	458	diff_vonmises	0.0648941221438614	3.718159314049719	1.225171340647737	4.711072314046616	0.6406406079244399	6.263850805274154	0.0963187262902314	-0.3778836940468859	0.4742024203371173	86.17072594579142
0	1.0	ltm	147	diff_vonmises	-0.0910655274796975	-5.217670383719288	3.1377398861594425	0.2853714991804141	2.379651672392135e-18	1.5419859951214123	-0.0536864916876377	-0.2450538659676735	0.1913673742800358	77.53662750744891
1	1.0	perception	147	diff_vonmises	-0.0571440230915662	-3.2741113475448618	15.856788595581865	0.5901578898949054	2.2822747691170967e-24	2.0601513294240528	0.6018699114042587	-0.3278832675951619	0.9297531789994208	34.01617097793769
2	1.0	wm	147	diff_vonmises	0.0131867283330645	0.7555438790701797	5.224490673952176	0.3089443599535659	1.4329797858376369e-18	1.7012315879137825	0.0034586710169561	-0.2707514695743311	0.2742101405912873	59.70420276576726
3	2.0	ltm	147	diff_vonmises	-0.0279793948062723	-1.6031012357296612	4.310526543649848	0.4611133552560638	0.1462898627781481	1.317237493633338	0.1278166146357365	-0.20398384928697	0.3318004639227065	62.321107140669966
4	2.0	perception	147	diff_vonmises	-0.0224046385577967	-1.2836912308778254	7.592324342661045	1.1346258242748186	0.2859950195639921	2.0576579230967145	0.7980617147180297	-0.3469152644820356	1.1449769792000652	47.60302126587342
5	2.0	wm	147	diff_vonmises	0.0350643618305671	2.0090399442111138	4.792478003746117	0.4251209556657187	0.182418841549478	1.4030238405415612	0.0946171468393173	-0.2219458579224347	0.316563004761752	58.400416392243216
6	3.0	ltm	147	diff_vonmises	0.0455775990600854	2.6114040664823217	1.5432616930014933	158.7457026446188	1.527406756775274	159.33438306006337	0.1791973549505314	-0.2070409242102364	0.3862382791607679	69.49379144517869
7	3.0	perception	147	diff_vonmises	-0.032226243962669	-1.846427768619885	4.571878447903555	1.9582635990121176	0.3769020645426222	2.5945499534097283	1.0374703205167974	-0.3886537264874286	1.426124047004226	60.021910593128354
8	3.0	wm	147	diff_vonmises	-0.0433030220103572	-2.4810804013555816	1.3990491118808677	40.38157756868646	1.3372154744634597	41.20585569582393	0.1151221465901493	-0.2385969420819149	0.3537190886720642	71.57074614755646
9	4.0	ltm	147	diff_vonmises	-0.1366329881784848	-7.828493564888053	1.346312190710504	183.92290170486007	1.3317794356431203	184.90800084782384	0.0852994152342745	-0.2680737339576602	0.3533731491919347	71.21083628403366
10	4.0	perception	147	diff_vonmises	-0.1031123211281765	-5.907900816442145	2.475287458964809	2.387389208770623	0.2811090097499606	3.518566197709319	0.6715050919875567	-0.4486949667635936	1.1202000587511505	79.13400552429371
11	4.0	wm	147	diff_vonmises	-0.1571005702096694	-9.001199632112728	1.2560143788378677	259.2478335986573	1.2443655281587191	260.4859305538006	0.0740079182746029	-0.3197644265370556	0.3937723448116585	73.087221528903
12	5.0	ltm	147	diff_vonmises	0.0739259531247924	4.235645110532564	1.5808305595750576	1.5953887730434493	0.3744411658186022	2.2056469317658847	0.2203660040065927	-0.2145533397334102	0.434919343740003	91.27734109214526
13	5.0	perception	147	diff_vonmises	-0.0445769207219277	-2.554069421055722	2.380563599821455	1.9434297183714	0.1417106502100584	2.5339609032865504	0.6503437037033878	-0.344059779792907	0.9944034834962948	84.59698675808241
14	5.0	wm	147	diff_vonmises	0.0270016917244548	1.547082975524583	0.7352364844090881	38.709731969304485	0.6862803103455479	39.42568828062178	0.159470372844817	-0.2307211255596462	0.3901914984044632	102.76908599206592
15	6.0	ltm	147	diff_vonmises	-0.2096064859504577	-12.009567003529416	0.4640427570095846	116.64805403415504	0.4515543352596846	117.25883498029188	0.1251524470563829	-0.229215718145431	0.354368165201814	126.38868662453451
16	6.0	perception	147	diff_vonmises	-0.0554855431644761	-3.179087447315436	0.6543820989263269	154.15463511630173	0.6369668560539723	154.92530434633238	0.3000294264871641	-0.3234168288211947	0.6234462553083588	110.14134840007983
17	6.0	wm	147	diff_vonmises	-0.1273041767421018	-7.29399204170993	0.5418908424837562	86.65139280634456	0.5226674432729497	87.30922814780456	0.1476854949811112	-0.2406085380445475	0.3882940330256588	118.9459870322441
18	7.0	ltm	147	diff_vonmises	0.0215844700110343	1.2366990346589626	1.0552691139539574	181.17329064553732	1.039436054514304	182.11003901963977	0.2131372390544328	-0.2838697466553235	0.4970069857097563	84.07371905131563
19	7.0	perception	147	diff_vonmises	-0.0824299926471678	-4.722890683977124	2.1121167391357565	1.686149061082932	8.301481689196619e-21	2.639334349079276	0.4788541612049749	-0.4069054108449337	0.8857595720499086	94.51085186025652
20	7.0	wm	147	diff_vonmises	0.195264213435599	11.187815319801526	2.687204639281206	0.6768887919784665	0.1298222772447977	1.5616244265484989	0.1343070861956568	-0.2254495231787859	0.3597566093744427	78.13772855673142
0	1.0	ltm	268	diff_vonmises	-0.0656316205697096	-3.760414861248365	4.064678728387712	0.372684138137107	1.035519055536016e-18	2.915160990088973	-0.1749140421267653	-0.4638770762794503	0.2889630341526849	67.90045708876312
1	1.0	perception	268	diff_vonmises	-0.0306981723306578	-1.758875713311978	14.13016975131909	0.7398145915938364	0.0202343839874781	3.3868396154613034	0.5491716358249698	-0.5435326379303052	1.0927042737552748	35.92023606665262
2	1.0	wm	268	diff_vonmises	0.0195851119105203	1.122144253764218	4.400509632353678	0.4216674582373478	2.620587851180684e-19	3.1296546288161213	-0.1566669200507729	-0.4980485904895743	0.3413816704388013	65.18944993036203
3	2.0	ltm	268	diff_vonmises	-0.0675993249232177	-3.8731560160338954	3.3962676800885245	0.5875352714685473	0.0719852654849248	1.9961795813475007	0.0717391853462945	-0.3057554425477723	0.3774946278940669	71.02652162127978
4	2.0	perception	268	diff_vonmises	-0.0405780051751302	-2.3249484375949785	7.365509679146782	1.2037071397385342	0.1860352674061372	2.5937817411628594	0.7864893051399886	-0.4261427673887758	1.2126320725287645	48.67266671371942
5	2.0	wm	268	diff_vonmises	-0.004596008294489	-0.2633318778813397	3.866487165048648	0.7055183560064859	0.1535999795990814	2.225317256477031	0.1218939253548831	-0.3412933615483659	0.4631872869032491	64.90600735573776
6	3.0	ltm	268	diff_vonmises	-0.0424304191211337	-2.43108393861215	2.445048327549868	0.9134549363492306	0.2186999081544054	1.7727681282019196	0.1843681456811914	-0.2390009114259264	0.4233690571071179	79.34236096703765
7	3.0	perception	268	diff_vonmises	-0.0256628405653194	-1.470372454709928	3.687685608232832	2.224038678523717	0.3122928485131857	2.966949573595329	1.005309282993407	-0.420009166895779	1.425318449889186	66.7069598775056
8	3.0	wm	268	diff_vonmises	-0.1095571994151999	-6.277165141764086	2.605343013931248	1.17540746757737	0.3792981039676567	2.1258539018809173	0.2325788263937641	-0.2743346185615404	0.5069134449553045	73.76492365743661
9	4.0	ltm	268	diff_vonmises	-0.1301901942088092	-7.4593486621533	2.2201336449992053	1.1015238238488978	0.259983406410478	2.630497462961418	0.0711429372229426	-0.3488312277342446	0.4199741649571872	79.040709153395
10	4.0	perception	268	diff_vonmises	-0.1006604860369582	-5.767421013653259	1.94797919726154	3.9888304688366536	0.444065246164855	5.390018128820813	0.7513592543553345	-0.5542283818831945	1.305587636238529	83.35265653614337
11	4.0	wm	268	diff_vonmises	-0.141107005668664	-8.084835884543029	0.9562744271681408	309.4872442871318	0.9459501588614264	311.1847488655427	0.0440863609925088	-0.3960785588806956	0.4401649198732045	83.03101151507221
12	5.0	ltm	268	diff_vonmises	-0.0267348778761489	-1.531795668101011	0.5832191249961717	90.7215635908073	0.5579588526209125	91.83470666106405	0.1456080663215821	-0.3364857669298464	0.4820938332514286	113.073402910888
13	5.0	perception	268	diff_vonmises	-0.0154185845578211	-0.8834198212287345	1.9690130429722756	2.7371776060193245	0.2087881935483605	3.7170555658407527	0.6777257187471772	-0.4566289382590608	1.1343546570062382	89.64666614846536
14	5.0	wm	268	diff_vonmises	-0.0429695340740057	-2.461972950084112	0.617531574448222	208.0928922912709	0.6058915972114962	209.24246215280868	0.152374837838856	-0.3389109542910233	0.4912857921298794	109.05694352001244
15	6.0	ltm	268	diff_vonmises	-0.1147723778153068	-6.575972853498004	0.354347594753407	150.9546824130189	0.34386987890845	151.9975607053533	0.0593932163455335	-0.3161572338734331	0.3755504502189666	136.65802570608315
16	6.0	perception	268	diff_vonmises	-0.0330581120054166	-1.894090296581133	0.4272015975778348	162.52570746610618	0.4088072299232714	163.54094505825736	0.3172181029706493	-0.4643819564389311	0.7816000594095804	131.91937254005978
17	6.0	wm	268	diff_vonmises	-0.1422824573368262	-8.15218430415034	0.4587431321243462	202.9390551241188	0.4480943172614784	204.007797794938	0.1473567611603314	-0.357079545350448	0.5044363065107795	125.92401183593788
18	7.0	ltm	268	diff_vonmises	0.1267994581482417	7.265073796439969	0.7227119844078795	149.8710331913131	0.7067349332120676	151.07326408747304	0.1130103007553273	-0.3163546770761876	0.4293649778315149	99.3690230758688
19	7.0	perception	268	diff_vonmises	0.0377402445814569	2.1623567323089574	0.8310455925837423	168.62981680724943	0.8070224931856196	169.689730320144	0.450214379070907	-0.4174545582923183	0.8676689373632254	97.88595499208436
20	7.0	wm	268	diff_vonmises	0.1147317018908337	6.5736422946979	0.8186583870730495	105.97274987530496	0.7958245713242462	107.16413929508448	0.1012436075766842	-0.3029746662901704	0.4042182738668547	92.9200168699575
0	1.0	ltm	435	diff_vonmises	-0.0209860073880592	-1.20240965216616	6.349566579292588	0.3391431062683132	0.0416624657135581	2.8135248375551023	-0.1329995198932713	-0.4494290538857806	0.3164295339925093	52.4836083764161
1	1.0	perception	435	diff_vonmises	-0.0200192434888913	-1.1470181609582248	13.248473581512132	0.715843455712015	0.066316109193286	3.327812501907608	0.4639318644741929	-0.5460552640247739	1.0099871284989668	36.831562463903424
2	1.0	wm	435	diff_vonmises	0.0241325600487293	1.382693839638217	4.601566230989213	0.4483486940149774	0.0385185828655552	3.134288000445931	-0.1463908541051184	-0.4949456043654303	0.3485547502603118	61.49309383098884
3	2.0	ltm	435	diff_vonmises	-0.0262511129246918	-1.504077978106169	2.9497258834648155	0.7647773167874903	0.2842925084862782	1.8815556190749847	0.106029774704537	-0.2676338865120844	0.3736636612166215	70.35580828900137
4	2.0	perception	435	diff_vonmises	-0.0266022863829813	-1.5241987351431727	7.141477883129155	1.206765665091177	0.3392971674688506	2.333116815781434	0.7554336585057195	-0.3960749931355862	1.1515086516413058	48.55378870476733
5	2.0	wm	435	diff_vonmises	0.0242417518887907	1.388950071231002	3.8881776500634735	0.7384248544803612	0.2609675142805018	2.013250073183404	0.1499896423763357	-0.3071471741243322	0.4571368165006679	63.04655683377706
6	3.0	ltm	435	diff_vonmises	-0.0044388739226351	-0.254328741557675	2.3230141603544374	1.222057739535599	0.5854488522377551	1.9840319539533808	0.1682335513401682	-0.2230842741699749	0.3913178255101432	72.96152508003019
7	3.0	perception	435	diff_vonmises	-0.0193372889145356	-1.1079450420280077	4.421683895739834	1.8349083308080147	0.3456995203312091	2.545804656326414	0.9338442701050363	-0.3796156233171372	1.3134598934221735	61.067551218245285
8	3.0	wm	435	diff_vonmises	-0.0386837069284361	-2.216413142920372	2.719763541602052	1.0445572291110352	0.4581511684366849	1.9998539499732688	0.1687826013276949	-0.2605332356496601	0.429315836977355	70.32924789245726
9	4.0	ltm	435	diff_vonmises	-0.1487344122847892	-8.521854092277168	1.0021546302945403	62.67912104846843	0.9566055222239878	63.98136403229873	0.1066751314965124	-0.3287780458867049	0.4354531773832173	83.85181632473257
10	4.0	perception	435	diff_vonmises	-0.0781598254598682	-4.47822812632961	2.444268114999171	2.514822696203132	0.2454312029707618	3.723002575772359	0.7164019150998936	-0.4817047709008168	1.1981066860007106	80.37055314300454
11	4.0	wm	435	diff_vonmises	-0.1270045579309634	-7.276825148368972	1.037672738980765	320.95079127340364	1.0271064567076027	322.4621125629359	0.1154353092397997	-0.3809142670212466	0.4963495762610463	81.37676873927003
12	5.0	ltm	435	diff_vonmises	-0.0084575125294501	-0.4845797731165046	0.6980597908080065	87.06353578195332	0.6689914512292019	87.97391139698513	0.2282780018907679	-0.3098585547643608	0.5381365566551288	105.32332936675743
13	5.0	perception	435	diff_vonmises	-0.0241252230658635	-1.3822734614856478	1.9142874859076595	2.761252584951883	0.2679703252667956	3.606353849885745	0.6500877706915932	-0.4152564579090663	1.0653442286006596	89.15184522887455
14	5.0	wm	435	diff_vonmises	0.0064448709341274	0.369263904032041	0.6938061014308855	180.9423847258604	0.6794313368295379	181.8432183286729	0.2426166176113682	-0.3141073755428856	0.5567239931542538	105.3515173034101
15	6.0	ltm	435	diff_vonmises	-0.0914880190502864	-5.241877367593889	0.4623257600889043	178.71992638523477	0.450957602957685	179.40992730105984	0.2130161154664449	-0.30437102726356	0.517387142730005	127.7359068593752
16	6.0	perception	435	diff_vonmises	-0.016841552899848	-0.9649499016076072	1.0244822774337856	3.8064550540822215	0.226932298799966	4.595386015636392	0.4123239362547959	-0.4055683974593541	0.8178923337141499	115.32758316031752
17	6.0	wm	435	diff_vonmises	-0.1233374067017413	-7.066712860098335	0.5185150770964931	140.9171541685419	0.501259071204682	141.57489697734405	0.2927252073711699	-0.3314847122742854	0.6242099196454554	123.22062818258776
18	7.0	ltm	435	diff_vonmises	0.0429543889004921	2.461105195561787	0.7689236092268392	226.94493543371104	0.7569694414388093	228.1002636077472	0.1766642586440809	-0.3290721714756657	0.5057364301197467	97.65552539648968
19	7.0	perception	435	diff_vonmises	-0.0294628106258955	-1.6880947014570094	1.7834327140547184	2.3221762218048023	0.1803197213433126	3.360091675819788	0.4821938149137871	-0.4141281617590397	0.8963219766728269	93.98382700583224
20	7.0	wm	435	diff_vonmises	0.2016909122443733	11.55603803774605	1.5051668869310764	2.0054549256728675	0.3891851083064367	3.073057865713252	0.1752330749317144	-0.2973604676719167	0.4725935426036312	90.24081816169462
0	1.0	ltm	245	diff_vonmises	0.0014406241644724	0.0825416844888327	6.426451584622314	0.3463612743500967	0.0278760460620586	3.618240241930073	-0.249122807370282	-0.5770191208832849	0.3278963135130028	52.38429005320384
1	1.0	perception	245	diff_vonmises	-0.0058389754517311	-0.3345486500646868	12.798824672320473	0.7304516758167527	0.0575350310946539	4.024660451945517	0.3538199323299142	-0.6573484701037214	1.0111684024336358	37.45605589588757
2	1.0	wm	245	diff_vonmises	0.0035635745167314	0.2041777797890822	4.177701252418774	0.5303498445114878	0.0760099349196345	4.062361072372124	-0.2790806663463988	-0.6410321663388688	0.36195149999247	62.217122987666926
3	2.0	ltm	245	diff_vonmises	-0.0477188533214441	-2.73408889852258	2.826466336502073	0.8599591613669368	0.215838262577128	2.497193192245032	0.0568283146696544	-0.3607005686129982	0.4175288832826527	72.34512022059891
4	2.0	perception	245	diff_vonmises	-0.0323832102626204	-1.8554212751328856	7.161843607582299	1.2183949536642331	0.2258429338790687	2.9471237554074983	0.6959371870739232	-0.489599237878619	1.1855364249525422	48.87571871529306
5	2.0	wm	245	diff_vonmises	0.0149052341161115	0.8540070075075981	3.6760960542404137	0.8218670946179557	0.186920665434127	2.6785832697034864	0.0937976718854221	-0.4085195710333084	0.5023172429187305	65.3367141536755
6	3.0	ltm	245	diff_vonmises	-0.015149189371028	-0.8679846140043525	2.552514556508609	1.0352931802599967	0.2729781289888527	2.247852441330989	0.1562326761260352	-0.3044660533301401	0.4606987294561753	75.57809967857199
7	3.0	perception	245	diff_vonmises	-0.018769937930185	-1.075438225122125	4.170419466492061	2.0384666053734875	0.2547401041073522	3.20336737852403	0.95609198017467	-0.4775894585581636	1.4336814387328336	63.29364814743616
8	3.0	wm	245	diff_vonmises	-0.0416754081114135	-2.387824994269272	2.858855802109245	1.0126987597868236	0.2478391786441914	2.435201467920054	0.1561482347953813	-0.3449297394479795	0.5010779742433609	72.3532471729811
9	4.0	ltm	245	diff_vonmises	-0.1048111932569496	-6.005239019353248	1.7316992599690295	1.433853870099111	0.1904515209740142	3.505258463431672	0.0089146788342131	-0.4524256033757159	0.461340282209929	89.26510557800768
10	4.0	perception	245	diff_vonmises	-0.0701557500757717	-4.019628387916326	1.9818268860272377	3.4399094508175847	0.3220296480903079	5.336138885666344	0.62270039398413	-0.6179100338702835	1.2406104278544134	84.67579691219947
11	4.0	wm	245	diff_vonmises	-0.1155611884339976	-6.621168372784087	0.8147024270248545	335.0666364699945	0.804279515299184	337.3224515003513	-0.0199405706654545	-0.4938134828314986	0.4738729121660441	88.42354764488576
12	5.0	ltm	245	diff_vonmises	-0.0289968621375829	-1.661397819606196	1.4715922151226442	1.674432252133755	0.0969960085721532	2.937300945754275	0.2030292220102821	-0.3854939522474385	0.5885231742577206	104.89473641941282
13	5.0	perception	245	diff_vonmises	-0.0353645019748176	-2.026236707739115	1.8888872996044168	3.057884782209669	0.2432431313435244	4.229770268663081	0.6778179938005705	-0.499063024344734	1.1768810181453049	89.90242742953376
14	5.0	wm	245	diff_vonmises	-0.0304168014711993	-1.7427543505870344	0.6644698917842825	247.4990588063659	0.6526187557845466	248.79532225859955	0.2006238283911301	-0.386382923222655	0.5870067516137851	105.48982092296583
15	6.0	ltm	245	diff_vonmises	-0.0633714954794568	-3.630919232405253	1.0122377627541377	1.586762949140651	8.289587140619089e-20	2.566574895087113	0.1373904904369433	-0.3363903033722453	0.4737807938091886	128.0501788818866
16	6.0	perception	245	diff_vonmises	-0.0395555246812796	-2.266364620662884	1.020179667853683	2.483290430349099	4.0210025058026944e-22	3.4845218079975053	0.3034494642162955	-0.4430481760466592	0.7464976402629547	127.73887024176436
17	6.0	wm	245	diff_vonmises	-0.0998618053964209	-5.721659983771667	0.4876252792943416	236.7947165101876	0.4779167893723681	237.78271118148615	0.1887775943413956	-0.3553516837791939	0.5441292781205895	123.6492725923674
18	7.0	ltm	245	diff_vonmises	0.0167702125394672	0.9608624000488452	0.708542507876958	215.6497785539171	0.6955452808488044	217.1427271091129	0.1107149066108448	-0.3811404601952262	0.491855366806071	99.6018350824265
19	7.0	perception	245	diff_vonmises	0.00777240897227	0.4453262307606853	0.7827338078273323	318.3253123291074	0.7693298377729422	319.6132816100949	0.4312224889350347	-0.4665531715555957	0.8977756604906304	99.7441851274754
20	7.0	wm	245	diff_vonmises	0.1104596586979116	6.3288722498458725	0.8457992225730776	132.9444482310365	0.8241402456515615	134.39711096488597	0.1018337550887054	-0.3600852145341164	0.4619189696228218	90.76777021475428
0	1.0	ltm	366	diff_vonmises	-0.0390300295446976	-2.2362559671820867	5.795153103634774	0.3410131527538548	2.8701744504936473e-18	2.8423115912696093	-0.1326234065445191	-0.4523649799111163	0.3197415733665972	56.62480047202729
1	1.0	perception	366	diff_vonmises	-0.0210421412020224	-1.2056258827942252	12.548747031200236	0.7919324379096235	0.048592686090861	3.411571977937832	0.5378439554962676	-0.553908297737432	1.0917522532336996	37.94997948678758
2	1.0	wm	366	diff_vonmises	0.0105590814093819	0.6049908002926322	5.742702189111388	0.4034859892032997	1.982662592783452e-18	3.069212409500221	-0.1120012656616458	-0.4884764554738767	0.3764751898122309	56.89072330050112
3	2.0	ltm	366	diff_vonmises	-0.0794221725272447	-4.550555285571002	2.766668207332915	0.9316767706998156	0.3135941170740133	2.1939567542522425	0.1161957610261377	-0.3041864514281343	0.420382212454272	71.58356963621563
4	2.0	perception	366	diff_vonmises	-0.0379186983493603	-2.172581380048027	7.155929807095228	1.2175310754497983	0.2198698688028101	2.4690370868853764	0.7912124727951628	-0.4071548004806216	1.1983672732757844	49.18724953592678
5	2.0	wm	366	diff_vonmises	0.0085109309968466	0.4876404258463846	3.956300836021649	0.7117320468633841	0.1878789418992395	2.0462929634686544	0.1543251671723799	-0.3134819211380359	0.4678070883104158	63.841119130926245
6	3.0	ltm	366	diff_vonmises	-0.0335923981503805	-1.9247026377398804	2.259309194177756	0.9936069452583648	0.3144523283654887	1.7107642730424668	0.1876936684766879	-0.212880813415555	0.400574481892243	79.90367208785466
7	3.0	perception	366	diff_vonmises	-0.0200251040178327	-1.147353944532287	4.054349716740771	1.9059495785374592	0.2950339953210976	2.5365282958048647	0.9455813355120678	-0.3696491223831335	1.3152304578952014	64.13632161298372
8	3.0	wm	366	diff_vonmises	-0.0776041885965359	-4.446392479118782	2.40583200778027	1.2589420830712343	0.4950006622536483	2.037537256045666	0.224492623566791	-0.2399366217812746	0.4644292453480656	74.28287824424652
9	4.0	ltm	366	diff_vonmises	-0.1578327909541207	-9.043152790441717	1.957898242783048	1.415594232794834	0.355042540622824	2.7849732532318563	0.108235486587556	-0.3314780904065491	0.4397135769941051	80.9692389185814
10	4.0	perception	366	diff_vonmises	-0.0973091792394341	-5.575405278301626	2.1767688793073163	3.0754037240653496	0.3277943899311534	4.4080892741771605	0.7213725193099797	-0.5207448942145139	1.2421174135244937	82.35157929647443
11	4.0	wm	366	diff_vonmises	-0.1450894258746559	-8.313011754593987	1.0091788331114306	311.69130304535145	0.9990104106138816	313.19640904686383	0.085309719906661	-0.3684680204805346	0.4537777403871956	81.9128660699956
12	5.0	ltm	366	diff_vonmises	-0.0354280130895513	-2.0298756265655262	1.0919278411403397	2.2289745208311267	0.1759616817160346	3.065226993866814	0.2230270008256651	-0.3158696293105082	0.5388966301361734	114.11328688408145
13	5.0	perception	366	diff_vonmises	-0.0356337567094129	-2.0416638676453425	2.142225376797656	2.485723541002752	0.1723478088303648	3.1501513237949195	0.7452687281455181	-0.4060792452832179	1.1513479734287362	87.96207784014703
14	5.0	wm	366	diff_vonmises	-0.0175178067770054	-1.003696394648084	0.7061161353303866	201.79661401720173	0.6940915762337937	202.57177304554523	0.2427980457763467	-0.2843531394191281	0.5271511851954749	104.88187864799876
15	6.0	ltm	366	diff_vonmises	-0.054324045510938	-3.1125385338533555	0.4136033583877152	73.50322124552055	0.3924096498273118	74.09901501913522	0.1508364689528889	-0.2522548959828956	0.4030913649357845	133.10207320427668
16	6.0	perception	366	diff_vonmises	-0.0559106593917913	-3.203444812943123	0.920058925533052	2.69399496059963	8.646344725430555e-09	3.2813181603419013	0.3574574444918329	-0.3825418764161666	0.7399993209079996	131.96483602098834
17	6.0	wm	366	diff_vonmises	-0.1455907129224143	-8.341733386755118	0.5317881815333906	153.1538602473846	0.5187245170419719	153.68412253890008	0.2426394474990729	-0.2676841161046681	0.5103235636037411	121.77974871028788
18	7.0	ltm	366	diff_vonmises	0.1141739631289135	6.54168621756902	0.7151878182066739	79.41075450010439	0.6860962726325086	80.3210497796622	0.1836875679742355	-0.2858766427228243	0.4695642106970599	103.14549612422246
19	7.0	perception	366	diff_vonmises	-0.0070864560006941	-0.4060240205449312	0.9265565712867904	259.38006567029663	0.9111811315550292	260.0832771109698	0.5303354170582253	-0.3589388004516998	0.8892742175099251	94.13510087856892
20	7.0	wm	366	diff_vonmises	0.1401061548464533	8.027491356508161	1.224316757723095	2.9624537722379496	0.5229601001533551	3.7794389505917	0.1876789419612498	-0.2519430563831017	0.4396219983443515	93.6035578165486
0	1.0	ltm	3	diff_vonmises	0.0012608809778006	0.0722431584963036	3.4682505927645755	0.2863300809905942	1.997816800050089e-15	2.575892955046444	-0.2064665225652164	-0.4097683625078522	0.2033018399426358	73.66042030017798
1	1.0	perception	3	diff_vonmises	-0.0056033294366999	-0.3210471279443258	12.429503489649536	0.7219514121079154	0.0342016406453102	3.158940898529001	0.4845143141010726	-0.5093739056428883	0.9938882197439608	38.21519504131419
2	1.0	wm	3	diff_vonmises	0.0499687085147933	2.8629961056170776	4.167539742292133	0.371340021974382	1.9264260984535746e-23	2.7745015492213265	-0.1496208826577254	-0.4415055799268779	0.2918846972691525	67.03453622844555
3	2.0	ltm	3	diff_vonmises	0.0415177681968804	2.3787928924837245	3.840730387321466	0.518702889504578	0.1312369152818864	1.8021577704035687	0.0643632074009778	-0.2773262478180309	0.3416894552190088	65.33051119747819
4	2.0	perception	3	diff_vonmises	-0.0070229665263222	-0.40238634161992	6.992856852738911	1.3525970949042825	0.2990418211316853	2.5928926567591697	0.8549970220528588	-0.4338652248396604	1.2888622468925193	49.28916480552215
5	2.0	wm	3	diff_vonmises	0.0606526305093379	3.4751397445514765	4.2221352749719	0.571848527009772	0.1365190357040735	1.997721071061677	0.0899637232468792	-0.3106895075245375	0.4006532307714168	62.52518435563434
6	3.0	ltm	3	diff_vonmises	0.0716529625151358	4.105412341726375	3.321820615763506	0.5706920653129048	0.2170088717140131	1.3531981893068648	0.1314986746194572	-0.1985686135821059	0.3300672882015631	68.92768248613808
7	3.0	perception	3	diff_vonmises	5.229583348023802e-05	0.0029963305445365	4.658004655368095	1.8108076832869584	0.2184960558609243	2.543079084783637	1.0142055672510732	-0.386256668306501	1.4004622355575742	60.801450757656994
8	3.0	wm	3	diff_vonmises	-0.039193019043082	-2.2455945775444683	3.680436003473869	0.6253179503005167	0.1706298165964451	1.5910502783720897	0.1611238069107795	-0.2398103217405796	0.4009341286513591	66.6986184721128
9	4.0	ltm	3	diff_vonmises	-0.0906408415284933	-5.193337671096789	1.9376569437995452	1.0425654237334077	0.3295683976658682	2.7521606025149543	-0.0651732297364706	-0.3504594855299425	0.2852862557934719	77.84883760423375
10	4.0	perception	3	diff_vonmises	-0.0617101801446144	-3.535732875278419	2.1461403012713385	2.962032722592458	0.2892567000892159	4.647135694453742	0.6269154451037627	-0.5666706012979952	1.1935860464017578	83.05311925747256
11	4.0	wm	3	diff_vonmises	-0.0501458913436006	-2.873147933909925	0.9408152342515116	303.95735577040614	0.9304867222143652	305.9115044448856	-0.0452339585344958	-0.425013287030147	0.3797793284956512	81.0771021063681
12	5.0	ltm	3	diff_vonmises	-0.0142258438055539	-0.8150808100705661	1.887713709313388	0.8750730843185052	1.6919813611285432e-14	1.8128922680026365	0.147373602129676	-0.2785364638102183	0.4259100659398944	99.69743820334432
13	5.0	perception	3	diff_vonmises	-0.0320886288300089	-1.8385430023213276	1.9197596387000069	2.850423817085644	0.2598467854736452	3.646949917487612	0.6943587241317262	-0.4218778352997663	1.1162365594314925	89.46644714763346
14	5.0	wm	3	diff_vonmises	0.0709992427378192	4.067956957501905	1.3101072230599238	1.5640866524492263	0.1120634971718427	2.5950532894267693	0.1639949412215587	-0.3226156101880855	0.4866105514096443	109.14860758596387
15	6.0	ltm	3	diff_vonmises	-0.1035619591690846	-5.933663178494709	0.4671788734420771	154.72716903326793	0.4565252105077309	155.54929307001967	0.1099461272295982	-0.270853802366803	0.3807999295964013	124.93381970550432
16	6.0	perception	3	diff_vonmises	-0.0622883624972235	-3.5688602838718637	0.5357468395779197	213.07987740229936	0.5216702278587502	213.9016289371575	0.3568537365182749	-0.4023889764464279	0.7592427129647028	121.35994406450374
17	6.0	wm	3	diff_vonmises	-0.0053540695461355	-0.3067655882130927	0.4803045722788301	168.71651403477657	0.4679404811985223	169.6021850783707	0.1749996476916706	-0.3242361100206938	0.4992357577123645	124.71651114913122
18	7.0	ltm	3	diff_vonmises	0.0708704501903329	4.060577688098199	0.8614536706154081	166.6232634595237	0.8452440188172561	168.10665901228245	0.0520912234975909	-0.3483561570409783	0.4004473805385693	88.32572710837712
19	7.0	perception	3	diff_vonmises	0.0299845536719043	1.7179883759836163	1.3750945393211642	3.5148188220129275	0.2948984998828989	4.884567499442427	0.422946359338036	-0.4795996536255242	0.9025460129635604	98.85592776494148
20	7.0	wm	3	diff_vonmises	0.1008804935564718	5.78002651598253	0.7098516217993976	71.76357966824571	0.6791151432645549	73.2696542052061	-0.0022659322923601	-0.335558599152316	0.3332926668599558	96.39043846568076
0	1.0	ltm	412	diff_vonmises	-0.0070461978196729	-0.4037173966815455	6.939468539716147	0.2719230110290558	0.028708920030086	3.380240328158436	-0.2733516710402673	-0.5403473401699941	0.2669956691297267	50.29338795625753
1	1.0	perception	412	diff_vonmises	0.0075843403293287	0.434550691261396	12.00305966849259	0.7937465269758152	0.0893712734264025	3.9380132778491457	0.4008412876695221	-0.6521240124037208	1.0529653000732428	38.49082558985725
2	1.0	wm	412	diff_vonmises	0.0128848847677219	0.7382495167028671	5.536338835436218	0.3970287399615011	0.0630714338306414	3.763190459483477	-0.2738957530711251	-0.602248470652927	0.3283527175818018	54.93599321674287
3	2.0	ltm	412	diff_vonmises	-0.0608462678643129	-3.4862343477476183	3.518757817500921	0.6081604052377861	0.1145693998165741	2.2599716862214883	0.0336400341216595	-0.3456579343058143	0.3792979684274738	68.13961700849947
4	2.0	perception	412	diff_vonmises	-0.0288609259731879	-1.6536092511031688	7.789023378106508	1.229636370277618	0.2394611934747022	3.0460247392134674	0.7382471677049317	-0.5138749370327081	1.25212210473764	46.8850320457957
5	2.0	wm	412	diff_vonmises	0.0277204084317945	1.5882624095206863	3.8745182127812714	0.6919987440974291	0.1479718085301105	2.59243596772243	0.0470092894519623	-0.4004726845020109	0.4474819739539732	64.35353855413467
6	3.0	ltm	412	diff_vonmises	0.024493659019876	1.4033832866714395	2.4189823434178743	0.9691773134525228	0.4061381817308501	1.8963512334206751	0.1252842713452489	-0.2398931663229578	0.3651774376682067	74.21556290888984
7	3.0	perception	412	diff_vonmises	-0.0100533378549089	-0.5760138291053898	4.423841328528077	1.911912149955973	0.2992138790137034	2.862034624451596	0.9515095228481985	-0.4301194803059348	1.3816290031541332	61.293863857260845
8	3.0	wm	412	diff_vonmises	-0.0385119268317514	-2.206570868375989	2.977571632029864	0.8120077510702423	0.2744419833951737	1.966774548247451	0.1253238649047828	-0.2802825592136052	0.405606424118388	70.46580296436545
9	4.0	ltm	412	diff_vonmises	-0.0738850726392493	-4.233302831246501	0.8114496464376539	67.41361457052719	0.7694323268226118	69.36319152444308	-0.0396817909945177	-0.41847437895004	0.3787925879555223	88.75289927415795
10	4.0	perception	412	diff_vonmises	-0.0699116347034289	-4.005641607366821	2.15848687461354	3.0486584659874785	0.3445647395376776	4.914712337342431	0.5747441085434719	-0.5859229999601495	1.160667108503621	81.03822133176206
11	4.0	wm	412	diff_vonmises	-0.1167104039255549	-6.687013570201374	0.8402179152233086	267.6188623997895	0.828883106924139	269.7302379545332	-0.0737274234359972	-0.4444949750255844	0.3707675515895872	85.17556639757473
12	5.0	ltm	412	diff_vonmises	0.0007139679184119	0.0409073484327472	2.0231321613112017	1.026666609967879	1.4801871815229994e-10	2.288693393800325	0.1690776705161119	-0.3549301263940131	0.5240077969101251	96.48984720021068
13	5.0	perception	412	diff_vonmises	-0.0476792973885639	-2.7318225105138434	2.428685572491798	2.3683542869431458	0.1208145883584743	3.5432045235461898	0.7381773109833292	-0.4944978226169991	1.2326751336003283	83.89024386364969
14	5.0	wm	412	diff_vonmises	-0.0185100270980049	-1.0605464313884707	0.659715099489246	154.68113893085928	0.6421562554383193	156.0146263353127	0.1514699166925268	-0.3720539117692283	0.5235238284617552	105.01174152010022
15	6.0	ltm	412	diff_vonmises	-0.0589050752538704	-3.37501220394728	1.2374009477048151	1.1602210690022767	1.5151178059959153e-17	2.127029136509993	0.1093367522029166	-0.3008241650529129	0.4101609172558295	119.3025995428048
16	6.0	perception	412	diff_vonmises	-0.0839382224057691	-4.809305883681016	0.7780618599405481	2.7980184445299594	3.211687561816916e-15	3.785662273641706	0.2353699300037381	-0.4257533888665148	0.661123318870253	138.32189061679918
17	6.0	wm	412	diff_vonmises	-0.1273619234796116	-7.297300686049893	0.5035474217919718	179.20795054710308	0.4922612240987781	180.1847742700605	0.1382882755610026	-0.3180493812386729	0.4563376567996755	121.08792228908924
18	7.0	ltm	412	diff_vonmises	0.0931569054913355	5.337497517152609	0.7464664791325013	136.05220929081435	0.7285075437045142	137.29394985982194	0.1061974051989196	-0.3201474130367945	0.4263448182357141	97.46000779429612
19	7.0	perception	412	diff_vonmises	-0.0363649712680331	-2.083559375772802	0.8173762890778673	290.6497687778752	0.8042083913786413	291.6593530791729	0.4234613929059208	-0.3967440664449917	0.8202054593509125	98.34571747259082
20	7.0	wm	412	diff_vonmises	0.1137403013243273	6.516839226430204	0.8841490749079262	72.52850154762613	0.849884332969665	73.72658110079094	0.0987259032274749	-0.3019767560659421	0.4007026592934171	89.41489808392944
0	1.0	ltm	101	diff_vonmises	-0.0727231395590537	-4.166728969674659	3.267585175234277	0.4042560004107282	9.305715829563888e-20	2.5929353147992087	-0.1347923312834404	-0.4122751146458011	0.2774827833623606	75.94506436953128
1	1.0	perception	101	diff_vonmises	-0.068046971057958	-3.89880425026986	18.110639904934395	0.61073089908233	4.881727912311047e-18	2.9793118217124976	0.5553343123046501	-0.4741722034376634	1.0295065157423136	31.80852617153377
2	1.0	wm	101	diff_vonmises	-0.0687379743899189	-3.9383958248206974	3.998290371046586	0.4083054076189051	2.673177161743072e-20	2.8533864787848144	-0.1402759418737819	-0.454024915048137	0.3137489731743551	68.47522822646187
3	2.0	ltm	101	diff_vonmises	-0.018978442352243	-1.0873846485158607	3.22650455438324	0.653434355212282	0.090646861969432	2.0680649880772703	0.0863565133154875	-0.313283247914873	0.3996397612303606	72.21899331884924
4	2.0	perception	101	diff_vonmises	-0.0459036345370071	-2.630084523281471	7.098328735662014	1.180622594502878	0.1872440191563644	2.6723916171491857	0.7225186715490232	-0.4379764481990741	1.1604951197480973	49.463256118671325
5	2.0	wm	101	diff_vonmises	-0.055989745872834	-3.2079761345234084	3.2782431880420524	0.7973803521488715	0.1827152703377506	2.442676797683981	0.0862909698787463	-0.3648557713741546	0.4511467412529009	68.91580253675485
6	3.0	ltm	101	diff_vonmises	-0.02246485857162	-1.2871415835121187	2.230933154889357	1.5406455941595891	0.4023185950765123	2.867924736309419	0.193020446126288	-0.3483531331056057	0.5413735792318937	76.89127901918891
7	3.0	perception	101	diff_vonmises	-0.0466345772333711	-2.67196445484904	3.848833155428933	2.5737636581274983	0.2961633792021872	3.8821070322131614	1.1245527801897497	-0.5635889084992338	1.6881416886889835	65.21672735884613
8	3.0	wm	101	diff_vonmises	-0.1135398719410128	-6.505355468675873	2.507284006020253	1.331973176549016	0.3211463912777342	2.9506846109169835	0.1552041209047018	-0.3939291838986575	0.5491333048033593	74.46339496990785
9	4.0	ltm	101	diff_vonmises	-0.1511493427588407	-8.660219416257846	2.54689595525936	0.9753157413314952	0.13031830072201	2.805857733134874	0.0745187560278939	-0.4064385576764593	0.4809573137043532	78.7819978034855
10	4.0	perception	101	diff_vonmises	-0.0750332844468526	-4.2990905218092585	1.957393357656487	3.5169367535061125	0.2760618554250016	5.342745552705864	0.6911925381196282	-0.6320659156321188	1.3232584537517469	86.74480738352952
11	4.0	wm	101	diff_vonmises	-0.1586463744486277	-9.08976769095847	0.9086260943432972	428.0466540590039	0.8998005611053468	430.19217281206056	0.0270274377176633	-0.4886456699061909	0.5156731076238543	84.61613493776525
12	5.0	ltm	101	diff_vonmises	-0.001839006030352	-0.1053672840382771	1.30868520356309	2.1848138931580183	0.2698351793199491	3.056336808831892	0.2461706281963642	-0.302352511410767	0.5485231396071313	101.65562851174408
13	5.0	perception	101	diff_vonmises	-0.0075924581123756	-0.435015805968986	1.5083598174675426	3.7052201544328702	0.3410101215127488	4.541127410017187	0.6227570890734709	-0.4291100781431929	1.051867167216664	95.82430173812853
14	5.0	wm	101	diff_vonmises	-0.0689642867129694	-3.9513625657832896	0.6423283590135027	73.76976494341908	0.6087397869440293	74.82651224602243	0.1876753857206523	-0.3334823349045575	0.5211577206252098	108.89386066276148
15	6.0	ltm	101	diff_vonmises	-0.1798204793957859	-10.302954539397716	0.6985268367133658	1.8427973154681825	2.54250946991602e-21	2.6157987976909025	0.1075431390298599	-0.2867512077027132	0.3942943467325732	141.79316581307057
16	6.0	perception	101	diff_vonmises	0.0301554832560815	1.7277819197508937	1.0324176470462576	3.2025571859866835	0.2191866368348324	4.076989634366774	0.3156760092148829	-0.3736590285536565	0.6893350377685394	114.65293439559402
17	6.0	wm	101	diff_vonmises	-0.046936605614817	-2.6892694063990605	0.391888499424701	189.59814409645887	0.3821799143422803	190.4943896182457	0.1351101764496007	-0.321987231698273	0.4570974081478738	133.8286256465472
18	7.0	ltm	101	diff_vonmises	-0.0555688443865628	-3.183860255769286	0.9723444929663296	194.9650192311814	0.9560044714166273	196.2979421924764	0.1600178401101999	-0.3536673586702576	0.5136851987804576	85.62083990061686
19	7.0	perception	101	diff_vonmises	0.1078194176356114	6.177597580078933	1.2256837876981317	2.569267154896565	0.048552163257115	3.950948181210865	0.3265571071605981	-0.5136662940297917	0.8402234011903899	116.57904411501426
20	7.0	wm	101	diff_vonmises	-0.006542002173588	-0.3748291141120043	0.7564300086514884	94.98887533284856	0.7326052166871584	96.43426662191796	0.011674916484047	-0.325912949871789	0.337587866355836	93.48365908826416
0	1.0	ltm	320	diff_vonmises	-0.0330315558758148	-1.8925687424347468	4.222661089127497	0.3111859105957364	3.805246273021944e-20	2.546578291748696	-0.1588879892504865	-0.4052475674378122	0.2463595781873256	66.58343890853808
1	1.0	perception	320	diff_vonmises	-0.0315152298980194	-1.805689663541024	14.329914461790132	0.6563167229279594	0.0176633333445323	3.017169011968576	0.493434352569182	-0.4836784853107172	0.9771128378798992	35.680522850646526
2	1.0	wm	320	diff_vonmises	0.0274977560109917	1.5755053655103168	4.8822086551374095	0.3666534862589722	2.069377855454897e-23	2.764706629795016	-0.1261394429592524	-0.4399986860325507	0.3138592430732984	61.81566310481878
3	2.0	ltm	320	diff_vonmises	-0.0501111766950476	-2.8711589310605574	3.576015267818613	0.572414788482929	0.110124031269343	1.923225490729012	0.0731068195745707	-0.2938086251252192	0.36691544469979	68.14736389036386
4	2.0	perception	320	diff_vonmises	-0.0288844765724671	-1.6549586010468722	7.389052465535554	1.165394340798092	0.2032638838795829	2.567646664073568	0.7451191940047031	-0.4242506566589788	1.1693698506636818	48.458446178204696
5	2.0	wm	320	diff_vonmises	0.0276187550284448	1.58243809853561	4.194841858938082	0.6028059510822936	0.1540556674709034	2.0970714255888385	0.0885263401189299	-0.3261315605172205	0.4146579006361504	62.30837223269262
6	3.0	ltm	320	diff_vonmises	-0.0069766421376163	-0.3997321496585478	1.8666434999161352	1.9245440261489724	0.6638373638157824	2.8521221524587297	0.1601961382628912	-0.260533215584696	0.4207293538475872	76.80283169847277
7	3.0	perception	320	diff_vonmises	-0.0262245391494778	-1.5025554129406775	4.066740403187015	2.0677711857957632	0.2856192744110369	2.974961335021659	0.9866427465009036	-0.4369651922534707	1.4236079387543743	63.92473902121827
8	3.0	wm	320	diff_vonmises	-0.063105268137805	-3.615665529337618	2.3810836029981104	1.268782781290093	0.4725430410163736	2.379318199192438	0.1516678731134604	-0.2913616253171187	0.4430294984305791	73.30378699860074
9	4.0	ltm	320	diff_vonmises	-0.1090261508176315	-6.2467382984070765	1.3422139507991937	3.7662103338064585	0.6911031633217907	5.300607707624035	0.026376371347637	-0.3529447609037346	0.3793211322513717	80.67795629474625
10	4.0	perception	320	diff_vonmises	-0.100600279614134	-5.763971439725852	1.9985212805218076	3.5152664955592465	0.4020569860622955	5.00466335425808	0.6686283156824404	-0.5434370648307714	1.2120653805132118	83.07718529532417
11	4.0	wm	320	diff_vonmises	-0.1368870597392806	-7.843050793015951	1.001431568207603	310.9807117410494	0.9911875674415402	312.71986715694413	0.0114487554618278	-0.3980577997619576	0.4095065552237855	80.13262485779768
12	5.0	ltm	320	diff_vonmises	0.0165750560418917	0.9496807563932114	1.2705540339184438	2.0185987389018907	0.2613083798495917	3.124664739000264	0.1565602052370066	-0.3163104109015289	0.4728706161385356	101.31204662308856
13	5.0	perception	320	diff_vonmises	-0.0359431308851299	-2.059389702204265	2.0762571799524183	2.5263767207419576	0.2029559282801416	3.5633839731390062	0.6454368548651577	-0.4488783653566881	1.0943152202218458	87.59472212789757
14	5.0	wm	320	diff_vonmises	-0.0174116362665619	-0.997613272490923	0.6433694409094971	182.71726045011312	0.6302929602479228	183.90934011963327	0.1302686520650056	-0.3323876726059112	0.4626563246709168	106.09225907628608
15	6.0	ltm	320	diff_vonmises	-0.140605156884005	-8.0560820672283	0.4205110342909413	166.88938642486502	0.4103554745751783	167.96435422006817	0.0645920509054533	-0.3141691893447778	0.3787612402502311	128.49989655917497
16	6.0	perception	320	diff_vonmises	-0.0587285714619739	-3.364899281603558	0.5112377818924084	111.21156695192155	0.4849668618788982	112.32392299400556	0.2745383758754656	-0.4329198825953604	0.707458258470826	122.8106219475016
17	6.0	wm	320	diff_vonmises	-0.1297090461756364	-7.431780910531478	0.5057051833564238	190.4158721265768	0.4947698135722868	191.5235589335344	0.1169555243850126	-0.3359918251482803	0.4529473495332929	119.9469739787982
18	7.0	ltm	320	diff_vonmises	0.0488995253548552	2.8017364230261674	0.8228408281955364	180.12592130502588	0.8073413261708465	181.4947644328164	0.1155267806268369	-0.3474536215427157	0.4629804021695527	92.42541922352665
19	7.0	perception	320	diff_vonmises	-0.020624107803185	-1.181674333345334	1.4842372889214075	3.182111319947023	0.2838608126481128	4.451081279823404	0.4472689751839157	-0.4593906783840393	0.906659653567955	96.70387333490211
20	7.0	wm	320	diff_vonmises	0.1361037711207182	7.7981716610316925	1.659142713539285	1.572721684109511	0.3551009248189175	2.903325471340199	0.0854890784368572	-0.3188479888882382	0.4043370673250955	85.94651495455102
0	1.0	ltm	487	diff_vonmises	-0.1377805954583381	-7.894246618562135	2.5236442166486523	0.4035758820257494	4.557373855789697e-20	1.9253854876977008	-0.0672655386078543	-0.3048975278912197	0.2376319892833654	86.57487249395547
1	1.0	perception	487	diff_vonmises	-0.037700488372446	-2.160078869323193	13.120696937996462	0.78822310800084	0.0011262390616777	2.488661643973165	0.7312031750888348	-0.3961408607377525	1.1273440358265874	37.4109068555768
2	1.0	wm	487	diff_vonmises	0.0204362224564201	1.1709092959433482	5.570257557749522	0.3650692928036478	4.251627507248175e-19	1.9726894432990048	0.0212689306505802	-0.3139584108602154	0.3352273415107956	57.77908912489002
3	2.0	ltm	487	diff_vonmises	-0.0821043841298749	-4.704234690162728	3.3777457811956504	0.657132976750062	0.2622645837393634	1.578672755117664	0.1391237953781159	-0.2316752725875521	0.3707990679656681	67.38492859967465
4	2.0	perception	487	diff_vonmises	-0.0336718968817503	-1.9292575795240137	7.420872970841134	1.2362788982658828	0.193301877315962	2.099387865316818	0.9177081653853962	-0.3436867396392715	1.2613949050246678	48.70486899013096
5	2.0	wm	487	diff_vonmises	0.0105554450508609	0.6047824522965851	4.568550180366234	0.4779042362402795	0.0962588263801398	1.4188321375851214	0.1467662837470576	-0.2212451431899485	0.3680114269370061	61.56189718402024
6	3.0	ltm	487	diff_vonmises	0.0024241889828568	0.138895797459808	2.047388041964877	0.9724206422620212	0.4656786702125131	1.351497132204282	0.1839780971346177	-0.1421817026914606	0.3261597998260784	81.03989941622027
7	3.0	perception	487	diff_vonmises	-0.0172922958743537	-0.9907755716919528	4.136830590546955	1.8667294667144552	0.3227460777014293	2.1198943068676512	1.0077808263197885	-0.3055337416312297	1.313314567951018	63.736846656225765
8	3.0	wm	487	diff_vonmises	-0.1081646120333761	-6.197375762182408	2.2747289492875797	1.3154268214680085	0.7260569210510021	1.71362809427631	0.2369818067013135	-0.1646688976754051	0.4016507043767187	73.71954882687155
9	4.0	ltm	487	diff_vonmises	-0.145331933426579	-8.326906413819234	1.7333795573561197	2.4804466167371806	0.8464210276730588	3.452671014579312	0.0941505775553852	-0.2571971656296237	0.3513477431850089	73.74903650677123
10	4.0	perception	487	diff_vonmises	-0.1132070327373297	-6.486285187048338	2.2987784320221665	2.876745584038894	0.355898603901145	3.979693251617559	0.737081862977305	-0.4704919168888986	1.2075737798662036	80.2661326059357
11	4.0	wm	487	diff_vonmises	-0.1515105948354204	-8.680917635586201	1.1842189483520305	222.128021151648	1.1721730286700605	223.2554921331785	0.0741632184959968	-0.2880426026224931	0.36220582111849	75.59298205281033
12	5.0	ltm	487	diff_vonmises	-0.0053283215607807	-0.3052903373212977	1.465047574010936	1.0449002955453917	2.722952312429668e-14	1.5485080697152869	0.1997275293353825	-0.2226292861277401	0.4223568154631226	111.56155612485104
13	5.0	perception	487	diff_vonmises	-0.0413029532869395	-2.366484904767625	2.495254654752613	2.0220562621692197	0.0692317441080947	2.257857014128374	0.8056841227255962	-0.3269003186324772	1.1325844413580737	85.100505830706
14	5.0	wm	487	diff_vonmises	0.0170274040581263	0.9755983885945722	0.7083489873402744	111.63349131940184	0.6922705742254203	112.10512788785752	0.208601614874432	-0.2021624351993924	0.4107640500738245	106.14089956467514
15	6.0	ltm	487	diff_vonmises	-0.0943410783694268	-5.4053456252810985	0.4033652561434486	74.73919776129338	0.3892338875420403	75.12456813928435	0.1064119331452069	-0.1699505752950845	0.2763625084402914	133.97724591906388
16	6.0	perception	487	diff_vonmises	-0.0886495927222355	-5.079247518537754	0.8053067487790861	2.767803560751108	0.0272839832730435	3.124023472047925	0.3323714603780464	-0.3152828153731013	0.6476542757511478	135.56157820576897
17	6.0	wm	487	diff_vonmises	-0.1409918594768599	-8.078238493725653	0.5413324547975867	82.99806897133764	0.5238538921965117	83.33917950443593	0.186737798415649	-0.189002808936336	0.3757406073519851	121.5360006019848
18	7.0	ltm	487	diff_vonmises	0.181403569699027	10.393658932361516	1.5331774541706007	1.4135714401332231	0.3337523613932461	2.006727713469725	0.1866943853252	-0.2009588808087022	0.3876532661339023	93.34632658017225
19	7.0	perception	487	diff_vonmises	-0.0158627586289062	-0.9088691208710592	0.9700924894468682	172.37828673346144	0.9495865888815186	172.79455915609785	0.5325430187583322	-0.2941104011460229	0.8266534199043551	93.38791717656328
20	7.0	wm	487	diff_vonmises	0.115610753565368	6.624008245622624	1.6254057951621912	1.035746023131611	0.2446831398128559	1.5627702353695123	0.1580714403595201	-0.1767854020250453	0.3348568423845654	94.30330006401832
0	1.0	ltm	176	diff_vonmises	0.0295775495343181	1.6946687566555625	6.539266865320405	0.2807024674349339	0.0109970842702411	3.620001886318946	-0.3020770830541138	-0.575999666940234	0.2739225838861202	52.52516730752177
1	1.0	perception	176	diff_vonmises	0.0222979508822177	1.2775784773410872	11.133004291397851	0.8087817572301497	0.0726086886600382	4.203816410871599	0.3453316188675099	-0.6888359156752696	1.0341675345427794	40.00766515324429
2	1.0	wm	176	diff_vonmises	0.0219492696565678	1.2576005147159004	4.539221170900256	0.4187449731747864	0.0241929412792426	3.954819018994458	-0.2999750693269186	-0.6256691213013693	0.3256940519744507	62.16591887196387
3	2.0	ltm	176	diff_vonmises	0.0305275750780954	1.7491012107436223	2.9507166366926496	0.7923202413067955	0.2393914163349495	2.337886764590164	0.0480132949836835	-0.3400874851235859	0.3881007801072694	70.31585821758279
4	2.0	perception	176	diff_vonmises	-0.0113050662813059	-0.6477325850344859	6.809440466932585	1.4051686114972084	0.3080408358381191	2.9908846665822555	0.8010652909667212	-0.5017784152505341	1.302843706217255	49.63816895958957
5	2.0	wm	176	diff_vonmises	0.0412875126170526	2.365600219550253	3.72993499483048	0.7690469461926299	0.1695840753472346	2.53523394041547	0.0943598726795669	-0.3876802985507859	0.4820401712303528	65.33830797251366
6	3.0	ltm	176	diff_vonmises	0.0653880371504487	3.7464585593653457	3.933962937496152	0.494577074580286	0.0282781535313356	1.5094207902639984	0.1297283927624125	-0.2359640271639632	0.3656924199263757	67.88301682702829
7	3.0	perception	176	diff_vonmises	0.0065235884622908	0.3737740861695058	4.74030304667286	1.802159913935888	0.1999588242402521	2.781074542515887	0.9834228151668664	-0.4259177165286921	1.4093405316955585	60.30939401112164
8	3.0	wm	176	diff_vonmises	-0.0206416371493332	-1.1826786908972478	4.007870026099046	0.6193009285799729	0.0522588819736513	1.8575721678050128	0.1653656067920115	-0.2884830072523116	0.4538486140443231	66.55289098180717
9	4.0	ltm	176	diff_vonmises	-0.0608945723232968	-3.489001989379064	2.006897574900417	0.7789240204354347	0.0260706220118754	3.048640352575862	-0.0952939702692841	-0.4653654651224211	0.370071494853137	93.70375945417968
10	4.0	perception	176	diff_vonmises	-0.027658536821696	-1.5847174273903628	2.05419975518491	3.0906038642448013	0.2473838878859602	5.19997249556661	0.5764109913276956	-0.6469931636383355	1.223404154966031	85.16790321369785
11	4.0	wm	176	diff_vonmises	-0.016319958517075	-0.9350647448569812	0.7454153881587643	301.84330284226394	0.7341964564340151	304.34703831443613	-0.0824688590868021	-0.5252804281761243	0.4428115690893222	90.89729540980872
12	5.0	ltm	176	diff_vonmises	-0.0539745665483181	-3.092514864266628	1.7190882728897807	1.135222607322279	2.7550508021955864e-21	2.2007172449915764	0.1839595181485804	-0.3330942664462432	0.5170537845948237	104.06354264097968
13	5.0	perception	176	diff_vonmises	-0.0317353895515232	-1.818303882505852	1.7484645757484627	3.485244821091724	0.3033700214509794	4.415053319246606	0.7268964374003808	-0.4714925038790127	1.1983889412793935	91.55953410126224
14	5.0	wm	176	diff_vonmises	0.0394519994957288	2.2604330644575152	1.458014308039657	1.6441921936609925	0.0673466120283584	2.7721858651661124	0.2286381198549635	-0.3740972187404776	0.6027353385954413	107.46995344300186
15	6.0	ltm	176	diff_vonmises	-0.0457693838793879	-2.622392527203038	0.7172230868373219	3.3322065703969512	0.2203455218299716	4.068999600071887	0.161608115030496	-0.2847677641476854	0.4463758791781814	127.15963390498582
16	6.0	perception	176	diff_vonmises	-0.0423148543714825	-2.424462566196654	1.0623450652264614	2.552525487820671	3.1774075279693176e-22	3.2809532670386785	0.3800354029455023	-0.4143859956602808	0.7944213986057831	126.02193995640653
17	6.0	wm	176	diff_vonmises	-0.0019873833666505	-0.1138686791835766	0.476575382105808	205.98126590804745	0.4653845184259043	206.75895843701207	0.2419165852766269	-0.3402542500414327	0.5821708353180597	126.29157019024238
18	7.0	ltm	176	diff_vonmises	0.0381680849345062	2.1868701788440674	0.7425266050478793	177.1106913610316	0.7274744088846757	178.7023534687694	0.0474873179432933	-0.3732592397967309	0.4207465577400242	95.3071898264064
19	7.0	perception	176	diff_vonmises	0.0567635406152618	3.252311307473936	0.7582030723491682	307.0094652027509	0.7442548798918811	308.3919662602969	0.4124133779937722	-0.4840581973274389	0.8964715753212111	100.97693661878056
20	7.0	wm	176	diff_vonmises	0.0893081371250932	5.116979333443462	0.7148977285250915	211.0723751307038	0.7028734195385207	212.68653923546884	0.0237196762110158	-0.369837398520378	0.3935570747313939	96.3304244840614
0	1.0	ltm	297	diff_vonmises	-0.0139130793875107	-0.797160728934828	5.472416471334504	0.335560389079877	0.0317060622805626	2.5460693728056984	-0.1129102518826271	-0.4041914268838759	0.2912811750012488	56.79478948641105
1	1.0	perception	297	diff_vonmises	-0.0292975642810578	-1.678626783317849	13.64494200674948	0.6316861441050907	0.03928086970723	2.962536116910973	0.4316620485906878	-0.479728714760528	0.9113907633512156	36.44400060415771
2	1.0	wm	297	diff_vonmises	0.0419989551202091	2.4063628723473456	4.252830867986278	0.49810400770257	0.0777333747094576	2.8787667212406958	-0.0985483154360624	-0.4524336799419189	0.3538853645058564	62.55505787447126
3	2.0	ltm	297	diff_vonmises	-0.0706111099600395	-4.045718587444438	2.812562772449702	0.8924317705385106	0.3381329489528552	2.08771870044525	0.1103724856945402	-0.2895498222306116	0.3999223079251518	70.55815823334561
4	2.0	perception	297	diff_vonmises	-0.0270242932798146	-1.5483779492571332	7.145721617983327	1.1020712661997067	0.2333209428089374	2.363309418631676	0.6843891061869853	-0.3917237807121659	1.0761128868991512	49.05673697357943
5	2.0	wm	297	diff_vonmises	0.0411853200734227	2.359745018102551	4.267412993218313	0.6482114423779165	0.2325148678219641	1.9582661732110656	0.1281985526839031	-0.3051491213052938	0.433347673989197	60.7602648285411
6	3.0	ltm	297	diff_vonmises	-0.0250146935114671	-1.4332363640203516	1.2796798123526367	137.04980175983215	1.2584711315486352	137.95887189091945	0.1766441185066014	-0.2722177443109075	0.4488618628175089	75.47217311387863
7	3.0	perception	297	diff_vonmises	-0.0307838158295401	-1.7637827243406656	4.255954640936586	1.8591345794159035	0.2902033681913104	2.783937048282652	0.8984096564101045	-0.4146262607746771	1.3130359171847816	62.457608542260886
8	3.0	wm	297	diff_vonmises	-0.0193879110826054	-1.1108454786082074	1.674859313215186	3.1181280611367668	0.8444454747667507	4.207659815628114	0.1308930527117469	-0.2946379945472668	0.4255310472590137	75.13144010247993
9	4.0	ltm	297	diff_vonmises	-0.1350382730383409	-7.737123117832192	1.0556342921677406	156.24812013869197	1.0368814473629204	157.56670616623506	0.092105835133367	-0.3302139847990872	0.4223198199324542	80.6013598067986
10	4.0	perception	297	diff_vonmises	-0.1095671566671313	-6.2777356502753054	2.120892834842703	2.997472083178025	0.353379145256712	4.265861123135325	0.6647749175882244	-0.4903824455837202	1.1551573631719445	82.57341051993953
11	4.0	wm	297	diff_vonmises	-0.1495237454431905	-8.567079550883292	1.0785480580390312	328.4177101919434	1.0685755156386303	329.914664383923	0.0841526148303302	-0.3701692803757623	0.4543218952060925	79.06768911122694
12	5.0	ltm	297	diff_vonmises	0.0172289455147109	0.9871458634537882	0.7104058327458844	127.1514836018064	0.6895651114207839	128.20036649347043	0.2086981942585453	-0.3281044592635016	0.5368026535220469	103.13657536850488
13	5.0	perception	297	diff_vonmises	-0.0508758440587894	-2.9149711437343577	2.0657920624865325	2.5226564683056423	0.2384297057354776	3.5480785260364707	0.6204099292798695	-0.4343975453284165	1.054807474608286	86.71955723636233
14	5.0	wm	297	diff_vonmises	-0.0111760575873552	-0.640340931350615	0.7248441291781114	229.13954466569572	0.713566618812701	230.18970314524407	0.1913456326427223	-0.3175522112281257	0.508897843870848	101.36284204677924
15	6.0	ltm	297	diff_vonmises	-0.1058950800720182	-6.0673411593265545	0.4705944779044566	173.51676528692622	0.4591598260550687	174.47246849816833	0.140143268271224	-0.3218836869996018	0.4620269552708258	124.84640598851672
16	6.0	perception	297	diff_vonmises	-0.0664214054862965	-3.805666203691882	0.9160699930071514	4.634519012961157	0.3009104541673483	5.694998851353886	0.3124869250922293	-0.4142429768569213	0.7267299019491507	114.38949947760652
17	6.0	wm	297	diff_vonmises	-0.1799020844178877	-10.307630162751217	0.6103858689817407	145.9072415226029	0.5943078479174118	146.8205602983169	0.2025459323579923	-0.3146010858151022	0.5171470181730946	111.92976362780364
18	7.0	ltm	297	diff_vonmises	0.0103314330215758	0.5919475084583903	0.7748717814277214	219.16210192552208	0.761077568328955	220.48093047171236	0.1865999850441397	-0.3686886351448386	0.5552886201889784	97.04243908985666
19	7.0	perception	297	diff_vonmises	-0.0814701649831206	-4.66789660976732	2.1167658939343337	2.197056388250157	0.138359945828662	3.414119425863752	0.5518004203848302	-0.4587679860711665	1.0105684064559968	88.46403645523236
20	7.0	wm	297	diff_vonmises	0.2092742760515576	11.99053277840997	2.8910696526702737	0.9064731312572256	0.1015079332783874	2.0740452710454083	0.2168550549439554	-0.3060352779842868	0.5228903329282424	76.6113236479915
0	1.0	ltm	464	diff_vonmises	-0.0833385205243573	-4.774945496910066	2.1773857785043527	0.2685570823581305	1.0826771044717017e-21	1.623668766536448	-0.1126018240707959	-0.2565418236356706	0.1439399995648747	93.1277314206088
1	1.0	perception	464	diff_vonmises	-0.0196620855949795	-1.126554521017299	12.825472560560602	0.7089745216731663	0.0390538568979287	2.269316064636332	0.627239140480423	-0.3666035569151034	0.9938426973955264	37.65055207437399
2	1.0	wm	464	diff_vonmises	0.0537924978111408	3.082083094045089	5.061400301686198	0.2903709648042617	6.840861307002086e-15	1.7331958670122711	-0.0224140040379842	-0.2758365132628843	0.2534225092249	60.679597431564645
3	2.0	ltm	464	diff_vonmises	0.0487705394619794	2.794346075747653	4.76130309277487	0.3873080374950156	0.1572910908156415	1.2178715313021686	0.1017257029209381	-0.1915743263284627	0.2933000292494008	59.14993516715032
4	2.0	perception	464	diff_vonmises	-0.0020267629036167	-0.1161249604509169	7.402213363111263	1.3484761039403756	0.4237470467383222	2.08889737461374	0.9513336824882708	-0.3604533945765453	1.311787077064816	47.69209111785494
5	2.0	wm	464	diff_vonmises	0.087221223391599	4.997407984306356	4.951866158551946	0.3811904316847823	0.1376344077131181	1.314930469645355	0.0898187471905008	-0.2078517243399484	0.2976704715304492	58.23355515215332
6	3.0	ltm	464	diff_vonmises	0.1294057295418743	7.414402147560798	1.8809263207709888	2.434867254852153	1.2511595589090283	2.8021163035474683	0.1214671185762625	-0.1314322360616429	0.2528993546379055	69.24279521588144
7	3.0	perception	464	diff_vonmises	-0.0006369538368234	-0.0364947665946489	5.157429562622246	1.6470606864510318	0.3519717152635235	1.9498737641920325	1.024095812439115	-0.2994837877572017	1.3235796001963167	57.30552245661116
8	3.0	wm	464	diff_vonmises	-0.0286443283891332	-1.641199123684106	3.6764120841081622	0.530484570734403	0.4321408137624463	1.0657050815194449	0.1398727757660335	-0.1560205861812282	0.2958933619472618	63.14628794158776
9	4.0	ltm	464	diff_vonmises	-0.1104805126850006	-6.330067095292091	1.3027249973804091	116.56268798451768	1.2834674032116362	117.61736316860282	-0.0075236667504299	-0.2569418530632887	0.2494181863128588	69.40686167219627
10	4.0	perception	464	diff_vonmises	-0.0722043599702797	-4.137005088740375	2.7233016042981686	2.0867637541069146	0.2289209668061495	3.301933759321781	0.6406661933272217	-0.446918014679429	1.087584208006651	76.7822971799657
11	4.0	wm	464	diff_vonmises	-0.0826811284788775	-4.737279707218602	1.2171709283437098	235.9056867545227	1.2055542677688686	237.20616457190013	0.010952665196612	-0.3141430117667951	0.3250956769634072	72.46280661049548
12	5.0	ltm	464	diff_vonmises	0.048351310332238	2.770326015964533	2.388985185422901	0.635693846099213	0.0279404621698411	1.196866910680913	0.1689000890262945	-0.182133792154851	0.3510338811811455	87.57229663615172
13	5.0	perception	464	diff_vonmises	-0.043218402876335	-2.476232082110053	2.4853983086964333	1.9805252874597603	0.1340999480118627	2.351685087869309	0.7370583991237536	-0.3222594957729223	1.059317894896676	83.4561308159017
14	5.0	wm	464	diff_vonmises	0.1349542366199562	7.732308185733352	1.7529385436438836	0.8679616364519472	7.0328522914239125e-19	1.483602407943322	0.177194690820555	-0.223714216998278	0.400908907818833	103.10868138162512
15	6.0	ltm	464	diff_vonmises	-0.1451248583493342	-8.31504188585076	0.5417350144999846	97.52550039793675	0.5279042148737025	97.99007514424233	0.1363180006722224	-0.1882201364959144	0.3245381371681368	119.55218927565646
16	6.0	perception	464	diff_vonmises	-0.0857253172412046	-4.911698875341095	0.5998703130709412	148.75222351468625	0.5823856495719063	149.26396572827613	0.3576419668932615	-0.3119059879166084	0.66954795480987	116.80657516346288
17	6.0	wm	464	diff_vonmises	-0.0257387019594571	-1.4747189924219994	0.6879357049454042	4.2296565521124725	0.3198936006658418	4.720551933542695	0.1852852390387809	-0.2303245027097256	0.4156097417485065	124.08174811050353
18	7.0	ltm	464	diff_vonmises	0.1130707851488479	6.478478775259492	1.034349498822804	156.9375739630902	1.019021256492199	157.8720771819832	0.1312428038850015	-0.2551703912705321	0.3864131951555336	83.32853059012143
19	7.0	perception	464	diff_vonmises	-0.0464881858682235	-2.6635768474689283	2.177798927913798	1.5829558929173235	3.57922844497186e-11	2.4381360492135515	0.4715044696844462	-0.3770085073979153	0.8485129770823615	93.12474715950928
20	7.0	wm	464	diff_vonmises	0.1643746404158219	9.417973154807122	1.8658050150571808	0.7415001082028116	0.1382134562803359	1.6550485419472536	0.0657320140553864	-0.2227747000865311	0.2885067141419175	90.82067726578283
0	1.0	ltm	153	diff_vonmises	0.03687103345054	2.1125546030016245	6.144754217426563	0.321402176262504	0.0411543154076729	3.6545464155030976	-0.2950201586484268	-0.5844126550712972	0.2893924964228704	52.86619441692983
1	1.0	perception	153	diff_vonmises	0.0324970818441678	1.861945636162032	10.752685771331514	0.7516116728323057	0.0872781108602017	4.084717704719227	0.263222684012954	-0.6734232539690002	0.9366459379819542	40.5388241600825
2	1.0	wm	153	diff_vonmises	0.0756067589357577	4.331948189681944	3.443345675880697	0.5872634624989771	0.0837395462398055	4.082471421931908	-0.2895776466740756	-0.6355466571325488	0.3459690104584731	67.46390541937177
3	2.0	ltm	153	diff_vonmises	0.0174748879964917	1.0012373296628003	3.004208781592878	0.7396479303687353	0.2357215170963307	2.2104388672842568	0.045628538385805	-0.3231435207457365	0.3687720591315416	69.86383426046848
4	2.0	perception	153	diff_vonmises	-0.0047117133061958	-0.2699612867206561	6.765048801424961	1.2986862298643709	0.3096441254506327	2.817015309659341	0.723939961984538	-0.4727011743795035	1.1966411363640417	49.73378213759074
5	2.0	wm	153	diff_vonmises	0.0702703552395394	4.026194780110623	3.9338135665470593	0.7516838983481811	0.2102217993231199	2.424554227878706	0.1017520608172535	-0.3736747521858392	0.4754268130030927	63.02818376600351
6	3.0	ltm	153	diff_vonmises	0.0261726456221717	1.499582132841993	3.178894417500555	0.6767568731311455	0.2433086580049435	1.7209479613470176	0.1137693746340646	-0.2508884294614808	0.3646578040955455	69.17052338607579
7	3.0	perception	153	diff_vonmises	0.0026682232768477	0.1528779325619443	4.661445336544652	1.683355093489886	0.1986820762805023	2.7224526180843034	0.88260759615665	-0.4166379548712597	1.2992455510279095	60.69945467517849
8	3.0	wm	153	diff_vonmises	0.0139162651506822	0.7973432597190824	3.532281897407924	0.6703715886960561	0.155244446049023	1.94997461940534	0.1210124332355318	-0.2944230758036869	0.4154355090392187	67.76116686356693
9	4.0	ltm	153	diff_vonmises	-0.0452710069210455	-2.5938376308834497	1.0428760266907884	3.574494524418752	0.4363634120698357	5.633776499624021	-0.0730580606040041	-0.4283573598788276	0.3552992992748235	92.63514244491353
10	4.0	perception	153	diff_vonmises	-0.0551131334558466	-3.157749942761269	2.0095977523489146	3.205927139226946	0.3114264880514051	5.010973828295609	0.5956891861098437	-0.5881125517166429	1.1838017378264865	84.49459106856293
11	4.0	wm	153	diff_vonmises	-0.0345465099234051	-1.9793692155179332	0.8188606070334592	250.00535418786387	0.8051949431373648	252.2857020522838	-0.042292261504059	-0.4915076123610618	0.4492153508570027	87.62551780639944
12	5.0	ltm	153	diff_vonmises	-0.0365254639871659	-2.0927549312216884	1.453144819928303	1.6045969264551636	0.1266066181439563	3.0285025103401635	0.1369472393600443	-0.385704234129694	0.5226514734897384	102.67985230737952
13	5.0	perception	153	diff_vonmises	-0.0385337778466233	-2.207822839306229	1.6157436327463612	4.092380312635602	0.3925897765635364	5.433819916684351	0.621780148306093	-0.5197748746209437	1.1415550229270366	90.62457574935118
14	5.0	wm	153	diff_vonmises	0.0515706664910179	2.954781536612069	0.6300624461315714	175.9256781406546	0.613175636985651	177.38904190435628	0.1711420777742773	-0.4170898005082346	0.588231878282512	107.6885550925082
15	6.0	ltm	153	diff_vonmises	-0.0534129126060524	-3.0603344638279166	0.5001049828479149	229.12564227224004	0.4894403630594036	230.3871659996716	0.1475535057835202	-0.3928652226042466	0.5404187283877668	120.88817954611795
16	6.0	perception	153	diff_vonmises	-0.0618617677383545	-3.5444182046262718	0.648098411351927	19.442117860255998	0.4664250342129418	20.69794499485236	0.3628628247054246	-0.4973197617985432	0.8601825865039678	117.49284245824168
17	6.0	wm	153	diff_vonmises	-0.0469622190657402	-2.690736949035725	0.5305423660717178	216.52478310264348	0.5172178854363055	217.8003654092472	0.2222847686748039	-0.4319136200255045	0.6541983887003084	118.99651757432902
18	7.0	ltm	153	diff_vonmises	-0.0038800683093751	-0.2223115383496555	0.670055030020319	269.43591108944133	0.6590108265802018	271.5195164448077	-0.0105377811008366	-0.4632905690148128	0.4527527879139761	98.43267026122598
19	7.0	perception	153	diff_vonmises	-0.005233357319359	-0.2998492870831739	1.3157397397199555	5.048838305974634	0.4116994853584175	6.914281160133287	0.4283598954890275	-0.5784592518950105	1.006819147384038	95.04854096076004
20	7.0	wm	153	diff_vonmises	0.1823170366813471	10.445996735173008	1.313067303886248	2.851093364275199	0.4092236649354228	4.861147461794106	0.0223412326551935	-0.4497277791574694	0.4720690118126629	89.5638665075164
0	1.0	ltm	32	diff_vonmises	-0.1379387010563279	-7.903305402044341	3.2807860155774504	0.439886083718717	3.916393484955364e-21	2.108911366563216	-0.0325767434051313	-0.3352152304407113	0.3026384870355799	75.78541129058186
1	1.0	perception	32	diff_vonmises	-0.0691454810776248	-3.961744238149597	17.21056772962938	0.6711444247998598	3.7655902753706594e-17	2.5840269068562165	0.6912174035851066	-0.4112606553086262	1.1024780588937328	32.638211954314244
2	1.0	wm	32	diff_vonmises	-0.012392428022665	-0.7100338236183614	3.1208456809592677	0.5069582120396523	2.32504516849466e-18	2.3501384376313976	-0.0344790502849473	-0.3733751280625514	0.338896077777604	77.75403373487447
3	2.0	ltm	32	diff_vonmises	-0.0133911330591933	-0.7672554071898915	3.499196789646864	0.5524056369900813	0.1054360472323	1.41753369481172	0.1445409124252067	-0.2144074955382581	0.3589484079634648	69.77551856664948
4	2.0	perception	32	diff_vonmises	-0.0423008916566109	-2.423662561563962	7.06697453994099	1.195610099549815	0.3011255738616281	2.0048973618152317	0.822061128354838	-0.3342439154063584	1.1563050437611964	49.251547304882905
5	2.0	wm	32	diff_vonmises	-0.0351865847880124	-2.0160428038323395	3.664632828190932	0.7321803807711875	0.2719727681344205	1.683650394587459	0.1912176550757559	-0.2505037977387596	0.4417214528145155	65.20617602929497
6	3.0	ltm	32	diff_vonmises	-0.041353548027743	-2.369383769881224	2.3497760951420315	1.2093500175645182	0.4824029735714648	1.865045175506214	0.2330601827163592	-0.2153687770632326	0.4484289597795919	75.71517905705659
7	3.0	perception	32	diff_vonmises	-0.0398885275309506	-2.28544427851486	3.85262461030256	2.3033120915405387	0.4026627669002801	2.852822220310269	1.0823898746350613	-0.4004479815340448	1.4828378561691062	64.71470262319261
8	3.0	wm	32	diff_vonmises	-0.1265083641903086	-7.248395341208641	2.0621889835481197	2.10207174890267	0.7459146064513752	2.8851280810058886	0.2583856705878012	-0.2610150987324272	0.5194007693202285	74.46610295885873
9	4.0	ltm	32	diff_vonmises	-0.179616270572928	-10.29125423570862	2.171298389245922	1.4829324225960474	0.4937176611169365	2.478176501750976	0.1952507778639244	-0.2801454964301273	0.4753962742940517	76.37195736946356
10	4.0	perception	32	diff_vonmises	-0.0932293088707141	-5.34164592521349	2.393980601677025	2.818367291695672	0.2542659384513792	3.732072543785843	0.8653672950904282	-0.47125339045798	1.3366206855484082	81.54529813433905
11	4.0	wm	32	diff_vonmises	-0.1508944145576994	-8.645613106253586	1.131955792599057	331.6857964635829	1.12142934690857	332.933946011607	0.1964989988612728	-0.3511002302655086	0.5475992291267815	79.69474239208819
12	5.0	ltm	32	diff_vonmises	-0.0068063086957753	-0.3899727623311181	0.6606573617282255	155.24526039956197	0.6467948114983891	155.84473337227175	0.2446057766720457	-0.255692472155113	0.5002982488271588	109.62305073185593
13	5.0	perception	32	diff_vonmises	0.0159894035402563	0.916125339788224	1.4856060259086483	3.732989641802653	0.4093777320880785	4.293888055950951	0.6202315979400103	-0.3639069839143081	0.9841385818543184	95.01600137545888
14	5.0	wm	32	diff_vonmises	-0.0309277959714898	-1.7720321788080773	0.6438355111432486	144.24583742987895	0.6288097895110561	144.90312015111203	0.2333860007807686	-0.2662267968103009	0.4996127975910696	110.61971344295382
15	6.0	ltm	32	diff_vonmises	-0.1767327101360299	-10.12603839270346	0.3366714034726727	196.89491921510592	0.3284019662373912	197.47737167505747	0.1685810538397874	-0.2754346527340772	0.4440157065738646	140.93331807841628
16	6.0	perception	32	diff_vonmises	0.0384664435327866	2.2039648673069743	0.6576010795957734	221.06108668247435	0.6422337784544654	221.72472125530675	0.4641040160664005	-0.3835917133085544	0.847695729374955	111.72151197598872
17	6.0	wm	32	diff_vonmises	-0.1050551612963231	-6.019217358345428	0.4070799263213103	164.66871333875434	0.3938593458848106	165.29089882566484	0.2581409586024961	-0.3311816349460059	0.589322593548502	134.27384347881105
18	7.0	ltm	32	diff_vonmises	0.0463410973606658	2.655149296770989	0.9009616678773126	152.5371543902757	0.8838310011811935	153.46188140893443	0.2022546665272955	-0.2801467094190197	0.4824013759463152	91.25917934355994
19	7.0	perception	32	diff_vonmises	0.0636412623401998	3.646375734978317	1.851783320401983	1.7690743787423593	2.3161564681922487e-16	2.7397541942928267	0.4349446841035003	-0.4145866293411406	0.849531313444641	100.58330980124988
20	7.0	wm	32	diff_vonmises	0.1396002055445679	7.998502596862537	0.7623435519200491	114.23630827317648	0.7440285443370425	115.16308565854006	0.1279273786851291	-0.2587998804946121	0.3867272591797412	97.9417562978934
0	1.0	ltm	372	diff_vonmises	-0.0330315550461372	-1.89256869489772	4.222661189504762	0.311185907794422	3.807725931118926e-20	2.5465782888431634	-0.1588879878313036	-0.4052475669858072	0.2463595791545035	66.58343809418184
1	1.0	perception	372	diff_vonmises	-0.0315152298131889	-1.805689658680592	14.329914440727055	0.65631672313284	0.0176633333130005	3.0171690117356778	0.4934343521894477	-0.4836784852599672	0.9771128374494148	35.68052287734673
2	1.0	wm	372	diff_vonmises	0.027497755754157	1.5755053507947716	4.882208585872116	0.3666534880725915	2.0854926018339418e-23	2.7647066316086444	-0.1261394440765777	-0.439998686318747	0.3138592422421692	61.8156635547688
3	2.0	ltm	372	diff_vonmises	-0.0501111767810632	-2.871158935988888	3.5760153277291216	0.5724147780758976	0.110124024056092	1.9232254801410087	0.0731068200926857	-0.2938086243816046	0.3669154444742903	68.14736356461907
4	2.0	perception	372	diff_vonmises	-0.0288844762579727	-1.6549585830276683	7.389052458038978	1.165394342032736	0.2032638850288382	2.5676466650189744	0.7451191939532087	-0.4242506568914747	1.1693698508446833	48.45844619499232
5	2.0	wm	372	diff_vonmises	0.027618754371688	1.5824380609062196	4.194841874333773	0.6028059476328632	0.1540556647359733	2.097071421633883	0.088526340042587	-0.3261315600408245	0.4146579000834116	62.30837218459675
6	3.0	ltm	372	diff_vonmises	-0.0069766436428832	-0.399732235903988	1.866642088197338	1.924547631892748	0.6638380258061235	2.852125756459347	0.1601961249172928	-0.2605332298584432	0.420729354775736	76.80283861938051
7	3.0	perception	372	diff_vonmises	-0.0262245391494778	-1.5025554129406775	4.066740403187015	2.0677711857957632	0.2856192744110369	2.974961335021659	0.9866427465009036	-0.4369651922534707	1.4236079387543743	63.92473902121827
8	3.0	wm	372	diff_vonmises	-0.063105268137805	-3.615665529337618	2.3810836029981104	1.268782781290093	0.4725430410163736	2.379318199192438	0.1516678731134604	-0.2913616253171187	0.4430294984305791	73.30378699860074
9	4.0	ltm	372	diff_vonmises	-0.1090261508176315	-6.2467382984070765	1.3422139507991937	3.7662103338064585	0.6911031633217907	5.300607707624035	0.026376371347637	-0.3529447609037346	0.3793211322513717	80.67795629474625
10	4.0	perception	372	diff_vonmises	-0.100600278891486	-5.763971398321175	1.9985214045657531	3.51526609078638	0.4020569299314704	5.004662949483985	0.668628319045415	-0.543437061099387	1.212065380144802	83.07718458847322
11	4.0	wm	372	diff_vonmises	-0.1368874114195496	-7.843070942811103	1.0017489586992885	292.8565041520699	0.9908728464694758	294.5956595273762	0.0114488009327118	-0.3980577345716156	0.4095065355043275	80.13259846892399
12	5.0	ltm	372	diff_vonmises	0.0165750559587434	0.9496807516291648	1.2705545259666169	2.018597069096289	0.2613081278866167	3.124663069186953	0.1565602105145604	-0.3163104108580221	0.4728706213725826	101.31204423462216
13	5.0	perception	372	diff_vonmises	-0.03594313084968	-2.059389700173134	2.0762570861035954	2.526376895011589	0.2029559680102486	3.563384148165795	0.645436852190713	-0.4488783667777404	1.0943152189684535	87.59472268840139
14	5.0	wm	372	diff_vonmises	-0.0174116817418301	-0.9976158780318636	0.6431826756928459	188.07763195105548	0.6304777193563	189.26971163374	0.130268566332866	-0.3323876831123442	0.4626562494452102	106.0922900753996
15	6.0	ltm	372	diff_vonmises	-0.1406051741676561	-8.056083057508564	0.4207333004478107	159.90289660105074	0.4101354992838237	160.9778643871134	0.0645920901717715	-0.3141691652898437	0.3787612554616153	128.4998540358079
16	6.0	perception	372	diff_vonmises	-0.0587285301970294	-3.3648969172963943	0.510999027782803	113.26583843896276	0.485202281784893	114.3781944803368	0.2745382893143038	-0.4329197886379141	0.7074580779522179	122.81064810952437
17	6.0	wm	372	diff_vonmises	-0.1297090349825719	-7.431780269216124	0.5062598497652694	172.89615630179404	0.4942199022908671	174.00384308995032	0.116955667830112	-0.3359918935161197	0.4529475613462317	119.94692490767102
18	7.0	ltm	372	diff_vonmises	0.0488995253548552	2.8017364230261674	0.8228408281955364	180.12592130502588	0.8073413261708465	181.4947644328164	0.1155267806268369	-0.3474536215427157	0.4629804021695527	92.42541922352665
19	7.0	perception	372	diff_vonmises	-0.0206241045929162	-1.181674149410476	1.4842378118704225	3.182109084712647	0.2838605375648388	4.451079044629872	0.4472689864250576	-0.4593906758446349	0.9066596622696924	96.70387052499044
20	7.0	wm	372	diff_vonmises	0.1361037689891899	7.798171538904119	1.6591419709678583	1.5727231018867411	0.3551012119955903	2.9033268887944264	0.0854890707736981	-0.3188479970808826	0.4043370678545807	85.9465196999378
0	1.0	ltm	418	diff_vonmises	0.0363325626187143	2.081702496947115	5.683575212561959	0.3299802955199658	0.0391642070161567	3.564187227781411	-0.2834319209437785	-0.5683199404546911	0.2848880195109126	54.98268293564081
1	1.0	perception	418	diff_vonmises	0.0233747488605573	1.3392744568881685	11.294256204953989	0.6992222775724479	0.0767656829589669	3.911270038800632	0.2552817014970058	-0.6428091156742436	0.8980908171712494	39.65977475247661
2	1.0	wm	418	diff_vonmises	0.0812719074680382	4.656537290896346	3.253226304701694	0.6303738075293006	0.1004153646037997	4.018834567748445	-0.2731708308623559	-0.6215591851904219	0.3483883543280659	68.50909694492802
3	2.0	ltm	418	diff_vonmises	-0.0092738979960249	-0.5313552148070589	3.088749521886985	0.7059544936634305	0.1966560309098355	2.25264325227849	0.0378086311653794	-0.3336905556022783	0.3714991867676577	69.9223041934543
4	2.0	perception	418	diff_vonmises	-0.0081325856375585	-0.4659628335608122	6.879435365887559	1.2210519931340202	0.26092343299508	2.829834224370524	0.6775681508106376	-0.471387707537746	1.1489558583483837	49.60036875562116
5	2.0	wm	418	diff_vonmises	0.0724249074435759	4.149641528142521	4.027357674376589	0.734308111607825	0.2036979536978929	2.471813395349296	0.0893570658635536	-0.3830466938922716	0.4724037597558252	62.37820411181025
6	3.0	ltm	418	diff_vonmises	-0.0003519115602727	-0.0201630471654948	2.6688673067007467	0.9515744722371956	0.3648043957865106	2.109887229373383	0.1147292506372518	-0.2847230491934224	0.3994522998306742	71.63511528851527
7	3.0	perception	418	diff_vonmises	-0.006024365572212	-0.345170721531663	4.393259277419008	1.763369265303688	0.2001403359488598	2.919969774861637	0.8644128835728266	-0.4427863494515145	1.3071992330243412	62.32256461193754
8	3.0	wm	418	diff_vonmises	0.0137718668181711	0.7890698446974703	3.0009492658358785	0.8277565418545452	0.2375487100172319	2.216909851244761	0.1010395682849792	-0.3209404559734691	0.4219800242584484	70.5794416595491
9	4.0	ltm	418	diff_vonmises	-0.0452816446578358	-2.5944471283051023	0.7620209464789331	92.55933318586536	0.7323407055801727	94.58731793272034	-0.0652030088850494	-0.426107182597681	0.3609041737126315	90.49612743419866
10	4.0	perception	418	diff_vonmises	-0.0768644153664265	-4.404006595236751	1.8475012478537995	3.7853640923657697	0.4003503326385603	5.544969172126605	0.5952874340216974	-0.5837598021453836	1.179047236167081	85.03015011305433
11	4.0	wm	418	diff_vonmises	-0.0594550492295504	-3.40652339159578	0.839444309243522	231.5552215986566	0.824969724830285	233.7859851622485	-0.0482031423435529	-0.479264508309825	0.4310613659662721	86.29501201371099
12	5.0	ltm	418	diff_vonmises	-0.0193118112440994	-1.1064852790401831	1.007179397327926	3.715412590678219	0.3544429099126441	5.342444546984451	0.0998537299976218	-0.4131057291583946	0.5129594591560165	103.13515099078036
13	5.0	perception	418	diff_vonmises	-0.0443330279171598	-2.5400953926889125	1.664838944821971	3.8947070865657785	0.3722362256938561	5.460437318868561	0.5788568583328833	-0.5494404013047467	1.12829725963763	89.60114541451136
14	5.0	wm	418	diff_vonmises	0.0312336795244803	1.7895580154169022	0.6257442949364712	243.86179973213123	0.6134643593760694	245.5404421013428	0.1177528410094055	-0.4389836429486067	0.5567364839580122	106.23987017451076
15	6.0	ltm	418	diff_vonmises	-0.0673770200300078	-3.860418883887859	0.4989029138468911	248.86771827028764	0.4887757599301922	250.4713211874831	0.0782911475449807	-0.4333780426616229	0.5116691902066037	118.7137987757042
16	6.0	perception	418	diff_vonmises	-0.0781035519237657	-4.4750038902126565	0.5591988254953691	168.44368107524042	0.5372714911401009	170.03195258737873	0.2920145929668081	-0.5366053874929886	0.8286199804597967	116.6372910508433
17	6.0	wm	418	diff_vonmises	-0.0876250877988031	-5.020547710334707	0.5529015522015357	234.239504038942	0.5403172830665324	235.8555635345348	0.1436266128347298	-0.4583813792318487	0.6020079920665786	114.29082388604984
18	7.0	ltm	418	diff_vonmises	-0.0183247934583745	-1.0499333256138024	0.6646509659276626	257.3552077677668	0.6526120577851158	259.5998878509578	-0.0292825188011818	-0.4917904990144173	0.4625079802132354	98.32342856932344
19	7.0	perception	418	diff_vonmises	-0.0302004146692899	-1.7303563000952955	1.7191854116584098	3.1004145123222675	0.2390842654595079	5.143168249038324	0.4340826513854845	-0.6060345107131039	1.0401171620985885	91.53872687321672
20	7.0	wm	418	diff_vonmises	0.1903795143209226	10.907942676339283	1.9082095384090705	1.5692162993996563	0.2713211881736269	3.7107928044177183	0.0262130701470133	-0.4695689139877181	0.4957819841347314	82.64685834701399
0	1.0	ltm	9	diff_vonmises	-0.0283077817605995	-1.6219164222597675	7.037361347505889	0.390207505764253	0.0370671425816686	3.825684996059621	-0.2266346529019447	-0.612550328251662	0.3859156753497172	49.93474166505135
1	1.0	perception	9	diff_vonmises	-0.0230889490448202	-1.3228993336608157	14.013603343841528	0.7783670562126551	0.0624418834880282	4.222272353366099	0.4368640539820566	-0.6929011125899727	1.1297651665720294	35.80566294528137
2	1.0	wm	9	diff_vonmises	-0.0378896410974689	-2.170916522150402	5.0758213787666495	0.5035867231372287	0.0756502827315638	4.294548211270743	-0.2959738174641224	-0.6857902070145765	0.3898163895504541	56.87810913421805
3	2.0	ltm	9	diff_vonmises	-0.1085177263976375	-6.2176077249400326	2.946648977450053	0.8199228668885824	0.1436065346120475	2.5412455500183326	0.0670175894907526	-0.3759027020384266	0.4429202915291791	73.2490331561917
4	2.0	perception	9	diff_vonmises	-0.0572072515490401	-3.277734071303241	7.768381512299147	1.1547102907475049	0.1921537893676153	2.9979761540617083	0.6888811518828312	-0.4986208709118732	1.1875020227947044	47.20454784514959
5	2.0	wm	9	diff_vonmises	-0.038186119330864	-2.187903473641436	3.312031876285544	0.9609793549421	0.2045739106143859	2.9323299512745686	0.0989159807523605	-0.4379724658153017	0.5368884465676622	68.03002582542703
6	3.0	ltm	9	diff_vonmises	-0.0614463587151189	-3.5206170208232224	2.1086070569126245	1.408411377578667	0.3380186953854869	2.5727762441916293	0.1919797893024726	-0.3122671537225095	0.5042469430249821	80.56657309911165
7	3.0	perception	9	diff_vonmises	-0.0338728744250856	-1.9407727445340344	3.791217451689562	2.3313349907854533	0.3514534990110307	3.412153455280826	0.9921170556741308	-0.4885735691991519	1.4806906248732827	65.07136386144865
8	3.0	wm	9	diff_vonmises	-0.0888671693107556	-5.09171373878081	2.551757974902356	1.321925747486568	0.3497155822808027	2.671296765548085	0.2033927474693814	-0.3512172124082205	0.554609959877602	74.05077953195283
9	4.0	ltm	9	diff_vonmises	-0.1424377133926203	-8.161079820891185	1.7277401663807734	1.7234690402169417	0.2144775065346696	3.6297940714838246	0.1057807925394266	-0.4521753073094202	0.5579560998488469	89.77265660172252
10	4.0	perception	9	diff_vonmises	-0.082749723420878	-4.741209907891173	2.0696021709343317	3.4920666603255994	0.3523933370065897	5.241299569086747	0.6884570361121292	-0.6029491405568871	1.291406176669016	82.8110396145434
11	4.0	wm	9	diff_vonmises	-0.178201308292422	-10.21018286886542	0.8361418562907172	299.1515485453916	0.8244694456998194	301.2032474010224	0.034015804249293	-0.4680055639524454	0.5020213682017385	88.70663450567866
12	5.0	ltm	9	diff_vonmises	-0.0264823783492259	-1.5173285108792751	1.2092771989161468	2.4767442809626683	0.1932619688729046	3.701752788389759	0.2350992137229686	-0.397116772028919	0.6322159857518876	108.02436169732412
13	5.0	perception	9	diff_vonmises	-0.0247757312207531	-1.419544833299663	2.1644509583184943	2.556957067913881	0.1305151394265411	3.685105029885047	0.7178634916800052	-0.4982333132689702	1.216096804948975	88.2414819714989
14	5.0	wm	9	diff_vonmises	-0.0931259670080674	-5.33572487263681	0.6861634466500465	262.34001447190195	0.6748183723092918	263.5826145294052	0.2190967294049954	-0.379099769843684	0.5981964992486795	104.19433218886375
15	6.0	ltm	9	diff_vonmises	-0.0705032614061046	-4.039539320477377	0.8733754600469348	1.702095664444956	7.905444343211798e-15	2.574373522925802	0.1309444959293635	-0.3154643275374396	0.4464088234668032	134.00005615090822
16	6.0	perception	9	diff_vonmises	-0.0202377442055453	-1.1595373298430862	0.7604885105509247	3.005294508026353	5.4191046016223854e-14	3.904087355701983	0.2685079654077699	-0.4269201482178573	0.6954281136256273	139.2171768168071
17	6.0	wm	9	diff_vonmises	-0.1771101397734739	-10.147663517992152	0.4548539507215692	199.99081596236692	0.4443966352321112	200.8567798389301	0.1828288232272612	-0.330440140940631	0.5132689641678922	127.4083569817624
18	7.0	ltm	9	diff_vonmises	0.0664284897934271	3.8060721045912382	0.6906645312054271	165.424743068255	0.6760334369763255	166.4468281136005	0.1747738991034282	-0.3087837202211876	0.4835576193246158	103.84931064750197
19	7.0	perception	9	diff_vonmises	0.0101342755904753	0.5806512197566895	0.7932421768267307	242.3478081085012	0.7789534789308541	243.16300902265067	0.4170149050052032	-0.3569146232559532	0.7739295282611565	100.60078520318194
20	7.0	wm	9	diff_vonmises	0.0999634662206513	5.727484719941894	0.9026912090216144	137.5924719815998	0.8842105767474049	138.58698745615456	0.1664717790530829	-0.2817838097330849	0.4482555887861679	90.2365466222626
0	1.0	ltm	228	diff_vonmises	0.0136260187467628	0.7807133657556491	6.385607437948424	0.4180651370799887	0.0663179049644174	3.5336334462069865	-0.1878033546447089	-0.5684924663043863	0.3806891116596774	51.61648648308062
1	1.0	perception	228	diff_vonmises	-0.0098585158807012	-0.5648513522268799	12.28509798541696	0.7023002091888382	0.0554303006765841	3.879289854131563	0.3192012388510017	-0.6323109851955888	0.9515122240465904	38.23445862353751
2	1.0	wm	228	diff_vonmises	-0.0057769793968119	-0.3309965377713565	3.814197808278816	0.6884792548680745	0.1416327158520206	4.087161496747099	-0.2300200441405513	-0.6414488461215678	0.4114288019810165	62.87120433275487
3	2.0	ltm	228	diff_vonmises	-0.0415216832897415	-2.3790172107810665	2.146791068690338	1.6550072796263564	0.5255549474199787	3.1143421177124915	0.1076449707887111	-0.3595305982402976	0.4671755690290088	73.90514126306812
4	2.0	perception	228	diff_vonmises	-0.0298496292018163	-1.7102577732945334	6.718941676485695	1.2097265500128986	0.2535933165377583	2.774011868266784	0.6658567136193729	-0.4594384551209141	1.125295168740287	50.20892497732714
5	2.0	wm	228	diff_vonmises	0.0189242173526579	1.0842777848955365	3.6770038745193343	0.8455511085245853	0.230169824091761	2.481765717744983	0.1300492853015015	-0.3763145264627982	0.5063638117642998	64.78614266537821
6	3.0	ltm	228	diff_vonmises	-0.0115065203941632	-0.6592750554667607	2.309308469040249	1.3976479042088306	0.3935759385775243	2.6781785857953144	0.1779177808829402	-0.3326629298626646	0.5105807107456048	75.94669488978923
7	3.0	perception	228	diff_vonmises	-0.0205276188889139	-1.176145925787795	4.538596253837798	1.8788432380711164	0.2324394041894256	3.126486968798344	0.9274567177463928	-0.4764542844101975	1.4039110021565904	61.015002749020965
8	3.0	wm	228	diff_vonmises	-0.0008015889479842	-0.045927663623829	2.7139576056549206	1.1252904448712548	0.2888760987804638	2.612396083680745	0.1521320601691159	-0.3612114619033999	0.5133435220725159	72.88843887365107
9	4.0	ltm	228	diff_vonmises	-0.135263940373143	-7.750052903690318	1.7955886465240785	1.4996043526419265	0.1708262907887023	3.5040304127315234	0.0678561438724363	-0.4592940286097259	0.5271501724821622	89.8230785146669
10	4.0	perception	228	diff_vonmises	-0.0607887625971275	-3.482939538638126	2.1493115591015286	2.7245870545670474	0.1779338408544465	4.645943098149632	0.5912934602036197	-0.6128186325649482	1.2041120927685678	85.91892808192208
11	4.0	wm	228	diff_vonmises	-0.121710304174939	-6.973486752477491	0.861030462625932	254.84186461475784	0.8460073985261096	257.03699874647486	0.0446503969844229	-0.5039737303203715	0.5486241273047945	87.6183048316924
12	5.0	ltm	228	diff_vonmises	-0.0369794470903561	-2.118766247004738	1.6909982878676708	1.5065256662505535	5.496931178654152e-10	2.4369827419374275	0.3140078494774498	-0.3640085995399165	0.6780164490173664	104.84110478583806
13	5.0	perception	228	diff_vonmises	-0.0509227001531814	-2.917655800187489	1.7735174993194445	3.2530111083918096	0.299005660751381	4.09034471539221	0.7015472882392282	-0.4407732473566149	1.142320535595843	91.27570593027504
14	5.0	wm	228	diff_vonmises	-0.0160619431649277	-0.9202815541293614	0.7485258412165017	183.6653726112097	0.7324304728116362	184.55304996660925	0.3061326574886465	-0.3312075113501187	0.6373401688387652	102.27412692834244
15	6.0	ltm	228	diff_vonmises	-0.0430166157437406	-2.464670531052349	0.995405538203146	1.711142194150082	1.211101459813604e-19	2.227742707144398	0.2286523396161177	-0.2748937346513428	0.5035460742674606	128.76658051626853
16	6.0	perception	228	diff_vonmises	-0.0357876885143307	-2.050483510399961	1.2239232244042846	1.9747375390080903	3.2674174370698608e-15	2.5597914332444227	0.3500033298995254	-0.3419031429457297	0.6919064728452551	119.80393874297748
17	6.0	wm	228	diff_vonmises	-0.0818846751504061	-4.691646292918041	0.5361253623140853	179.08490399264696	0.5244108957968164	179.54073127107418	0.2792781174793575	-0.2704737661507934	0.5497518836301509	122.06611843375006
18	7.0	ltm	228	diff_vonmises	-0.0513678185100067	-2.943159203417374	0.7196937762702268	238.3627425851737	0.7068410408975814	239.67595002662745	0.2088500699026383	-0.3841845250205082	0.5930345949231466	101.28721664960356
19	7.0	perception	228	diff_vonmises	-0.024083143254635	-1.3798624658995458	0.8167317400382282	295.2808551235507	0.8018682668149191	296.3877308431601	0.5015597780667918	-0.4512181336824241	0.952777911749216	98.71369782044708
20	7.0	wm	228	diff_vonmises	0.122377797949052	7.011731328585427	0.870448507102004	64.67120652952428	0.8254403490860642	65.87177476144537	0.1850509171493151	-0.3360711580668072	0.5211220752161223	92.44415332262705
0	1.0	ltm	349	diff_vonmises	-0.0607290040910315	-3.47951562844882	3.4437920375714497	0.4252761709150264	2.956884985803779e-18	2.7846300448711028	-0.1421617778076017	-0.4428804026580228	0.3007186248504211	73.93596193631004
1	1.0	perception	349	diff_vonmises	-0.0510875292702809	-2.9270998129381574	15.086467780993685	0.6901400695259301	1.6286980060895354e-16	3.2135061865165637	0.5488061823206064	-0.5114453942404137	1.06025157656102	34.8769287921738
2	1.0	wm	349	diff_vonmises	-0.032458301835984	-1.8597237053636149	4.076366051107429	0.4456958266645154	1.250115146629684e-16	3.0012572282184333	-0.1314407805472076	-0.4775652265206059	0.3461244459733983	67.79840137018886
3	2.0	ltm	349	diff_vonmises	-0.0288598173006058	-1.6535457288433533	2.8444664094366563	0.8475996895648935	0.2146656643998414	2.2334971640247163	0.1028916259662683	-0.3205095429536531	0.4234011689199214	72.86182478937252
4	2.0	perception	349	diff_vonmises	-0.0409436172112764	-2.3458964642053384	6.753012627826074	1.2596962224350614	0.1882295329001928	2.637503531392264	0.7774619743723389	-0.428957554527345	1.206419528899684	50.73138083571072
5	2.0	wm	349	diff_vonmises	-0.0303324917263482	-1.737923758035245	3.512133261666429	0.7801422646166724	0.1637334875331594	2.3028489722963186	0.1295011208293961	-0.3474111911895622	0.4769123120189583	67.64653407714414
6	3.0	ltm	349	diff_vonmises	-0.0228059688625223	-1.306685763529304	2.662086396617472	0.9425581133072112	0.1121880015845774	2.0690961754560284	0.2090175435914706	-0.3000138236924334	0.5090313672839041	79.29754363092604
7	3.0	perception	349	diff_vonmises	-0.03180797114008	-1.822462501200515	3.884344915129789	2.3242198860983416	0.243350850625616	3.3558860242761184	1.0872285422352057	-0.4902761263419214	1.5775046685771272	65.7487549850043
8	3.0	wm	349	diff_vonmises	-0.1068465517734158	-6.121856472142769	2.7291172657310123	1.1970591858841555	0.2610192657922437	2.45500109420778	0.2437951746251865	-0.3373780388492945	0.5811732134744811	74.40074724785558
9	4.0	ltm	349	diff_vonmises	-0.1615078863604825	-9.25372024653416	2.918290015656535	0.7656414337346971	0.0294196170627135	2.5543652487027027	0.0750115666432842	-0.3947521168719426	0.4697636835152269	78.40001976330521
10	4.0	perception	349	diff_vonmises	-0.0756148697187817	-4.332412903317764	1.9049089870368685	3.664316487034981	0.2889612663835031	5.435100946576274	0.7042545859020286	-0.6280641129627562	1.3323186988647848	87.45861236451296
11	4.0	wm	349	diff_vonmises	-0.1344486845005062	-7.703342182964976	0.9027695819774764	381.6200982976708	0.89321055908167	383.652484218616	0.0415586708549824	-0.4679431260354647	0.5095017968904472	85.31595675463151
12	5.0	ltm	349	diff_vonmises	-0.0382624350700206	-2.19227604340553	1.3770045745380732	1.556911784662465	0.0705845526308676	2.3424789339726426	0.2408720921192967	-0.3061971734351063	0.5470692655544029	110.28522135857148
13	5.0	perception	349	diff_vonmises	-0.0159148711549309	-0.9118549486720372	1.571605042744555	3.6115784376953313	0.3309438619047046	4.2587561387578505	0.6908893510773224	-0.4119722297707907	1.102861580848113	95.27195030100332
14	5.0	wm	349	diff_vonmises	-0.0339519694941959	-1.9453045581743496	0.6575904723137981	104.36426574133282	0.6343223490816697	105.21542250199435	0.2298358202589625	-0.3050376292568906	0.5348734495158531	108.72269814295156
15	6.0	ltm	349	diff_vonmises	-0.1103033299594585	-6.319915272915904	0.6991466886023416	1.7454197245051029	1.8987434652787216e-19	2.350122354667189	0.1223505225911035	-0.2514150213181003	0.3737655439092038	142.00654142320394
16	6.0	perception	349	diff_vonmises	-0.0031744276955688	-0.1818813093255328	0.9162898447919962	3.390536726561343	0.1644495408511013	4.015813900480343	0.3564033812340379	-0.3618152693363964	0.7182186505704343	123.06711070673592
17	6.0	wm	349	diff_vonmises	-0.0451745280278889	-2.588309797493485	0.4276858941920179	200.25046025701545	0.4184818360744243	200.90187048835327	0.1888937322714738	-0.2871983031386982	0.4760920354101721	131.2046399266622
18	7.0	ltm	349	diff_vonmises	0.0098894576214514	0.5666241833826541	0.8583870432923151	142.6286061909162	0.8389772721832935	143.8339903462302	0.153265184572092	-0.3247346230129402	0.4779998075850322	91.7442308743198
19	7.0	perception	349	diff_vonmises	0.0950518750211369	5.446071273516122	0.708994983292808	177.63692485559474	0.6870889791370884	178.77315741707122	0.4210549593157253	-0.4485790595018279	0.8696340188175533	105.67903630141006
20	7.0	wm	349	diff_vonmises	0.0176162403620619	1.0093362236341623	0.7355895488649135	118.59341567289832	0.7165592616354157	119.84469601853148	0.070568766169238	-0.3078442341214735	0.3784130002907115	97.14857787850988
0	1.0	ltm	395	diff_vonmises	0.0241767658901522	1.385226647781572	4.669352081749614	0.4058094221567404	0.0146023009086062	3.613229038647898	-0.244276214508882	-0.5722085398692844	0.3279323253604024	62.02996853108888
1	1.0	perception	395	diff_vonmises	-0.018605015962288	-1.065988892412633	14.07385772183283	0.5956687940160902	0.0091850464592325	3.783066806364233	0.275670259677285	-0.604190830660351	0.8798610903376359	36.02921064627506
2	1.0	wm	395	diff_vonmises	0.0453934296585148	2.600851937056877	2.71339199018339	0.7899583120899492	0.115604439471751	4.1713392099415865	-0.2544277898018115	-0.6295849127147307	0.3751571229129192	73.75555307012647
3	2.0	ltm	395	diff_vonmises	-0.046131648881843	-2.643148782909008	2.6026892438439084	0.9766663263586564	0.2299475342248071	2.740174745923484	0.0476347126776599	-0.3871636753664624	0.4347983880441223	74.37322316591656
4	2.0	perception	395	diff_vonmises	-0.0277472559436861	-1.5898006586425022	6.433817000157542	1.176538015423214	0.1659078992093153	2.9625074473619413	0.6125267870014096	-0.4792673873109605	1.09179417431237	51.83535211207746
5	2.0	wm	395	diff_vonmises	0.0357555605095996	2.048642711324693	3.857115101250148	0.8229072610389045	0.1843565266587361	2.744349972693513	0.0994630188347317	-0.4219613646235292	0.521424383458261	64.00463588283088
6	3.0	ltm	395	diff_vonmises	-0.0557747654421914	-3.1956586631696844	2.4031867483929457	1.3609794014223862	0.2771631553826066	3.0423515162644312	0.1568885554403707	-0.4063860249467309	0.5632745803871017	76.88719333376343
7	3.0	perception	395	diff_vonmises	-0.0316156627663957	-1.8114440430233785	3.628485788195145	2.253716985718337	0.1893414917830854	3.8546399800369264	0.907619447793081	-0.5662853527168307	1.4739048005099118	68.08155129704573
8	3.0	wm	395	diff_vonmises	-0.0315136710612572	-1.8056003487736	2.445590241685894	1.3399602365275811	0.2650182593091184	3.198098339623888	0.1275981746698407	-0.4341816059956511	0.5617797806654918	76.22009288450812
9	4.0	ltm	395	diff_vonmises	-0.0717013889075321	-4.108186969627729	2.1571571225564887	1.0011392802924088	0.0692401447552461	3.306903009588116	-0.0228245948870533	-0.4871808055153359	0.4643562106282826	87.32154957500805
10	4.0	perception	395	diff_vonmises	-0.0948227746588654	-5.432944789673044	1.3345628054114105	8.008837807083719	0.573053265307845	9.998376468444684	0.6291127960941476	-0.6683442979008519	1.2974570939949994	90.4956728985336
11	4.0	wm	395	diff_vonmises	-0.1019369133021713	-5.840554908805401	0.7868013198570808	243.98075205949567	0.7716787269709044	246.4821105977711	-0.0413996616789518	-0.5401267085194199	0.4987270468404681	89.68703300097314
12	5.0	ltm	395	diff_vonmises	-0.034530610066362	-1.9784582208145036	0.6034462012915489	154.91988836174133	0.584049231976076	156.56154084785945	0.1374016091771821	-0.4467823738982979	0.58418398307548	109.20045111103894
13	5.0	perception	395	diff_vonmises	-0.0337188968452078	-1.9319504790673947	1.0773779977891766	11.686763157505927	0.637480891953857	13.26224631734567	0.5478158687090033	-0.5625776796488889	1.1103935483578922	95.30804020063836
14	5.0	wm	395	diff_vonmises	-0.0393219540619848	-2.252982009959037	0.6324950772843158	297.1189140487423	0.6220591276279633	298.81670886902185	0.1303491989567504	-0.4480138756946132	0.5783630746513637	105.81026187535277
15	6.0	ltm	395	diff_vonmises	-0.0946418398740073	-5.422577990133569	0.3858578583082439	124.45742607885856	0.3682811940474033	126.12269436732524	0.0288635327382742	-0.4505495159312662	0.4794130486695405	131.92033989889296
16	6.0	perception	395	diff_vonmises	-0.0436537344354621	-2.5011747431368865	0.5387552430045416	256.19217359245897	0.5246660381199897	257.81483724415256	0.2698542077137631	-0.5386254452668027	0.8084796529805658	118.01559028561016
17	6.0	wm	395	diff_vonmises	-0.0867407292723079	-4.969877699190121	0.5121232628963829	285.2220192219846	0.5024411390548511	286.91076533365697	0.0992720784854412	-0.4622908393059681	0.5615629177914094	117.55994338599788
18	7.0	ltm	395	diff_vonmises	-0.1037519123185373	-5.9445466922635655	0.7076384266197457	193.1059983396117	0.6897063965736828	195.45382475505	-0.0035129387348149	-0.5228109881940348	0.5192980494592199	96.07819207469954
19	7.0	perception	395	diff_vonmises	0.0334960751856117	1.919183738388438	0.7670911376457931	158.94010569520458	0.7331715986892635	161.17899640701876	0.3779040110834373	-0.6557258890716025	1.0336299001550395	98.88474390346656
20	7.0	wm	395	diff_vonmises	0.1081226978887764	6.1949742585949465	1.4493191070167395	2.823273778663565	0.4355488379894055	5.124370167215392	-0.0052427508016441	-0.5029480353712579	0.4977052845696137	84.91784490896706
0	1.0	ltm	326	diff_vonmises	-0.0539401381644394	-3.090542263174917	5.080573746262711	0.2508014197065059	3.968211065770282e-18	2.95172485347956	-0.250443930599654	-0.4697731251272088	0.2193291945275549	60.56204123647481
1	1.0	perception	326	diff_vonmises	-0.0033285956750978	-0.1907144838886083	13.593835808030857	0.7531247721806485	0.0751101912262011	3.539343592340483	0.4907526273002679	-0.5839419690613329	1.0746945963616008	36.32024695722029
2	1.0	wm	326	diff_vonmises	0.0839024533536045	4.807256467954798	3.4475120004123383	0.3977112250828465	1.8079636182261654e-17	3.260550213973657	-0.2372203349848283	-0.5186473507865265	0.2814270158016981	73.88755576223846
3	2.0	ltm	326	diff_vonmises	0.0377648256356674	2.1637651229712	3.805794482105016	0.3864155275804108	9.203368220233178e-20	1.6959024536753486	0.0191937923391852	-0.2697682380685364	0.2889620304077216	70.23206160155706
4	2.0	perception	326	diff_vonmises	-0.0202016724930416	-1.1574705729568135	7.7339234617421	1.2574839015566617	0.3284557250844039	2.5143038205177404	0.829968957361725	-0.4321503853042485	1.2621193426659736	46.8156599795
5	2.0	wm	326	diff_vonmises	0.0385549841871157	2.209037873115357	3.967974097129185	0.6621981604140932	0.1855531694211375	2.1772653863470826	0.0932872413300018	-0.3358944662510132	0.429181707581015	63.28116055741648
6	3.0	ltm	326	diff_vonmises	0.0087259124337446	0.4999579548542987	3.274351127360701	0.5425659197271616	0.2766378462386605	1.2175701840375537	0.1226368874863415	-0.1761361435345505	0.298773031020892	68.30895352040292
7	3.0	perception	326	diff_vonmises	-0.0083165374891112	-0.4765024982884004	4.072980547187156	1.9783833427099489	0.3616491521147617	2.5567021072319904	0.9703989731503307	-0.3692594249139887	1.3396583980643195	63.41714681318433
8	3.0	wm	326	diff_vonmises	-0.0820913885866659	-4.703490100384376	3.3312014047394225	0.7136246753287426	0.2888504862068815	1.604473546897922	0.1619927890999707	-0.2328416843977142	0.3948344734976849	67.56598092077442
9	4.0	ltm	326	diff_vonmises	-0.0737890452186123	-4.227800865326474	0.9628492443473406	77.8759565731062	0.9306770358064492	79.30839984360746	0.0052444403955931	-0.3238676000932283	0.3291120404888215	82.14895931946128
10	4.0	perception	326	diff_vonmises	-0.0803121096984742	-4.601544929514259	2.194780553276853	3.384235190355251	0.4549170249637692	4.5714571361181005	0.7566155297979045	-0.498636575085539	1.2552521048834435	79.66584608431015
11	4.0	wm	326	diff_vonmises	-0.0806921282918866	-4.62331839105329	0.9684016538280033	265.655978125438	0.9569461942629458	267.32309371115355	0.0213187684144031	-0.3826119590765344	0.4039307274909376	81.8968937473683
12	5.0	ltm	326	diff_vonmises	0.0108316734955438	0.6206091763583754	0.6400479244536997	153.02606518143557	0.6254017724616036	154.51134106220312	0.0238404161683547	-0.3471806550641467	0.3710210712325015	102.42612433015292
13	5.0	perception	326	diff_vonmises	0.0093943701487136	0.5382577607049803	1.9132847565015203	2.880577606173257	0.2601179166769064	4.289947806422476	0.5757980185648338	-0.5074740289085459	1.0832720474733797	88.22922452604547
14	5.0	wm	326	diff_vonmises	0.0276143161268037	1.5821837682059012	0.4905423131080504	190.05461272505715	0.4785469013227656	191.69847359909696	0.0260094373031662	-0.4138249498512252	0.4398343871543915	118.16015197256124
15	6.0	ltm	326	diff_vonmises	-0.1666704052135799	-9.549510788473365	0.4478660446703502	227.95682588989092	0.438624701065586	229.61858052677	-0.0011703719157765	-0.4120468056343647	0.4108764337185882	122.33727079312848
16	6.0	perception	326	diff_vonmises	-0.0118555944560862	-0.6792755259524388	0.5142828225984934	290.9268317480912	0.5009547549157211	292.5762393172963	0.3182783199104619	-0.5839326542538537	0.9022109741643156	121.055582688977
17	6.0	wm	326	diff_vonmises	-0.1215846432622993	-6.966286912533471	0.4213288134165755	159.81096270830537	0.4045528557523567	161.63441500163168	0.0755490012618835	-0.5113722800515212	0.5869212813134048	128.2216807354358
18	7.0	ltm	326	diff_vonmises	0.1791302685267337	10.263408369626966	0.7276459444069697	207.2022271352781	0.7159380335932105	208.8401288271744	-0.008291927483647	-0.3614414993791683	0.3531495718955213	94.1986262917676
19	7.0	perception	326	diff_vonmises	0.033615210331334	1.9260096794300008	2.12253271593022	1.6251436967861277	5.02299012056919e-19	3.1665366502310253	0.3650096813501116	-0.4915132706458622	0.8565229519959738	94.28945713596076
20	7.0	wm	326	diff_vonmises	0.2345308862261575	13.437629946221715	0.795484933734963	123.665752206642	0.7744531761451009	125.36818898149122	-0.0119539619156157	-0.3735489968651801	0.3615950349495644	89.98797051329908
0	1.0	ltm	84	diff_vonmises	0.0142516224922227	0.8165578200180784	4.339769612590878	0.416307821074339	3.0693071459594985e-15	3.522876164815045	-0.2261155553218161	-0.5606262666736641	0.3345107113518479	65.65500274836859
1	1.0	perception	84	diff_vonmises	-0.0400175256023936	-2.2928353235738723	15.056913134755575	0.6097519408072626	3.715541782232426e-19	3.775815270893352	0.334705916893336	-0.6009396645644626	0.9356455814577986	34.91417498175343
2	1.0	wm	84	diff_vonmises	-0.0226874766210674	-1.2998966581888918	3.225775462541908	0.6069732250987219	0.0547269724449874	3.9451804069555103	-0.2485093976339472	-0.6121606006800807	0.3636512030461334	71.49465841192446
3	2.0	ltm	84	diff_vonmises	-0.0207447773222919	-1.1885881875060278	2.41351499444893	1.1804488153969943	0.2761890065604137	2.999719356959781	0.0639671317688185	-0.4079763440302622	0.4719434757990807	75.59249444746231
4	2.0	perception	84	diff_vonmises	-0.0359087831276389	-2.0574217206642893	6.232085772911735	1.257562597424305	0.1604056301172267	3.112077560766375	0.6473688880612652	-0.5009629816450755	1.1483318697063407	52.68682166821483
5	2.0	wm	84	diff_vonmises	-0.0053521774739979	-0.3066571804650735	3.448169231526578	0.913591203815128	0.1715743834680499	2.935451795837033	0.0966007468148827	-0.443337947957135	0.5399386947720177	67.581683159113
6	3.0	ltm	84	diff_vonmises	-0.0334166671508786	-1.9146339931388023	2.7416743928785268	1.11648113148838	0.0853097270892823	3.031578307758251	0.1698840578487159	-0.4505138442640918	0.6203979021128079	78.48281829202259
7	3.0	perception	84	diff_vonmises	-0.0359561174032277	-2.060133774881841	3.734929025444052	2.4363290587414625	0.1632794998299561	4.254355125309361	1.0121533585008762	-0.6320794006911555	1.6442327591920316	67.55590482639255
8	3.0	wm	84	diff_vonmises	-0.0591270344483506	-3.3877295290151195	2.8430465358036505	1.1703760731279471	0.1176434422356832	3.294958663387906	0.1554301225886373	-0.4861838578511439	0.6416139804397812	75.80696509575625
9	4.0	ltm	84	diff_vonmises	-0.0848875812861675	-4.863700140771111	1.9336326983190095	1.0814597425368813	3.885973892626491e-17	3.727320718446303	-0.0465956301762537	-0.5817884451769658	0.535192815000712	98.57036857957544
10	4.0	perception	84	diff_vonmises	-0.0606123373937854	-3.472831119086885	1.2942078907399983	7.257923671652145	0.4458568583349807	9.694192524027615	0.5827662901633914	-0.7626290955850263	1.3453953857484178	94.5345347563986
11	4.0	wm	84	diff_vonmises	-0.093459192055163	-5.354817261463436	0.7018987800279208	180.35883759164247	0.6803666104385035	183.2661660608512	-0.0765473247251407	-0.6182673274063433	0.5417200026812026	94.80127708690812
12	5.0	ltm	84	diff_vonmises	-0.0509256105006633	-2.9178225508151177	1.392076436910487	1.8205991439776967	0.0807208088560428	3.0264976999081714	0.2325188097534021	-0.3970315661319497	0.6295503758853518	108.68732394994332
13	5.0	perception	84	diff_vonmises	-0.0256717734752178	-1.470884272745879	0.8252752932915092	282.9033770001617	0.8074034529254909	284.03584405396833	0.6198669898478499	-0.5056978031911363	1.1255647930389865	98.92107868882752
14	5.0	wm	84	diff_vonmises	-0.0446364388601672	-2.5574795591813206	0.644039197238526	214.2103830669084	0.6301324944126476	215.5213448921912	0.2100028037892798	-0.3990789749838264	0.6090817787731062	107.46395320305736
15	6.0	ltm	84	diff_vonmises	-0.0905500583224068	-5.188136176537367	0.7365466361642308	1.9821574636956492	4.647358384131509e-16	2.9755852332149173	0.1042747142904641	-0.341125075763407	0.4453997900538711	140.26196100655378
16	6.0	perception	84	diff_vonmises	-0.0034982616745107	-0.2004356295818338	1.036217084939608	3.053987223468462	0.1410575411555249	4.073354323233903	0.3216572832206433	-0.4262196184511062	0.7478769016717496	118.61037636038115
17	6.0	wm	84	diff_vonmises	-0.0081336473295163	-0.4660236640291385	0.4629127285518851	262.02816267065003	0.4544123099190087	263.10320830452343	0.1572728578294686	-0.3635167492490652	0.5207896070785338	125.5818179474941
18	7.0	ltm	84	diff_vonmises	-0.1284670174655368	-7.360617907408695	0.806148262634991	186.5528963035804	0.7870245917297751	188.5906553906209	0.0675750909251036	-0.4776627894143033	0.5452378803394069	91.50171701323728
19	7.0	perception	84	diff_vonmises	0.1268856324492051	7.270011220187662	0.6459069251392857	214.9767128862993	0.6242454869645438	216.95559077411585	0.349472264872162	-0.6196639149445744	0.9691361798167364	108.01450667077916
20	7.0	wm	84	diff_vonmises	-0.0190759904261892	-1.0929737414526106	0.7746532065006362	105.48196306999525	0.7453402036097422	107.5992317221232	-0.0304442321480031	-0.4587979897700407	0.4283537576220375	91.0343627722272
0	1.0	ltm	493	diff_vonmises	-0.0630250936681408	-3.611071870601161	2.1967926515177747	0.3247935068730292	1.99912421925548e-19	1.688960924679722	-0.091526368005035	-0.266615723271128	0.1750893552660929	92.73065043241344
1	1.0	perception	493	diff_vonmises	-0.0210769109925476	-1.2076180450458711	12.38828865414441	0.689552597784976	0.0104934202062105	2.2558101496488296	0.595213080259779	-0.3600289320224235	0.9552420122822024	38.45060081392154
2	1.0	wm	493	diff_vonmises	0.0730458638272991	4.185219708191565	4.457205199948315	0.3479561468022595	3.5766045652468856e-16	1.7647367911432148	0.0028294583365018	-0.2808284423747525	0.2836579007112544	64.76309224854802
3	2.0	ltm	493	diff_vonmises	0.0228504046964263	1.3092317492711467	3.789030976342612	0.559459746665862	0.3119585192879804	1.3989361963080076	0.1206509880875911	-0.2112023169315738	0.331853305019165	63.17128719537547
4	2.0	perception	493	diff_vonmises	-0.0002659308808832	-0.0152367171168091	7.019172931099641	1.3097713816529166	0.3329816778799423	2.046301280996748	0.9158334281844904	-0.3420848464150106	1.257918274599501	49.33456370312527
5	2.0	wm	493	diff_vonmises	0.0916074492373712	5.248720213260303	5.002028305360051	0.4162101214937312	0.1537974892101904	1.303356709055851	0.1204738329946797	-0.2060546272724311	0.3265284602671108	57.92374423252844
6	3.0	ltm	493	diff_vonmises	0.0939588910579769	5.383447905351572	2.0286055528758964	1.3993481499682172	0.8978374347923921	1.8311846445054996	0.1378908870624928	-0.1457784431944792	0.2836693302569721	72.34645541986688
7	3.0	perception	493	diff_vonmises	-0.00263810279714	-0.1511521561977835	4.976011710335343	1.5953969607991738	0.2448634149401575	1.9831139135939724	0.9826461112889544	-0.3029876638539213	1.2856337751428757	58.95362117723755
8	3.0	wm	493	diff_vonmises	-0.02739395238021	-1.5695578555683924	3.0439337216911526	0.7025950440953933	0.489446659095545	1.2451463219631351	0.1591878217740998	-0.16625583680442	0.3254436585785198	67.70143193186055
9	4.0	ltm	493	diff_vonmises	-0.1297272770090669	-7.43282546034405	1.2760786301534035	99.41767273506969	1.252853748737391	100.49794423611748	0.0021275128176085	-0.2632722043808826	0.2653997171984912	70.60475664254886
10	4.0	perception	493	diff_vonmises	-0.0893950333545107	-5.121958120644687	2.4375680715952046	2.3605609678651445	0.2561280127530435	3.584946293386514	0.645480915959912	-0.4622528003317604	1.1077337162916725	80.03357246879932
11	4.0	wm	493	diff_vonmises	-0.0865946069622037	-4.961505507528448	1.211181373378466	234.44680035578375	1.1991842787723914	235.74105202003932	0.0286583594260747	-0.3168563481042632	0.3455147075303379	73.20711893441765
12	5.0	ltm	493	diff_vonmises	0.0247384221187947	1.417407179220023	2.024359331122614	0.7356033312652988	3.0643504048750584e-14	1.3054709883563629	0.1744799267780584	-0.2011031664691139	0.3755830932471723	96.46401157757566
13	5.0	perception	493	diff_vonmises	-0.0527974333222635	-3.0250700984890777	2.286824742191561	2.1695833267785645	0.1923447738942069	2.537698389424061	0.7279560755983328	-0.325339046683889	1.0532951222822218	85.32474457560977
14	5.0	wm	493	diff_vonmises	0.1241875159748471	7.1154205335722285	1.107260774131528	2.197390766680367	0.3467192217385563	2.7706102572015645	0.1898552635910922	-0.2162681443541356	0.4061234079452279	105.10486814879197
15	6.0	ltm	493	diff_vonmises	-0.119856677483915	-6.867281766289016	0.5189088423802183	112.14322369438516	0.506803029885373	112.6309196320591	0.1332772187340332	-0.1952833560227205	0.3285605747567537	121.55770053746512
16	6.0	perception	493	diff_vonmises	-0.1037695153803571	-5.9455552734123485	0.6075532058875832	182.9759447882889	0.5929340917427653	183.47365903623992	0.3747949512198545	-0.3155227941549867	0.6903177453748413	116.1803063503115
17	6.0	wm	493	diff_vonmises	-0.0414074595153634	-2.3724726705891497	0.6130440938171343	14.69413944191858	0.4985585043666806	15.167395308200325	0.2001136905438065	-0.2235287433316628	0.4236424338754694	118.73881714724898
18	7.0	ltm	493	diff_vonmises	0.0969158604746515	5.552869773076285	0.9629792549252988	120.8719427203214	0.9417492260821826	121.92755085296726	0.1381569583681425	-0.284073838004776	0.4222307963729186	86.45492170133053
19	7.0	perception	493	diff_vonmises	-0.0478822447290614	-2.74345053658775	2.307216008195615	1.818230975293758	0.0552980853091041	2.76468950012892	0.5572506346832482	-0.4058992039692771	0.9631498386525252	88.2232450836984
20	7.0	wm	493	diff_vonmises	0.1693415190975191	9.702554340621877	2.385760169769502	0.6275633781362845	0.0208301780633946	1.606548111185575	0.0987454297586052	-0.2473452918185247	0.34609072157713	87.60235846980927
0	1.0	ltm	182	diff_vonmises	-0.0007484422334124	-0.0428825811838782	6.242546382201868	0.3004097033511813	2.181315879158421e-14	3.720618308788841	-0.2992358322573014	-0.5921536871959371	0.2929178549386356	54.51633253752425
1	1.0	perception	182	diff_vonmises	-0.0080150757087851	-0.459230010591216	13.872203367763904	0.7233080129309365	0.0436717071438832	4.167741242227094	0.3716606987060278	-0.67704831687728	1.0487090155833076	36.0824390318179
2	1.0	wm	182	diff_vonmises	-0.0136253085615479	-0.780672675140165	4.231032387134897	0.4112097310201321	0.0123686634887989	4.101146336031302	-0.3348571746503783	-0.6490510300257206	0.3141938553753423	65.14040792768574
3	2.0	ltm	182	diff_vonmises	-0.0019181976932695	-0.1099046320960751	3.336883204441052	0.5979895349159822	0.062291537546641	2.324662469889321	0.0225521319533653	-0.3575008876531736	0.3800530196065389	71.63405276419334
4	2.0	perception	182	diff_vonmises	-0.0302374973473715	-1.732480981042409	7.226410237839665	1.2850232344083936	0.2425991583649134	3.0723584463785416	0.7382742821938871	-0.513262474649714	1.251536756843601	48.56852186863424
5	2.0	wm	182	diff_vonmises	0.000740279122754	0.0424148693954538	3.4530566757434387	0.8637207598429905	0.170587642239335	2.887563240563237	0.0712553425230726	-0.4371180200265453	0.508373362549618	67.37982577604262
6	3.0	ltm	182	diff_vonmises	0.003430019563579	0.1965256446403844	3.2863406602622387	0.709845459546208	0.0851285662703798	1.9935565716242207	0.1446656030153407	-0.301991589293496	0.4466571923088367	72.16788499493805
7	3.0	perception	182	diff_vonmises	-0.0149619725047096	-0.8572578777106457	4.060910090143535	2.2217373600609918	0.2588725124912817	3.4156297194079754	1.0297323535470528	-0.5052712088056569	1.5350035623527098	64.07019090460997
8	3.0	wm	182	diff_vonmises	-0.0696387360811704	-3.99000566807647	3.4627047498720622	0.8310448442429534	0.11180245552196	2.384570336515329	0.1670261437205523	-0.3610839209818903	0.5281100647024426	69.59901176799013
9	4.0	ltm	182	diff_vonmises	-0.0809551191412594	-4.638386656772914	2.147768843648614	0.8908895735421332	0.0307193484787062	3.1825401331913192	-0.0424544610116751	-0.4845568443889992	0.4421023833773241	90.53188342531854
10	4.0	perception	182	diff_vonmises	-0.0515263262372386	-2.952241027207975	1.89713175527423	3.895026145425225	0.3518550152420873	5.929588095501762	0.6450244870414252	-0.6588523593549163	1.3038768463963415	85.27527605196323
11	4.0	wm	182	diff_vonmises	-0.0820920270100589	-4.703526679350335	0.7341156552348422	311.9339441892991	0.7229630844655	314.47655046286525	-0.0708900803864196	-0.5382597425024542	0.4673696621160346	92.06031207369804
12	5.0	ltm	182	diff_vonmises	-0.0360360976568161	-2.0647163058568423	1.4308474002523068	1.6357250148630726	0.1168324630980701	3.002119608437567	0.1534009763596976	-0.3843020211244154	0.537702997484113	104.3070065297686
13	5.0	perception	182	diff_vonmises	-0.0101956555214188	-0.5841680307465525	1.6718147068813436	3.613465623678247	0.2924093043931706	4.902027077684343	0.6485579517902309	-0.5257062396199783	1.1742641914102092	92.70780579738016
14	5.0	wm	182	diff_vonmises	-0.0295960029061738	-1.6957260569806822	0.5916050180037843	115.51520739164108	0.5667426101876518	117.033634415528	0.148714710619803	-0.4286817528108244	0.5773964634306274	111.163156624384
15	6.0	ltm	182	diff_vonmises	-0.0947443999597557	-5.428454250193449	0.931482269501154	1.661605502720162	7.838769402644123e-20	2.8366842794601994	0.0947063854603045	-0.3666945196753162	0.4614009051356207	131.42269527722485
16	6.0	perception	182	diff_vonmises	-0.0030566608289338	-0.1751337649008719	1.0384367576644775	2.6845650123080045	0.0055468916387765	3.875804958806712	0.3165456658488211	-0.4960312274948193	0.8125768933436405	126.64189970794764
17	6.0	wm	182	diff_vonmises	-0.0497710848462329	-2.8516731034766774	0.4149715534929749	290.75036364164214	0.4066502425069341	292.05442145764584	0.1456962883535908	-0.4268287698900188	0.5725250582436097	130.4044416335926
18	7.0	ltm	182	diff_vonmises	0.0228920416546717	1.3116173712503665	0.7488847879990741	199.1832986000993	0.7349771597573079	200.8852872777362	0.0330577838135823	-0.391574048842962	0.4246318326565443	94.29441700895748
19	7.0	perception	182	diff_vonmises	0.0888411889401974	5.090225173197642	0.6783249329231129	208.24473050246124	0.6590251319863218	209.798439576466	0.3348001453065237	-0.5066302621435739	0.8414304074500976	105.92296721862196
20	7.0	wm	182	diff_vonmises	0.0687240695252176	3.9375991347586106	0.7621244801566297	192.4976284919173	0.7480175441466487	194.30068263156232	-0.0111414902994511	-0.3963310102849071	0.385189519985456	91.90202075176262
0	1.0	ltm	61	diff_vonmises	0.0009240110450414	0.052941933104345	7.03883476895139	0.2980729488824941	0.0275879968579154	3.920841291062952	-0.3318882121281141	-0.6268549628623895	0.2949667507342753	49.92819057032338
1	1.0	perception	61	diff_vonmises	0.0225044964349812	1.289412665791634	11.932459330680595	0.7969714542816224	0.0922355542638333	4.386530504610613	0.3221884557338279	-0.7278799807012095	1.0500684364350374	38.51686870090907
2	1.0	wm	61	diff_vonmises	0.0597777156184537	3.4250108138706645	3.9675826613961016	0.4655583470775725	0.0394594925303207	4.306131987236155	-0.3563262262435406	-0.6783326470983948	0.3220064208548541	65.15020334454923
3	2.0	ltm	61	diff_vonmises	0.0014155385117344	0.0811043824606126	3.6015428315803177	0.5128013170917411	0.0554041338089335	2.1032362768520083	0.0186308753849086	-0.3258593729177332	0.3444902483026418	69.30759623333978
4	2.0	perception	61	diff_vonmises	-0.0200416600373041	-1.148302534573534	7.334005736239471	1.2786001922735435	0.2929746748799219	2.908230300601282	0.7488204634563012	-0.4931697199936216	1.2419901834499227	47.96840548599934
5	2.0	wm	61	diff_vonmises	0.0404019689625691	2.31486230557376	3.734782609012552	0.8096850496827075	0.1942391643867078	2.6658582786477854	0.0890950568419934	-0.4078099446615807	0.4969050015035742	64.68139978279615
6	3.0	ltm	61	diff_vonmises	0.0056463412018741	0.3235115205582119	3.313303011154502	0.5832403445602532	0.1613577892112606	1.5336480562545818	0.1190744141982709	-0.2281189798360869	0.3471933940343579	69.9095635686354
7	3.0	perception	61	diff_vonmises	-0.0029240701614166	-0.1675368792493096	4.226761560316202	1.8902113970688648	0.2751257085427667	2.8029109784265094	0.9211215890986288	-0.4168969529861388	1.3380185420847677	62.84568569866303
8	3.0	wm	61	diff_vonmises	-0.0442712137934881	-2.5365537042882256	3.430443913076583	0.7163087985193239	0.172331188282985	1.9090677817248916	0.1476232179071945	-0.2852634831232463	0.4328867010304408	68.54168692448621
9	4.0	ltm	61	diff_vonmises	-0.062884096185759	-3.602993309938712	1.25958072563102	2.358127034025912	0.3583421875958241	4.342199583504194	-0.0380407146337571	-0.4225370691857764	0.3844963545520192	91.28870291684872
10	4.0	perception	61	diff_vonmises	-0.0617502322313417	-3.5380276908085837	2.0300852921966706	3.5747660765396865	0.3957981753465694	5.246167779017584	0.6675779936646229	-0.5805198572979668	1.2480978509625895	82.43746786610618
11	4.0	wm	61	diff_vonmises	-0.0640795979484969	-3.67149051534404	0.8013000471391322	271.393217271227	0.7891898777885801	273.58510140274313	-0.033391844496748	-0.4745718017116509	0.4411799572149029	88.82483550750499
12	5.0	ltm	61	diff_vonmises	-0.0335544805542499	-1.922530119512316	0.8326178525817235	5.826058294446464	0.4188476733542596	7.437803871680575	0.082175130334221	-0.4074799959672676	0.4896551263014886	106.03077896040206
13	5.0	perception	61	diff_vonmises	-0.014113087633236	-0.808620357282701	1.811060870476696	3.3627236886752434	0.2859488247200974	4.885830603693109	0.6192512593391917	-0.5525424536766786	1.1717937130158704	89.4490787533399
14	5.0	wm	61	diff_vonmises	0.0083260469358807	0.4770473494538	0.5738523186512571	260.54930153122166	0.5626258655711414	262.2520326410443	0.111585475323821	-0.4537223836487243	0.5653078589725453	111.0476859590728
15	6.0	ltm	61	diff_vonmises	-0.0700862594201616	-4.015646866634272	0.4663096956245485	194.210135053806	0.4540330907938407	195.7300359335821	0.0806535577968858	-0.4242780157151529	0.5049315735120388	122.90659619687231
16	6.0	perception	61	diff_vonmises	-0.0296772557650464	-1.7003815028674538	0.6015162637859315	12.418902453928398	0.3237963296528133	13.906849800092314	0.3204624322307414	-0.5685939103908021	0.8890563426215435	126.6942408092833
17	6.0	wm	61	diff_vonmises	-0.0936238485546051	-5.36425138395087	0.4623733752207164	242.8040529086304	0.4504664562328215	244.40407437085776	0.1563440341663451	-0.4928674977128509	0.649211531879196	124.73705176685166
18	7.0	ltm	61	diff_vonmises	0.0947833304412952	5.4306848024800765	0.6427636095533507	242.76098412309295	0.6320897352809327	244.5989806576913	-0.007253789868173	-0.411951318558124	0.404697528689951	100.72931195005104
19	7.0	perception	61	diff_vonmises	0.0291909433382046	1.6725178532846547	0.8002394064658624	86.12489540155285	0.7484620101795106	87.74555426749647	0.3753396980233496	-0.5146598503755673	0.8899995483989169	98.45877529240391
20	7.0	wm	61	diff_vonmises	0.1740304360938499	9.971209494998792	0.7881668527293963	192.30001561855	0.7726099611966567	194.15329904054016	0.0182555230781673	-0.4182994596519265	0.4365549827300938	91.28314857096775
0	1.0	ltm	159	diff_vonmises	0.0577133079639804	3.306728968074839	3.094342764284874	0.3470680423411674	2.8114413380454125e-13	3.1584418890809998	-0.271339722407119	-0.502206762408324	0.2308670400012049	78.0929836812526
1	1.0	perception	159	diff_vonmises	-0.0148211032665918	-0.8491866649032709	13.696353076168968	0.6161010211132567	2.5707679973156224e-15	3.4983693243021667	0.3442136704570123	-0.5567827707225987	0.9009964411796112	36.6179115635006
2	1.0	wm	159	diff_vonmises	0.0183499752461062	1.0513761357714226	4.24031590665075	0.372985753887196	6.634815693287835e-21	3.3342731512324675	-0.2346467486171477	-0.5306046449355187	0.295957896318371	66.44039955848635
3	2.0	ltm	159	diff_vonmises	-0.0006563463972942	-0.0376058784635791	3.3501614240729456	0.6596365709612296	0.1026510865703511	2.562371772247437	0.0091216341030125	-0.3910740009727654	0.400195635075778	69.85956690558649
4	2.0	perception	159	diff_vonmises	-0.0166468713564786	-0.9537954708234462	6.733835796539354	1.2777376529053313	0.1559078121676141	3.277568883903668	0.6903069731753267	-0.5317202998308558	1.2220272730061823	50.79721564559711
5	2.0	wm	159	diff_vonmises	0.044105720331439	2.5270716273758063	3.9548638613979454	0.65685159826491	0.0973673320527103	2.770067557468787	0.0170320263483791	-0.4302835750240701	0.4473156013724493	64.85963476854701
6	3.0	ltm	159	diff_vonmises	0.0272143768738248	1.5592689369485966	2.74226527280168	0.949914576488024	0.1690733203127595	2.5683993493941006	0.110191423494337	-0.3704898013334933	0.4806812248278304	75.28836888255162
7	3.0	perception	159	diff_vonmises	-0.016182173571719	-0.9271702490076422	4.040167509919276	2.217093414222362	0.1469599239492534	3.8314907649001095	1.011402199646214	-0.5775995869934727	1.5890017866396868	65.41374282448464
8	3.0	wm	159	diff_vonmises	-0.0334423418312113	-1.916105043962216	3.18369817384358	0.8317424672666837	0.0890387853891697	2.7012911538537305	0.0944024160989118	-0.4091617845114749	0.5035642006103869	72.62896506238397
9	4.0	ltm	159	diff_vonmises	0.0136034804286968	0.7794220152531456	2.30903889670883	0.6081791401151859	0.0229114522910395	3.284054212025356	-0.192730428241978	-0.507762393433315	0.3150319651913369	87.11524968506404
10	4.0	perception	159	diff_vonmises	-0.0668017599624319	-3.8274589098933536	1.2635098464986183	8.43970469665942	0.5481573427769982	10.97764562398351	0.4905610476067061	-0.7409767050195788	1.231537752626285	91.24544388134488
11	4.0	wm	159	diff_vonmises	-0.0312552120607169	-1.790791738865469	0.6774321203094908	195.4634234541145	0.6616594678548267	198.3955853822804	-0.2262691647577028	-0.566693888485851	0.3404247237281481	90.7521703953501
12	5.0	ltm	159	diff_vonmises	-0.0201098056585997	-1.1522069910660655	1.9136942813224664	1.0151300272364212	4.590690636758108e-13	2.3696434728540066	0.1327440662196687	-0.3660419800283629	0.4987860462480316	99.06247503333395
13	5.0	perception	159	diff_vonmises	-0.0462197475706306	-2.648196465957178	1.5832503982082564	4.072541299524227	0.3508014829340334	5.395480847654571	0.6398945776035456	-0.5301637955929918	1.1700583731965373	92.73482811461515
14	5.0	wm	159	diff_vonmises	-0.005356899651969	-0.3069277413329248	0.8853932529186586	4.270371976992938	0.3427103730045852	5.833735525660193	0.0958395718273938	-0.4084041849800725	0.5042437568074665	108.52973757209374
15	6.0	ltm	159	diff_vonmises	-0.1130271253797514	-6.47597725475575	1.0108791891068525	1.2071307385905043	1.6205802119427356e-17	2.478581261974015	0.0204794665949695	-0.3395248968224375	0.360004363417407	128.0426338431203
16	6.0	perception	159	diff_vonmises	-0.0776010759099336	-4.446214135313521	0.4702477764693065	88.33994351221725	0.438600811733523	89.61735008817828	0.2178769605594901	-0.452919796819792	0.6707967573792821	126.45083645457488
17	6.0	wm	159	diff_vonmises	0.0205289434385154	1.176221816889718	0.4935578019529614	223.37210991780196	0.4843166162542767	224.750062043271	0.0491732429294771	-0.3625921549315478	0.4117653978610249	118.69401068467867
18	7.0	ltm	159	diff_vonmises	-0.0740823799431213	-4.2446077070254695	0.8591975096855742	186.0145750569017	0.8408288441764252	188.2005831759215	-0.0288304456241377	-0.476582064196414	0.4477516185722763	85.90543582630787
19	7.0	perception	159	diff_vonmises	0.072054201047474	4.128401616207375	0.6630377874382788	291.99102723859073	0.6468405112414619	294.0744353321826	0.3274212058604036	-0.6246563568490053	0.9520775627094088	105.84965230566004
20	7.0	wm	159	diff_vonmises	-0.0308561127542005	-1.7679250329954792	1.3710340336806492	2.2236602176219264	0.3949937123129738	4.498460095660283	-0.110117060854517	-0.4606564780811679	0.3505394172266509	85.03584178795566
0	1.0	ltm	447	diff_vonmises	-0.176829781657136	-10.131600181173756	1.6051105198913054	0.4247301396213133	6.8306670995303855e-15	1.9589389584169168	-0.1200794451020265	-0.3040402867184287	0.1839608416164022	107.20269121221506
1	1.0	perception	447	diff_vonmises	-0.0325148979779801	-1.8629664254367173	13.872505733469955	0.7736698714665432	0.0230799849194235	2.4681377092841896	0.7368976152777929	-0.3963197497977217	1.1332173650755146	36.271442166015504
2	1.0	wm	447	diff_vonmises	0.0468865127026963	2.686399293951021	4.777080249744996	0.3213982994385317	4.065538536627811e-27	1.9488680061751305	-0.0382030742692129	-0.3101526897258543	0.2719496154566413	62.50445910030396
3	2.0	ltm	447	diff_vonmises	-0.0447749312657285	-2.5654145895145963	4.677792122210696	0.3369299039210778	3.2950476489799107e-19	1.3506506189806338	0.0669405386681321	-0.2149383365247194	0.2818788751928516	63.18266808114123
4	2.0	perception	447	diff_vonmises	-0.0281667809597277	-1.6138376714618492	8.244116759762084	1.2199745153269197	0.2321952529542588	2.180891305176472	0.9427110169800996	-0.3660566820878257	1.3087676990679251	46.08139655189876
5	2.0	wm	447	diff_vonmises	0.0205798014517077	1.1791357664000566	4.85327667181815	0.3786280996761604	0.0484456670383717	1.462693635845662	0.0789289647473001	-0.2301449122815408	0.309073877028841	60.468583650259546
6	3.0	ltm	447	diff_vonmises	0.0404971301330385	2.3203146390151788	2.137371393755922	0.9191607593065532	0.6392974788012717	1.283772413667712	0.143053780226911	-0.126816311107008	0.269870091333919	75.82389069944313
7	3.0	perception	447	diff_vonmises	-0.0143603496735501	-0.8227874286264933	4.090231717507696	1.9884685723754103	0.4061490079002303	2.1985458114029868	1.0433102948206476	-0.3111150836372244	1.354425378457872	63.40285365358665
8	3.0	wm	447	diff_vonmises	-0.1237904898091582	-7.092672609921992	2.7645209641455355	0.8614692201508707	0.5753308244775949	1.309733688478716	0.1966624652634251	-0.1589506037366968	0.355613069000122	69.93343628967034
9	4.0	ltm	447	diff_vonmises	-0.071283709982011	-4.08425573000381	1.3011587680266186	101.50522000522446	1.277761451137266	102.5162690661897	0.0347191943027098	-0.2568641141378744	0.2915833084405843	71.10206724368345
10	4.0	perception	447	diff_vonmises	-0.1086737961203092	-6.226549861358899	2.281277506043866	3.149538506138234	0.4776848152003762	4.21674990694867	0.7354462278227689	-0.4630456368757805	1.1984918646985494	78.16676183487752
11	4.0	wm	447	diff_vonmises	-0.1283451361088866	-7.353634620071307	1.17669507335635	206.7503806650933	1.1646811063403073	207.9427193955464	0.016499277936532	-0.2865233539507521	0.3030226318872842	73.99130855816611
12	5.0	ltm	447	diff_vonmises	0.0730574270363408	4.185882231267285	2.092316565364904	0.6355037524837376	2.1296939176609247e-15	1.4471384698752667	0.1065701310387437	-0.2251890467210209	0.3317591777597646	94.93903634507174
13	5.0	perception	447	diff_vonmises	-0.0239616729364209	-1.372902729329764	2.677121696194352	1.9131448778085849	0.0599996237513846	2.5369226173173463	0.7451327287901911	-0.3750581349484456	1.1201908637386366	82.15992204445436
14	5.0	wm	447	diff_vonmises	0.0277259716195923	1.5885811567021422	0.5713713571245315	81.59780951436062	0.5510383744085221	82.49479181300859	0.0827873389711015	-0.2535170413015333	0.3363043802726349	112.83543275931962
15	6.0	ltm	447	diff_vonmises	-0.2034902092998181	-11.659130165113355	0.4094343457706141	94.4273541830455	0.3971305087201009	95.27489438761292	0.020318855894537	-0.2293291108411281	0.2496479667356652	128.636314948503
16	6.0	perception	447	diff_vonmises	-0.0804032535826484	-4.606767089405872	0.3935843799800153	161.88778800492253	0.377743790705451	162.72783417125328	0.2806572018982507	-0.406588954594504	0.6872461564927548	135.52117961783208
17	6.0	wm	447	diff_vonmises	-0.1641450270878757	-9.404817280195852	0.4750709970699533	93.58396718101504	0.4575001598459997	94.48561913462125	0.0902777590232801	-0.2771726740101936	0.3674504330334738	123.60389422957988
18	7.0	ltm	447	diff_vonmises	0.2275703874769706	13.038822744587222	0.874848246702487	101.09781537202048	0.855970192695941	101.888872645422	0.1153563701125932	-0.2183529682818275	0.3337093383944207	91.2684084913978
19	7.0	perception	447	diff_vonmises	-0.0120108965582376	-0.6881736809552218	1.7142437345186463	2.146274907044193	0.2399071768646406	2.8307690252005147	0.4437099463982785	-0.3208154952116582	0.7645254416099367	94.00969304119296
20	7.0	wm	447	diff_vonmises	0.1324523924572181	7.588963074209018	1.4540585968154685	1.2378433719876054	0.3504552831979063	2.034091969224411	0.0803462688144434	-0.2043128971113168	0.2846591659257603	91.51908242683908
0	1.0	ltm	38	diff_vonmises	-0.0414926982839383	-2.377356492279382	3.2214685384433914	0.262961560156062	8.318199067321354e-21	2.740377723934502	-0.2568346737912373	-0.4358592086664085	0.1790245348751711	76.50371012584819
1	1.0	perception	38	diff_vonmises	0.0080283587505732	0.4599910728247701	11.688665043156645	0.8761473875476229	0.0747353474049202	3.467412753640561	0.5874032553196645	-0.5686535790178966	1.1560568343375612	39.184325439391046
2	1.0	wm	38	diff_vonmises	0.0513939506684071	2.9446564658032863	5.140847167575853	0.31985871200128	5.873274440979513e-17	2.9089258884043234	-0.1814763945781679	-0.4629602917774136	0.2814838971992456	60.19593825367903
3	2.0	ltm	38	diff_vonmises	0.0177391938181372	1.0163809377438269	4.619963558277982	0.37644741624577	0.0052642489844242	1.7344669336182656	0.0354089447648449	-0.2750154013446175	0.3104243461094625	63.2782484810113
4	2.0	perception	38	diff_vonmises	-0.0155304982934629	-0.8898320059505517	7.60268592437955	1.3945199849437604	0.2938023071813879	2.6811385368531977	0.9467277918634968	-0.4541794950396313	1.400907286903128	47.44383685080152
5	2.0	wm	38	diff_vonmises	0.0431459509001029	2.4720808896545736	4.180153032532036	0.539017654318166	0.0855682556727727	2.034333956695609	0.0723738309840886	-0.3166898322567386	0.3890636632408272	63.89876769572271
6	3.0	ltm	38	diff_vonmises	0.0852324895022804	4.883461925873767	3.89179628901356	0.3325139364945866	0.0299991059056163	0.8362056601897474	0.1147398708878585	-0.1303878614710948	0.2451277323589533	68.36766516712154
7	3.0	perception	38	diff_vonmises	0.0081098753983046	0.4646616326998337	4.50640416823272	1.7911419609900363	0.2834386784616421	2.198356631588548	1.0134999620050642	-0.3275936036734037	1.341093565678468	61.44333383229255
8	3.0	wm	38	diff_vonmises	-0.0855196034865499	-4.899912345411591	3.7888716026936864	0.5282967016965963	0.1571584140702836	1.1633426096760038	0.1789639826574156	-0.1751939078341416	0.3541578904915573	66.58421858286775
9	4.0	ltm	38	diff_vonmises	-0.0625802274315932	-3.5855829127991106	1.917008042460953	1.0152781683792866	0.3577391322198299	2.615384285187811	-0.0662018116701654	-0.3281760602291425	0.261974248558977	77.06987376881429
10	4.0	perception	38	diff_vonmises	-0.0646428911230015	-3.703764836871686	2.240353381241903	3.0481877862287865	0.3635342745876002	4.638593841222712	0.6557809089144708	-0.5501281460198089	1.2059090549342797	80.00409681013204
11	4.0	wm	38	diff_vonmises	-0.0471606084030859	-2.7021038207660286	0.9312175092790967	252.1008044267689	0.9203507587718508	253.8912259105051	-0.0637090710220178	-0.3821399491295949	0.3184308781075771	80.6647516468465
12	5.0	ltm	38	diff_vonmises	-0.0176470195077161	-1.0110997387771663	1.7712300598692725	0.7998718274141768	1.956610407370968e-15	1.7438432080534747	0.1057737807724852	-0.2664473469258991	0.3722211276983844	102.670812111227
13	5.0	perception	38	diff_vonmises	-0.0257011494781851	-1.4725673937348651	2.3765920377666263	2.330110782475648	0.1165310777908124	3.057639260711007	0.7878430198026352	-0.4236018342252749	1.21144485402791	85.33959466651834
14	5.0	wm	38	diff_vonmises	0.0636649436672601	3.647732575072145	1.3267133827665551	1.3263729556836394	0.0567488327059544	2.356137084451744	0.1370324413635154	-0.3164460725435006	0.453478513907016	112.0831329313262
15	6.0	ltm	38	diff_vonmises	-0.0784293913105299	-4.493673111873377	0.468534999836399	121.9172600868422	0.4569238670408096	122.69907799407396	0.0762967054432195	-0.239699400723607	0.3159961061668266	124.017008825208
16	6.0	perception	38	diff_vonmises	-0.0757108074593233	-4.337909730946818	0.3753267154848646	73.36394906750301	0.3388618828767927	74.09672070787556	0.3268414845085914	-0.4201352864687475	0.7469767709773389	139.0989095143049
17	6.0	wm	38	diff_vonmises	-0.0435287763454	-2.494015171960317	0.4407973479670481	141.3820919535489	0.4274940673484962	142.228695574669	0.1499931275560087	-0.3083449780202869	0.4583381055762956	128.82241394342952
18	7.0	ltm	38	diff_vonmises	0.2151309501980578	12.326095488987814	0.8171659440342743	99.66663117273744	0.7973218246490735	100.70979853955612	0.0614497362633592	-0.2546550178254172	0.3161047540887765	91.96909502857984
19	7.0	perception	38	diff_vonmises	0.0372706877127632	2.135453105491429	0.8298918609171388	207.0661158397149	0.8125137339668692	207.95650139225248	0.4145546453305542	-0.3657369040963445	0.7802915494268987	98.07467026273824
20	7.0	wm	38	diff_vonmises	0.0943205027732916	5.404166730461586	0.7117413663771747	85.6134594285764	0.690693870007133	86.70971008581994	0.0334563956773834	-0.2589123972048934	0.2923687928822769	97.75217460143269
0	1.0	ltm	136	diff_vonmises	-0.0082557399098898	-0.4730190535944044	5.669648552445742	0.2673693581536085	7.144152190492786e-20	3.552988062867751	-0.3176958858217658	-0.5654726641918681	0.2477767783701023	57.26661548192351
1	1.0	perception	136	diff_vonmises	0.0108109260348908	0.6194204344273463	12.014217749981126	0.8049994416315798	0.0748700452848914	4.063372729770864	0.4048045553035915	-0.6680671416645768	1.0728716969681682	38.55494074917843
2	1.0	wm	136	diff_vonmises	0.0493217978274971	2.8259308535131007	5.602828260604356	0.357038947464301	0.0152455119326852	3.8120592986831543	-0.2871232700628877	-0.6055313454288344	0.3184080753659466	56.55113167661071
3	2.0	ltm	136	diff_vonmises	-0.0845652040980684	-4.845229288481735	3.930107216373461	0.4928439556208812	0.0091577916969391	2.364578993694161	-0.0045004163507704	-0.3735873829954974	0.3690869666447269	68.41937732477871
4	2.0	perception	136	diff_vonmises	-0.031008651176052	-1.7766648407811574	7.886132081073438	1.2043035938798337	0.1633224694942288	3.170604585128677	0.736147854715695	-0.5234376079576051	1.2595854626733	47.05791887008184
5	2.0	wm	136	diff_vonmises	0.0359704883059916	2.060957166958006	4.026890768773078	0.6673692197240474	0.1097032834684535	2.7220795823608803	0.0329769635315322	-0.4230910120431199	0.4560679755746521	64.06164427479996
6	3.0	ltm	136	diff_vonmises	-0.0122832716157954	-0.7037796221979209	2.4900773529817206	0.8063075976132569	0.2293460116730101	1.777785326855539	0.1228368887557014	-0.2428626807015024	0.3656995694572039	77.53334428998542
7	3.0	perception	136	diff_vonmises	-0.0106187171574411	-0.6084076769645341	3.824262019019117	2.0758929529124424	0.2681847808660071	3.038492357248117	0.936028428041574	-0.4410163176378575	1.3770447456794317	65.86139676689581
8	3.0	wm	136	diff_vonmises	-0.0724581623970816	-4.151546896626303	2.8413295105277	0.8730448918972586	0.2543386894687968	1.9946815595850316	0.1514207402452747	-0.2803888543603688	0.4318095946056436	72.68893493439796
9	4.0	ltm	136	diff_vonmises	-0.038490023632592	-2.20531590750632	1.4714551901560715	1.805092788473583	0.3532439558982894	3.848934958461457	-0.0726942808665773	-0.4211946399779599	0.3485003591113825	85.47466706608162
10	4.0	perception	136	diff_vonmises	-0.0959710689591373	-5.498737206717551	1.6681171782170765	5.539484719193346	0.5887517458325047	7.40218170924368	0.6093847580869207	-0.6163437460368031	1.2257285041237238	83.49618736811726
11	4.0	wm	136	diff_vonmises	-0.1072608200140067	-6.145592293914937	0.7964353833991248	253.9334382609732	0.7853537484498957	256.0895000619658	-0.1112492277430732	-0.4399524726948627	0.3287032449517895	86.1143454126572
12	5.0	ltm	136	diff_vonmises	-0.006267893431186	-0.3591238400447353	1.582832015811324	1.1808941740017622	0.0511981673305388	2.8190239874504885	0.0565329049826977	-0.4036955040697086	0.4602284090524064	103.48860535023236
13	5.0	perception	136	diff_vonmises	-0.0410079884160005	-2.349584662558202	2.3627144507317395	2.513813701326969	0.1369163822972904	4.0578684539149785	0.6957870687657471	-0.5594661312759797	1.255253200041727	84.12228024200908
14	5.0	wm	136	diff_vonmises	-0.0394096996814311	-2.258009463624072	0.5883451521396224	265.1899781179774	0.5783325358300343	266.91163638260423	0.0515579451528509	-0.4222604382090225	0.4738183833618734	107.78940361723711
15	6.0	ltm	136	diff_vonmises	-0.0606620029020994	-3.4756767431006512	0.4608392785821542	51.70091269785596	0.4258557800079656	53.2755422514401	-0.0321010354401813	-0.3706295621705466	0.3385285267303652	120.98876823149682
16	6.0	perception	136	diff_vonmises	-0.105496568423806	-6.044508123797193	0.5929819768788505	3.939041258817474	5.398594267827335e-21	5.4146922171756415	0.1790304070077287	-0.5438592352129167	0.7228896422206454	147.25495822678258
17	6.0	wm	136	diff_vonmises	-0.1690638546004114	-9.686645336816984	0.4987102446602859	250.45848613177148	0.4897098990710527	252.04536672624965	0.0324353151746521	-0.4014134609614963	0.4338487761361485	117.21327633537123
18	7.0	ltm	136	diff_vonmises	0.181257837335567	10.385309082996791	0.6292945224205257	68.72254434880142	0.5959836835744998	70.26962264663238	0.0241097521653159	-0.3637063051807931	0.3878160573461091	104.1873848516314
19	7.0	perception	136	diff_vonmises	-0.0029180325872222	-0.167190951729473	0.8502744568448748	337.60162316506023	0.8373053297702449	338.8988141632014	0.4324742785588711	-0.4570763840152487	0.8895506625741199	95.5316531842065
20	7.0	wm	136	diff_vonmises	0.0981234660164703	5.622060473939111	1.2571558740385085	3.446121373026961	0.5672080712779961	4.97359339383919	0.0528056418993783	-0.3560509022694016	0.4088565441687799	86.55766672900288
0	1.0	ltm	15	diff_vonmises	-0.151556048217575	-8.683521922548252	2.586504351813265	0.3639577906787837	2.709714641448717e-21	1.817399575647428	-0.070435940533132	-0.2880079120046092	0.2175719714714771	85.5142235804766
1	1.0	perception	15	diff_vonmises	-0.0486699702815208	-2.7885838861582863	14.561114405775374	0.738209126578398	1.7027512909404075e-20	2.395128965054777	0.7325264129374878	-0.3811966141307925	1.1137230270682803	35.50516150991052
2	1.0	wm	15	diff_vonmises	-0.0134584314888583	-0.7711113231775512	5.648158580920319	0.3279963152748855	4.75861948760482e-19	1.917514600452049	-0.0017810928009333	-0.3051781589669411	0.3033970661660078	57.3721517340436
3	2.0	ltm	15	diff_vonmises	-0.0398229232744609	-2.281685431499906	3.964754253026805	0.502257060857766	0.1361378122845399	1.4009764788261525	0.1299728135288178	-0.2146591042329238	0.3446319177617417	64.98552990632538
4	2.0	perception	15	diff_vonmises	-0.0337176002224488	-1.9318761880556856	7.607621990005046	1.245550680875002	0.2676774550852759	2.1202081007335245	0.913281481229588	-0.354956743855186	1.268238225084774	47.73426127182952
5	2.0	wm	15	diff_vonmises	-0.0164960250448878	-0.9451526138141796	4.190421067297319	0.4860128558322111	0.1153493579634935	1.4736169065498768	0.1209189385499521	-0.2279843381708549	0.3489032767208071	63.606980945366246
6	3.0	ltm	15	diff_vonmises	0.040713792708159	2.332728490148021	2.1038240283746434	1.216101803247598	0.6677577199735153	1.6510949716465488	0.1870988847771207	-0.1570074631315059	0.3441063479086267	76.00696187066052
7	3.0	perception	15	diff_vonmises	-0.0218974890035119	-1.254633701835367	4.348733422594479	2.009705677983833	0.3884306897444699	2.340082646405754	1.0878073334729137	-0.3407230431354585	1.428530376608372	61.67729595317519
8	3.0	wm	15	diff_vonmises	-0.1077975054391986	-6.176342103704616	2.5809888289080583	1.106338942289696	0.6112386339453552	1.651963958481202	0.2221185503837016	-0.1902243796845649	0.4123429300682666	71.12516436856095
9	4.0	ltm	15	diff_vonmises	-0.148631829093012	-8.515976508339353	1.43420839931914	6.053885493325185	1.0318988894617551	7.07102122774021	0.0932194789157363	-0.2694489926206151	0.3626684715363515	74.71181098196013
10	4.0	perception	15	diff_vonmises	-0.0916126872083098	-5.2490203268883	2.522309268134218	2.4900069395904016	0.2613485054460333	3.674982615392516	0.7283741356381341	-0.4761055981827682	1.2044797338209023	78.96273319978488
11	4.0	wm	15	diff_vonmises	-0.1525106907324956	-8.738218909596958	1.1751879584188312	269.2722378793931	1.1644374287923598	270.5136332546512	0.0745788199331372	-0.3144782897055052	0.3890571096386424	75.69829922084662
12	5.0	ltm	15	diff_vonmises	0.022667773436158	1.2987677488506184	1.8652423095532904	0.8880137617363261	1.6861636379961228e-15	1.3375014562911782	0.2262688524972557	-0.2023383532056721	0.4286072057029279	100.25446951861178
13	5.0	perception	15	diff_vonmises	-0.0289526472095811	-1.6588644908402197	2.430671162619573	1.978581080695044	0.0634806274299314	2.2196149281915765	0.7708638023880723	-0.3223230660896451	1.0931868684777175	86.35829392408868
14	5.0	wm	15	diff_vonmises	0.011226368372637	0.6432235270112537	1.2064195994724654	1.7610318014271598	0.2630427300580577	2.244737982919047	0.2129279131200612	-0.2099561084773871	0.4228840215974483	106.51518701937898
15	6.0	ltm	15	diff_vonmises	-0.1434523599189447	-8.219214784547184	0.4034766756880273	66.35057230494868	0.3870693392706295	66.68340138324389	0.1243418868344328	-0.1686871231776319	0.2930290100120647	134.57046163839146
16	6.0	perception	15	diff_vonmises	-0.0463652736604591	-2.6565344967133884	0.8549581064366314	2.98337157418192	0.133279734188336	3.347573600811837	0.3311246137707025	-0.2947180962630249	0.6258427100337275	127.76840532504043
17	6.0	wm	15	diff_vonmises	-0.0960488844763122	-5.503195707432301	0.4577909153528396	105.05844557313358	0.444321664553458	105.39615008338492	0.1824433074565234	-0.1992576978009506	0.3817010052574741	129.53201172124562
18	7.0	ltm	15	diff_vonmises	0.1265111219724899	7.248553350488449	0.978555280255488	110.3333327971802	0.9599171594055348	110.93439663354152	0.1891531166463238	-0.2017368388364602	0.390889955482784	88.73021003053469
19	7.0	perception	15	diff_vonmises	-0.0033905545004356	-0.1942644630840519	1.0717097574941448	6.183400585941001	0.5796569218759353	6.686773040583592	0.4465297554423353	-0.2980379028125556	0.7445676582548909	100.18127138230528
20	7.0	wm	15	diff_vonmises	0.0876475832309073	5.0218366036526	0.782685556679306	47.98305913154249	0.7504669224386521	48.57103869952493	0.1222166659429113	-0.1811880245053219	0.3034046904482332	98.55478987094986
0	1.0	ltm	355	diff_vonmises	0.0250312277255294	1.4341837047036874	5.214028976471284	0.354227010108894	3.7277997785973214e-14	3.640353642540954	-0.2653360953493183	-0.5793709813128651	0.3140348859635468	59.77101788963333
1	1.0	perception	355	diff_vonmises	-0.0021012350412037	-0.1203918996259704	12.199696592666616	0.718768102092953	0.026354830078474	4.042253055988714	0.3304476145703859	-0.649711751654538	0.980159366224924	38.56910800072168
2	1.0	wm	355	diff_vonmises	0.0169093195737729	0.96883264601514	3.790006325784056	0.530787218843686	0.0394697836922981	3.987262685133071	-0.2636642370857187	-0.6257330775566115	0.3620688404708927	67.06728437732693
3	2.0	ltm	355	diff_vonmises	-0.0126384129598571	-0.7241277223432588	2.6329145709898767	1.0221276205098526	0.2755433146710885	2.727986101363543	0.0597132610440581	-0.3814183936648864	0.4411316547089446	72.92033951688859
4	2.0	perception	355	diff_vonmises	-0.0221348809363178	-1.2682352576755989	6.455228696706633	1.3257118977993645	0.2081876974601521	3.039992829007456	0.7260549498825413	-0.4952818928970279	1.2213368427795692	51.51608483701168
5	2.0	wm	355	diff_vonmises	0.0266942241144966	1.5294663791370031	3.714782435643978	0.8184318422285877	0.1617130368120398	2.6709887211130576	0.1076951729037131	-0.408059132808257	0.5157543057119702	65.70063053066062
6	3.0	ltm	355	diff_vonmises	0.0025378857423125	0.145410141920933	3.179919495162117	0.7337083032233549	0.0061006168728571	2.115343586383133	0.1579616061593189	-0.3337575466431399	0.4917191528024588	76.63664148933063
7	3.0	perception	355	diff_vonmises	-0.0104062192134609	-0.5962324416192581	4.124010737097168	2.034967341803999	0.1530098276521971	3.3264097785767883	0.9773342581614896	-0.501429737918764	1.4787639960802537	64.82026262494725
8	3.0	wm	355	diff_vonmises	-0.041696834422892	-2.389052631487523	3.1848321503051533	0.915294810622516	0.1034669535380632	2.437531648350744	0.1910279115245816	-0.3654730994902224	0.5565010110148041	72.7747256684294
9	4.0	ltm	355	diff_vonmises	-0.0770824487323571	-4.416498986897604	2.087312238427924	0.8559952837529587	6.254946598631231e-17	3.2715708933532874	-0.0675852444855463	-0.5137167726459468	0.4461315281604005	95.05286210309488
10	4.0	perception	355	diff_vonmises	-0.0558796443318407	-3.20166778090661	1.609079013359923	4.687071244088132	0.3635390123535075	6.905053495298745	0.5887970086163734	-0.697565347746588	1.2863623563629614	90.15355902739807
11	4.0	wm	355	diff_vonmises	-0.0567495685140044	-3.251510765040955	0.7309116476570743	315.44725228810563	0.7196104405877325	318.05907227884734	-0.0728600978989248	-0.5529256727750251	0.4800655748761002	92.27836178776332
12	5.0	ltm	355	diff_vonmises	-0.0620915087663242	-3.55758139590993	1.499969660029511	1.3931553772781202	1.605376623206431e-21	2.5641967059307147	0.1953103703336693	-0.378057809286545	0.5733681796202144	110.4525722939232
13	5.0	perception	355	diff_vonmises	-0.0346120140334293	-1.9831223245630785	1.43754326178029	4.90414149778932	0.4243206974315583	5.9438546866076925	0.6872730616859211	-0.4938827516244687	1.1811558133103897	94.63498308653098
14	5.0	wm	355	diff_vonmises	-1.4313053638587383e-05	-0.0008200775654354	0.6439697644450069	167.8980945563599	0.6270660338115184	169.09629087262812	0.2145053978858087	-0.3765705843968714	0.5910759822826801	108.02459387249232
15	6.0	ltm	355	diff_vonmises	-0.0465202223485201	-2.665412402580376	0.8963910833575999	1.6392241468835302	8.203497013136744e-15	2.538532138783581	0.1238602142708464	-0.3161271569611218	0.4399873712319683	133.00946254594749
16	6.0	perception	355	diff_vonmises	-0.0444169403109619	-2.544903218702614	0.9604314078737732	3.0116162576812058	0.0640643923711741	3.88547846117628	0.3478615313864263	-0.4319847248572653	0.7798462562436916	126.43474391395712
17	6.0	wm	355	diff_vonmises	-0.0217502510040836	-1.246197585884173	0.4878511321655931	252.2340987000052	0.4788186703090366	253.16165563607973	0.1994824121059935	-0.3471296998507291	0.5466121119567227	123.96852029927145
18	7.0	ltm	355	diff_vonmises	-0.0185701911272429	-1.063993576342307	0.7048470633790211	142.50522947211277	0.6842817390355973	144.3144978348783	0.0490288770075437	-0.4252110932826731	0.4742399702902169	98.06559164358058
19	7.0	perception	355	diff_vonmises	0.0767203196882246	4.395750521029709	0.7699313086124591	358.3447964756751	0.7565260903927915	359.9579705335961	0.440741356411678	-0.5438726744288296	0.9846140308405076	99.825574435445
20	7.0	wm	355	diff_vonmises	0.0520290054060777	2.9810424220315985	0.7551307147062137	186.9945615484889	0.7395486834852146	188.8022253726701	0.0281881684103595	-0.4128826296644128	0.4410707980747723	93.72146932000696
0	1.0	ltm	401	diff_vonmises	-0.0773686310448831	-4.432896025576643	3.4392754981177007	0.2644212158784671	4.8758170272768095e-22	2.860225071914709	-0.2681847631985914	-0.4550263438014108	0.1868415806028194	73.9842181643767
1	1.0	perception	401	diff_vonmises	0.0015789056932524	0.0904646324725451	12.461956440606471	0.8658433473159164	0.0767363906290523	3.553431311706706	0.5969137977846171	-0.5847068386018038	1.181620636386421	37.93923941351264
2	1.0	wm	401	diff_vonmises	0.0513639039069802	2.9429349131854896	4.688089439261193	0.3265293950648363	4.9882128998757956e-21	3.060728538432044	-0.2135701761242864	-0.4871069007153901	0.2735367245911036	63.10763154699424
3	2.0	ltm	401	diff_vonmises	0.0061960421837311	0.3550070668128195	4.045472219971661	0.3843105041745645	1.177521976641872e-18	1.7875957113931666	0.0127798786331685	-0.2844136212097594	0.297193499842928	68.06865011794216
4	2.0	perception	401	diff_vonmises	-0.0231712611553314	-1.32761547019592	7.940773196602175	1.33871443717408	0.282335102935747	2.683625193825009	0.9242431973730671	-0.4567781105090624	1.3810213078821296	46.5024227535458
5	2.0	wm	401	diff_vonmises	0.0248622163017463	1.424500063431419	4.039370469196574	0.5684847844228599	0.0950061882306226	2.1378509353561266	0.0660599466571896	-0.3317493813559872	0.3978093280131768	64.64182938893848
6	3.0	ltm	401	diff_vonmises	0.0511630306542558	2.931425723587316	3.587813833799347	0.3705837708583301	0.0666993469716846	0.8956139748787212	0.1161820619058736	-0.137032941528871	0.2532150034347447	70.12959790823714
7	3.0	perception	401	diff_vonmises	0.0012532709071043	0.0718071335636123	4.194442624229968	1.936423385108781	0.3405761512137827	2.343449875334928	1.0183675902523213	-0.3402342783156898	1.358601868568011	62.99472046104288
8	3.0	wm	401	diff_vonmises	-0.1063144056645777	-6.091366746022036	3.640014993398879	0.5841362480865105	0.1950183304483297	1.2552756704223604	0.1859297068794451	-0.186719124825404	0.3726488317048492	67.13164281733677
9	4.0	ltm	401	diff_vonmises	-0.0592469424036421	-3.394599748783367	1.7755502158171628	1.3020848524289843	0.427216067332974	2.837057697266026	-0.0367624519801873	-0.3257817308417299	0.2890192788615425	78.1515409618438
10	4.0	perception	401	diff_vonmises	-0.0742870331932726	-4.256333474522775	2.2010013333832745	3.353285795714537	0.4354218954337094	4.798086391920683	0.7061856864248401	-0.5373145560753465	1.2435002425001866	79.3995594299044
11	4.0	wm	401	diff_vonmises	-0.0710271256297501	-4.069554529530163	0.933822245784112	241.53001800701156	0.9224903768672702	243.25666689827423	-0.0441272770739971	-0.3737824106867791	0.329655133612782	81.25610644910253
12	5.0	ltm	401	diff_vonmises	-0.0029243164783874	-0.167550992172158	1.7834841725166977	0.7873704475945673	5.266281457909364e-17	1.9287397870703988	0.0719392546854405	-0.2962674451610294	0.36820669984647	102.3478628954496
13	5.0	perception	401	diff_vonmises	-0.0108755694373017	-0.6231242285588567	2.382620734210446	2.307498930915476	0.1133620929246678	3.276348176023953	0.739691738204309	-0.4571038560404467	1.1967955942447557	85.05466781147504
14	5.0	wm	401	diff_vonmises	0.0316648231852998	1.814260727545675	0.529875397930882	68.51997028159084	0.4991656274735707	69.78440814478697	0.0823529788986654	-0.3491962327467481	0.4315492116454136	116.99887079480028
15	6.0	ltm	401	diff_vonmises	-0.1105080522260945	-6.331644994766499	0.4424357862192665	146.79448552232944	0.4318609616112173	147.8713599425692	0.0348944136106652	-0.2909802102478629	0.3258746238585281	124.86852199104808
16	6.0	perception	401	diff_vonmises	-0.0526766241091988	-3.018148240454171	0.3517505959825397	176.57042706725971	0.3352559828332166	177.5958354216965	0.3053118022099141	-0.4868314345625535	0.7921432367724677	140.0315302570758
17	6.0	wm	401	diff_vonmises	-0.0884899861443287	-5.070102735241171	0.409270173181788	167.58423867763017	0.397006427411044	168.76664142266048	0.1081112537370216	-0.3731186822065488	0.4812299359435705	130.8600907936913
18	7.0	ltm	401	diff_vonmises	0.244006354081856	13.98053426326512	0.7783532456261516	132.1413140227265	0.7634403005384451	133.24231882522596	0.0496754638452117	-0.263788843929543	0.3134643077747547	93.64439835301582
19	7.0	perception	401	diff_vonmises	0.0452335998218693	2.591694361976823	0.8135936738699997	116.05853432444606	0.7832907021549944	117.01715932152328	0.3835597710021048	-0.3708366297423371	0.7543964007444419	98.9538683625054
20	7.0	wm	401	diff_vonmises	0.1183418245747249	6.7804870880093056	0.735942133832898	105.50047754513773	0.7177790162640889	106.6817306918985	0.0254551200365433	-0.2733011586655021	0.2987562787020454	95.4397222939008
0	1.0	ltm	476	diff_vonmises	-0.0410003876067202	-2.349149168265554	6.638645145824624	0.2945340921839022	0.0235321129930119	2.6983303568086	-0.1430616278364398	-0.429955156887763	0.2868935290513231	51.85150572320728
1	1.0	perception	476	diff_vonmises	-0.0387638775720898	-2.2210065824425778	15.77558925600913	0.6811756618009915	0.0565483143815404	3.2338427356891075	0.526226603889578	-0.5300734944416611	1.056300098331239	33.836733735317125
2	1.0	wm	476	diff_vonmises	-0.0321110755212827	-1.8398291029953493	5.5750311392988285	0.3296884834019149	6.764146334935294e-05	3.026459894441159	-0.1788275705365833	-0.4816393476632705	0.3028117771266871	57.745524011852496
3	2.0	ltm	476	diff_vonmises	-0.0288744782909189	-1.6543857417117729	3.862166829055122	0.4820710406226527	0.0469476212180257	1.67858214239811	0.0837332888751642	-0.2609955794596998	0.3447288683348641	67.68646865814287
4	2.0	perception	476	diff_vonmises	-0.0378823369183202	-2.170498023512376	7.755377701984063	1.1771649402459798	0.3377835745996518	2.455517197511763	0.7527521146335008	-0.4242443505152182	1.176996465148719	46.63238701491227
5	2.0	wm	476	diff_vonmises	-0.0171098394900102	-0.9803215909238564	3.563581952854864	0.7649154393745248	0.2474523049823032	2.224342778947097	0.1053485315931776	-0.3351941399742706	0.4405426715674482	65.25361220794147
6	3.0	ltm	476	diff_vonmises	0.0011589366372869	0.0664021780396268	2.0298426434665555	1.969299892140126	0.8062967597169578	2.8064257476351084	0.1695317805374625	-0.249121063108278	0.4186528436457405	72.47878743141462
7	3.0	perception	476	diff_vonmises	-0.0299771769460174	-1.7175657207236676	4.2380215124697385	2.186196119922762	0.4455876091397623	2.977218516023253	1.0300255985913815	-0.4352017988726739	1.4652273974640555	61.31203879923757
8	3.0	wm	476	diff_vonmises	-0.0685885208645182	-3.929832768581886	2.773297097780824	1.0836316297572888	0.460552628178002	2.2287422450242613	0.1449049701921091	-0.2966506097957795	0.4415555799878886	69.09236126975495
9	4.0	ltm	476	diff_vonmises	-0.1392590741555972	-7.97895720801508	1.007031162089102	132.74312668540492	0.9844278566059144	134.08357357999944	0.1137150411124849	-0.3401840961341893	0.4538991372466743	83.20403337829188
10	4.0	perception	476	diff_vonmises	-0.0721585956666959	-4.134382987292667	2.5518792215606707	2.5071067490475945	0.2588296417421946	3.768280430355704	0.731429433414354	-0.4915630261350992	1.2229924595494532	78.52575866015658
11	4.0	wm	476	diff_vonmises	-0.1523455832191892	-8.7287589459186	1.0217950729476282	356.7598688043239	1.0121790952952616	358.3635824538541	0.0962809478818229	-0.3949944017578275	0.4912753496396504	81.48176053189147
12	5.0	ltm	476	diff_vonmises	0.0240702007343845	1.3791209141129277	0.7838800168646168	95.17509866613878	0.7560125633715683	96.1453429145812	0.2199820877024372	-0.3065588005582658	0.526540888260703	98.66349271807088
13	5.0	perception	476	diff_vonmises	-0.0071147637463603	-0.4076459348991355	2.0916790256599227	2.3711697006880006	0.1753715152850488	3.335000356300746	0.6290183067950872	-0.4301319658463413	1.0591502726414284	88.21296905208442
14	5.0	wm	476	diff_vonmises	-0.0432328725696755	-2.477061134469316	0.6513298250922923	148.84889941827632	0.6342958390900507	149.94123539152915	0.1844451617136044	-0.336172888122519	0.5206180498361235	107.16477730422214
15	6.0	ltm	476	diff_vonmises	-0.1547355276705244	-8.865692676250815	0.4257672537960645	139.55405110084308	0.4118844726036945	140.37004718126818	0.1688461813073516	-0.31652115527476	0.4853673365821116	130.76940768781674
16	6.0	perception	476	diff_vonmises	0.0235363605941606	1.34853412714343	1.2535384256429918	2.3646206238037237	0.0704565472730565	3.3419540028870687	0.3497769779996741	-0.4201177032169098	0.7698946812165839	114.64566005774132
17	6.0	wm	476	diff_vonmises	-0.1394020695034639	-7.987150237937848	0.4295997757442872	155.65513166271737	0.4152584684795398	156.54603600383675	0.2056564098192694	-0.358559146617198	0.5642155564364675	130.65198461781262
18	7.0	ltm	476	diff_vonmises	0.0406111053183032	2.3268449361000654	0.8713375557918721	203.8075252093692	0.8582650850363241	204.865137820498	0.1752430868711911	-0.3000673112900855	0.4753103981612767	91.75092885725452
19	7.0	perception	476	diff_vonmises	-0.0145800497121891	-0.8353753135993672	1.529813335085978	2.0437276037907623	0.0872607028047672	3.050713934341831	0.3670659802163954	-0.4020968923107267	0.7691628725271222	104.76845743455476
20	7.0	wm	476	diff_vonmises	0.1766870331490093	10.12342129412631	0.8693451964090614	116.50358559962685	0.8489804948349092	117.56883549402924	0.1191826121498991	-0.2804163216144975	0.3995989337643966	90.73903225114977
0	1.0	ltm	165	diff_vonmises	0.076462326129815	4.3809685789912765	4.038557431185334	0.2666015521227163	0.0014983025784818	3.384851828418831	-0.3334875439487409	-0.5379364814459543	0.2044489374972133	67.82260355115514
1	1.0	perception	165	diff_vonmises	0.0314878165054177	1.8041189918428109	10.856925082221109	0.7661860929436418	0.0751193902786184	3.874043696419781	0.3312415150554941	-0.6349011902884042	0.9661427053438983	40.49080775088623
2	1.0	wm	165	diff_vonmises	0.1015112259943187	5.816164822673159	4.988892471103157	0.3529481595925928	0.0022937606088069	3.5480612663845097	-0.2603037677706871	-0.5638907635101106	0.3035869957394235	60.87544661564107
3	2.0	ltm	165	diff_vonmises	-0.013325505390829	-0.7634952187733295	3.898259831376388	0.4977305268214364	0.0607084952023322	2.2795955712585965	-0.0078439186116958	-0.3551168058336495	0.3472728872219536	66.34915234148352
4	2.0	perception	165	diff_vonmises	-0.0060099000115775	-0.3443419059590182	7.235744024657535	1.2803677588747029	0.1991775971187083	3.1265877584330344	0.7470689452216045	-0.5162623554756259	1.2633313006972304	48.831152606394
5	2.0	wm	165	diff_vonmises	0.0896581025436479	5.13703087490218	4.273984776632296	0.6129796627201399	0.1170137976140795	2.547596173672126	0.0343356872641216	-0.3984290060392654	0.4327646933033871	62.141547594765655
6	3.0	ltm	165	diff_vonmises	0.0326683818377468	1.871760402824728	2.8553851401664585	0.6536995867118095	0.2110795967767017	1.653484898814085	0.094788575975663	-0.236840012747297	0.3316285887229601	73.11829167629136
7	3.0	perception	165	diff_vonmises	0.0044434030663893	0.2545882423795974	4.231473556192084	1.8185169578537423	0.1735422128085446	2.859227722444978	0.904326252012707	-0.4308570138971845	1.3351832659098917	63.85621714600336
8	3.0	wm	165	diff_vonmises	-0.0209153762697038	-1.198362787182104	3.104995622608934	0.6989570050119902	0.1778771859345001	1.8779974811750524	0.1125456451176422	-0.2760350326855401	0.3885806778031824	71.29284945910831
9	4.0	ltm	165	diff_vonmises	0.0372843282831901	2.1362346526070395	1.0174500127720367	3.702687350300011	0.4865727438929407	5.901576859179015	-0.1638915027400587	-0.427235606227753	0.2633441034876942	87.24614656295128
10	4.0	perception	165	diff_vonmises	-0.0838891832573921	-4.8064961474480965	1.564293790553482	5.772920864069208	0.5686905838065887	7.778294082208068	0.5454793717974202	-0.6290698961107364	1.1745492679081566	85.32125255209269
11	4.0	wm	165	diff_vonmises	-0.013814577647811	-0.7915169949753366	0.7754298552580168	195.8095385638049	0.7611180984953265	198.1764201226865	-0.1660008567020554	-0.4676867083099552	0.3016858516078997	85.40608384771821
12	5.0	ltm	165	diff_vonmises	-0.012933806185941	-0.7410525074946189	1.8210036003608665	0.9241902376477747	0.018323535829382	2.5726321786988664	0.0334292769348004	-0.3901781346180908	0.4236074115528913	99.69486916634324
13	5.0	perception	165	diff_vonmises	-0.0526841402967651	-3.0185788862797507	2.0890979567225267	2.916172631615354	0.2303027631916927	4.506046401844616	0.6534526429692437	-0.5635290669348594	1.2169817099041031	85.8580977365146
14	5.0	wm	165	diff_vonmises	0.0465405535649131	2.666577295472061	0.5726017873407973	209.9035274757872	0.5601020445528373	211.681491547274	0.0360558420344361	-0.4305449253582587	0.4666007673926948	108.9557390100237
15	6.0	ltm	165	diff_vonmises	-0.0580659207401982	-3.3269321919545103	0.5005935182906815	194.9242812979199	0.489999984849599	196.64196793630356	-0.034958843059762	-0.3918216480412937	0.3568628049815316	114.0850591773968
16	6.0	perception	165	diff_vonmises	-0.1357662062410708	-7.778830618116057	0.6647806398772103	5.535349820602887	0.1651740508733118	7.148846780196684	0.2049877756479776	-0.5510523152296821	0.7560400908776598	132.17668815540952
17	6.0	wm	165	diff_vonmises	-0.0707386898987011	-4.053028379480286	0.5360231982527899	237.16146195906023	0.5255034176162077	238.9180514417792	0.0265965267755703	-0.4285779061017187	0.4551744328772891	112.5149510611128
18	7.0	ltm	165	diff_vonmises	0.1174317601070523	6.7283442349268485	0.6558550246795956	86.24367714018479	0.6256395166642483	88.35956168456894	-0.0772303223904273	-0.4432831005691167	0.3660527781786893	97.7897993493373
19	7.0	perception	165	diff_vonmises	-0.0073149151161893	-0.4191137636540993	0.8448365198070285	299.2712656225415	0.8272460630112093	301.14688531019715	0.4255219154295417	-0.5808188507038778	1.0063407661334196	94.54482399417094
20	7.0	wm	165	diff_vonmises	0.1149151819419475	6.584154927251565	1.7533647009210591	1.493732799813771	0.2973219201638402	3.5802913069654854	-0.0390469227917483	-0.4385212495332575	0.3994743267415092	83.12193772895648
0	1.0	ltm	286	diff_vonmises	0.0541889548267665	3.1047984077987927	5.101511668012075	0.2822103255340892	1.2987950303765476e-15	3.5369023885745605	-0.3155689463523748	-0.5629063320229892	0.2473373856706143	60.43431555324821
1	1.0	perception	286	diff_vonmises	0.011560420061524	0.6623632789236954	12.527631450777	0.6824915389270991	0.041082248533476	3.97510162757716	0.294597525369678	-0.6437215960287038	0.9383191213983818	37.95024520101333
2	1.0	wm	286	diff_vonmises	0.0399608796861272	2.289589751645155	3.617771946752988	0.4315258351192699	0.0097279166861507	3.861088550821162	-0.3065534863775746	-0.6101581308604264	0.3036046444828517	70.73795185569801
3	2.0	ltm	286	diff_vonmises	0.0615247131780378	3.525106400854489	3.444328769423474	0.5954366667444703	0.1140739484719274	2.2334618366822547	0.0243844584378768	-0.3409731050450982	0.365357563482975	68.7528866562919
4	2.0	perception	286	diff_vonmises	-0.0053587107796759	-0.3070315113066935	6.685325150604782	1.3648524069839243	0.2836210166555131	3.037195666601028	0.7501181257795038	-0.5058744346919964	1.2559925604715003	50.14781661932423
5	2.0	wm	286	diff_vonmises	0.0546872766396987	3.1333501445191194	3.766510462392512	0.7627353389816054	0.1656051891509841	2.669245724740878	0.069495735837203	-0.4098388295144698	0.4793345653516729	64.92101804261489
6	3.0	ltm	286	diff_vonmises	0.0464464401951613	2.661184996589527	3.811383299156071	0.5957161734758062	0.0867882768005952	1.9234407401510476	0.112782687379472	-0.2961717896476621	0.4089544770271341	67.01119235467783
7	3.0	perception	286	diff_vonmises	0.0003425964663187	0.0196293315961613	4.492813072516337	1.9604839826430305	0.1711581856777246	3.242065034456223	0.9974741136840714	-0.4943375668360029	1.4918116805200743	62.017069764628616
8	3.0	wm	286	diff_vonmises	-0.0096277944946557	-0.5516319905630646	4.12746364797427	0.6319310306291456	0.0303718043815744	2.263429947842505	0.1229186565925721	-0.3545970332507051	0.4775156898432772	66.07320017041147
9	4.0	ltm	286	diff_vonmises	0.0056203902922466	0.322024642962034	1.8531140956284229	0.7971106671797039	0.0439560102378208	3.2635168943859747	-0.1498575969800536	-0.4874080856309741	0.3375504886509204	94.61321411379672
10	4.0	perception	286	diff_vonmises	-0.0347521422388945	-1.991151079326977	1.758359285397678	4.051019609783339	0.3415023635791614	6.241633769614154	0.5748584268857417	-0.6769904338347018	1.2518488607204437	87.72167994802399
11	4.0	wm	286	diff_vonmises	0.01086031348652	0.6222501269666073	0.7137823986528609	133.21218133495532	0.6881740433680616	135.98081760827233	-0.1313853126999475	-0.5657253707868932	0.4343400580869456	92.17048862518308
12	5.0	ltm	286	diff_vonmises	-0.0423499164072957	-2.426471472869886	1.7265934896863206	1.1683820141969403	0.0433873659580082	2.551520226084369	0.1273599986109568	-0.3712164062356532	0.49857640484661	100.6263416759974
13	5.0	perception	286	diff_vonmises	-0.0209399412272139	-1.1997702555713503	1.26619654709888	6.734926071233458	0.5240914829747346	8.06688964479442	0.6085813945931209	-0.5292873443015604	1.137868738894681	94.77550991916355
14	5.0	wm	286	diff_vonmises	0.0423924850970774	2.428910479133776	1.239734289815798	1.9889147179024629	0.1083391269606316	3.5640559340262525	0.1383080459982759	-0.4431026688081154	0.5814107148063914	111.0073210721968
15	6.0	ltm	286	diff_vonmises	-0.0930777433561549	-5.332961860909516	0.4457888336822472	182.3371396982749	0.4339105065655536	183.6360965146752	0.0960454108237485	-0.385004524259422	0.4810499350831705	126.027379640082
16	6.0	perception	286	diff_vonmises	-0.0304219931506019	-1.7430518119053915	0.5616832853643575	200.66092944947144	0.5437333884972345	201.9663994156752	0.3453402704562691	-0.4997002191631274	0.8450404896193966	117.46841110503968
17	6.0	wm	286	diff_vonmises	0.0305166517862491	1.7484753522224383	0.4706836146822503	283.98399962152087	0.461156704144308	285.43806508770706	0.15456322758385	-0.4527002547534451	0.6072634823372951	123.88352114422204
18	7.0	ltm	286	diff_vonmises	-0.0469625512374499	-2.690755981072761	0.7783430754028113	213.11462607070564	0.7633874600520457	215.40960672855175	-0.0721963205916935	-0.483176708906111	0.4109803883144174	89.07236623666975
19	7.0	perception	286	diff_vonmises	0.0931180239105965	5.335269766675469	0.9374944902349618	8.014342246264079	0.4087057780718617	10.196256215006276	0.3003604237195159	-0.6338041598528964	0.9341645835724124	105.27001609616336
20	7.0	wm	286	diff_vonmises	0.0794747555119268	4.553568068667485	0.6894647244215755	165.05086241350114	0.6723324458621595	167.45584467752937	-0.1332404028099603	-0.4841937198282764	0.3509533170183161	92.74459182689652
0	1.0	ltm	44	diff_vonmises	0.0469608269952719	2.690657189273105	4.289563005260021	0.2468219100785242	5.907240235873161e-16	3.2637066550677147	-0.322328247032376	-0.5193979883715919	0.1970697413392158	66.05137611223088
1	1.0	perception	44	diff_vonmises	0.0019866258559824	0.1138252770193561	13.467287868972104	0.6803435384069072	0.0433486371676662	3.7523802563780455	0.3630708430530253	-0.6090517744376055	0.9721226174906308	36.61488827592274
2	1.0	wm	44	diff_vonmises	0.0215411111635402	1.234214755693001	4.530557659208633	0.318256021683124	6.905871503304047e-16	3.545904963025183	-0.3025799465082928	-0.5643179107142106	0.2617379642059177	64.2235774428321
3	2.0	ltm	44	diff_vonmises	0.0358691978264391	2.0551536499747893	4.169057111234767	0.4311461854592421	5.485550447606964e-17	2.218322405409834	-0.0140110391868865	-0.3529758682796417	0.3389648290927552	67.02177972603306
4	2.0	perception	44	diff_vonmises	-0.0135347121623731	-0.7754818838283655	7.426979943255821	1.3033432791163733	0.2408147076021888	3.218123649789081	0.7491284787724694	-0.5398333141002266	1.288961792872696	47.921659047863045
5	2.0	wm	44	diff_vonmises	0.0460567312500354	2.6388563187953205	3.838734320747696	0.652477349045217	0.1135105071244439	2.772901640822063	-0.002328728939871	-0.4296202165954449	0.4272914876555739	65.16339060479035
6	3.0	ltm	44	diff_vonmises	0.0567040010368963	3.248899940919605	3.182563490630115	0.7178545202222065	0.2240010251029128	1.9806290139266127	0.0967022619966913	-0.2912213324609367	0.387923594457628	69.15893847899801
7	3.0	perception	44	diff_vonmises	-0.005359011500464	-0.3070487413386623	4.387821978559203	2.1073957355100466	0.225089049624542	3.3785519296121564	1.0386562114852536	-0.5106330824234114	1.5492892939086649	62.14201604936952
8	3.0	wm	44	diff_vonmises	-0.0354918040090751	-2.0335305770255	3.864842730320296	0.6273635434955894	0.082083627627194	2.246587105178335	0.0858760642609656	-0.3473366061529288	0.4332126704138944	66.46580191125108
9	4.0	ltm	44	diff_vonmises	0.0312145281396072	1.78846072189184	1.1935098881000432	2.071836756475236	0.3180135732699102	4.507040422889091	-0.1783954139513447	-0.4699803457210765	0.2915849317697318	90.12987713932208
10	4.0	perception	44	diff_vonmises	-0.049269696334671	-2.8229456578678334	1.8305835179395344	4.00377963785931	0.3901525387892671	6.253329727400518	0.5417429624979506	-0.6713462625512321	1.2130892250491827	84.71508684731884
11	4.0	wm	44	diff_vonmises	-0.0168919757208046	-0.9678389164395602	0.7064424585265549	207.85546361162815	0.6920154330501638	210.5921471430046	-0.2030338397672153	-0.5328865181718605	0.3298526784046451	89.13786290691354
12	5.0	ltm	44	diff_vonmises	-0.0001619372870418	-0.0092783230932978	1.9559569723470045	1.01285066726952	0.0740079534093455	2.4766077703130205	0.0916610098218448	-0.3557992736250274	0.4474602834468723	92.4233063791474
13	5.0	perception	44	diff_vonmises	-0.0284374990402654	-1.6293486749145416	1.8958453965038835	3.0739583935308743	0.2387530284021895	4.535239195297703	0.631674877221139	-0.5428281755771587	1.1745030527982978	89.3593610982681
14	5.0	wm	44	diff_vonmises	0.0135145411423271	0.774326169511256	1.4298799923355303	1.3320864738640568	0.0260603438800827	3.0991886787842446	0.0543445832255687	-0.4483720179452894	0.5027166011708583	110.35302850982782
15	6.0	ltm	44	diff_vonmises	-0.1326185423123967	-7.598482759677465	0.4536206940237082	128.10695037497743	0.4385691186181455	129.5427141980712	0.0191995141159964	-0.3682721049938724	0.3874716191098688	122.81705039817705
16	6.0	perception	44	diff_vonmises	-0.0528947914537574	-3.0306483085249583	0.4680091545339593	91.24262190055344	0.4346563569065093	92.71046788902484	0.2197366864915544	-0.5022087804928042	0.7219454669843586	126.45940544188278
17	6.0	wm	44	diff_vonmises	0.0054895445732234	0.3145277354946499	0.4436291459279319	247.4919194267943	0.4345193144396344	249.12476261017372	0.0339352714791161	-0.4284629310386343	0.4623982025177504	124.13584409454224
18	7.0	ltm	44	diff_vonmises	0.0005724913025198	0.032801335442336	0.8484670982586646	221.1750065851552	0.8347703474646252	223.19071343654736	-0.0472616369636398	-0.432232115584533	0.3849704786208932	85.65592650232156
19	7.0	perception	44	diff_vonmises	0.0599629478004011	3.4356238361262488	0.6269242152056013	225.2340650825681	0.6085602371210675	227.1372804260448	0.2756087280096722	-0.5711422045391643	0.8467509325488365	108.825819601947
20	7.0	wm	44	diff_vonmises	0.0404766497309208	2.319141198411101	0.7556839866354603	148.264463531712	0.7378389282787953	150.42910909363334	-0.1265503877026219	-0.434786988943884	0.308236601241262	88.01905705460373
0	1.0	ltm	453	diff_vonmises	0.0117312478910375	0.6721509925781997	3.161657266312425	0.3745413754810434	3.0388650277674638e-18	2.594648070013984	-0.1602381870366857	-0.4124976552694762	0.2522594682327905	77.23918806868545
1	1.0	perception	453	diff_vonmises	-0.0222252358918939	-1.273412215288199	12.608233233053165	0.6424866177332895	1.5318380400839076e-17	3.0186968926124007	0.420189234894929	-0.4804405321453316	0.9006297670402607	38.18167109812683
2	1.0	wm	453	diff_vonmises	0.0560610961319128	3.2120642032357907	3.5501214428570607	0.4605093746972591	9.236046836800545e-24	2.7640310166000552	-0.1083518247784623	-0.4396356826657215	0.3312838578872591	72.78558285097625
3	2.0	ltm	453	diff_vonmises	0.0257799329817716	1.4770813559856273	2.9906183224004312	0.8385131411193341	0.3076538227233946	2.1253449229686883	0.098745782792756	-0.3036298339983976	0.4023756167911536	69.1654017795519
4	2.0	perception	453	diff_vonmises	-0.0053082857566419	-0.3041423703049904	6.228466791181699	1.328408830414304	0.2455390006044364	2.5521276977598304	0.7821516503804458	-0.4141898998711416	1.1963415502515873	52.37112085466126
5	2.0	wm	453	diff_vonmises	0.0608286754011162	3.48522637385521	4.219148277068064	0.6298494751619449	0.1632832931283085	1.996731433289555	0.1267770233100537	-0.309762050390561	0.4365390737006147	62.25998472645298
6	3.0	ltm	453	diff_vonmises	0.0317948328717702	1.821709733876248	3.012218162063634	0.7754953012681804	0.1771738824483764	1.870026337095244	0.1565443323837517	-0.2716514079223378	0.4281957403060895	72.7634254007036
7	3.0	perception	453	diff_vonmises	-0.0097720684353554	-0.5598982784588787	4.414419739762956	1.872087597599516	0.13110047958032	2.924100850430938	0.9899679049635914	-0.4456646583691229	1.4356325633327145	63.12595216705111
8	3.0	wm	453	diff_vonmises	-0.0217899034214442	-1.248469502046428	3.230980140574288	0.8177402374930816	0.1736507866731351	2.047982038135796	0.1737033699297108	-0.3019928370188363	0.4756962069485472	70.55116734662008
9	4.0	ltm	453	diff_vonmises	-0.1232348223558315	-7.060835210033591	2.730360443223638	0.6636809616459781	0.1274164570668138	2.519859611733952	-0.0419176863632251	-0.374045245054532	0.3321275586913068	75.09703091651014
10	4.0	perception	453	diff_vonmises	-0.0708047432699035	-4.056812958872792	1.7722628672681724	3.7481364895340894	0.3087472672316539	5.556215079949552	0.6208463434494456	-0.6142175089152633	1.2350638523647088	89.13411876798222
11	4.0	wm	453	diff_vonmises	-0.0579242203271627	-3.318813356332321	0.9260119410759856	317.51459080213164	0.914945556776275	319.6114413583259	-0.0141791281664751	-0.4654267152940079	0.4512475871275327	82.78502362195707
12	5.0	ltm	453	diff_vonmises	-0.0359899862185387	-2.0620743150562686	1.5900548890124395	1.166498825691602	0.0170909139643406	2.073685936873831	0.1877723092225231	-0.3026542957712841	0.4904266049938072	106.6384452450077
13	5.0	perception	453	diff_vonmises	-0.0382837020780006	-2.193494553205657	1.2862959816998494	6.158389265611307	0.5578046665578508	6.936464801459362	0.645628720305123	-0.4214297412350827	1.0670584615402057	94.9311918514366
14	5.0	wm	453	diff_vonmises	0.0568137924259896	3.2551905241415278	0.6492161497331561	100.12832438593216	0.6250789971543518	101.07836607347777	0.2020962788444578	-0.3146351101607134	0.5167313890051712	108.5574275794387
15	6.0	ltm	453	diff_vonmises	-0.094214502536132	-5.398093364244955	0.4235863695394528	147.47391930381343	0.4120505251740562	148.28500869642878	0.1263793861600248	-0.2876490670122518	0.4140284531722766	130.31619631226008
16	6.0	perception	453	diff_vonmises	-0.0565924033427406	-3.2425058640410884	0.619882870365358	295.45229328979224	0.6090344418678336	296.2540170065731	0.3931846151104992	-0.3888815102283978	0.782066125338897	113.71969195431832
17	6.0	wm	453	diff_vonmises	0.0109259213074439	0.6260091782085989	0.5222540679211967	173.94672814654092	0.5095690431430427	174.78534295479577	0.2049616956581701	-0.3206095866473522	0.5255712823055223	120.93773897026136
18	7.0	ltm	453	diff_vonmises	-0.0402715972121658	-2.307392554507913	0.8576860827921027	100.82190765768134	0.8256882951224777	102.64333127009374	0.0536951606739144	-0.4239982229672563	0.4776933836411707	88.71303751568706
19	7.0	perception	453	diff_vonmises	0.0474560915081993	2.719033755606448	1.5527054975583945	3.2369685288044523	0.215052040142159	4.992250236674792	0.4578779911194304	-0.573884725157639	1.0317627162770693	97.0329268972444
20	7.0	wm	453	diff_vonmises	0.0754273015560332	4.3216660392212525	1.0908874963852404	2.9272789773061736	0.3819130305164649	4.724215366986674	-0.0120945120522255	-0.3947338136510151	0.3826393015987895	95.72299138409537
0	1.0	ltm	384	diff_vonmises	-0.0115690230006201	-0.6628561910253093	4.04524474662048	0.2206237016149247	4.315197099349691e-21	2.495799043640421	-0.2265585424619449	-0.3971664503661993	0.1706079079042543	68.07016730621527
1	1.0	perception	384	diff_vonmises	-0.0047735617163495	-0.2735049395920534	12.931033570319258	0.7412322035205707	0.0553331786592075	3.175431560224302	0.5188175774278446	-0.517620361155406	1.0364379385832505	37.358418021565626
2	1.0	wm	384	diff_vonmises	0.026607494035101	1.524497111630804	4.580633590990085	0.3081109031212379	1.9985959650635784e-21	2.7470216900926485	-0.1823060780740444	-0.4371753006551243	0.2548692225810798	63.86948791195064
3	2.0	ltm	384	diff_vonmises	0.067005744460038	3.839146360692276	4.622412507281487	0.3808957791042707	0.0326093990600863	1.64376440777666	0.046482010116051	-0.2587348728735582	0.3052168829896093	62.24527196830925
4	2.0	perception	384	diff_vonmises	-0.008297944044104	-0.4754371723628804	7.390916869226066	1.3862561998844545	0.366229692136452	2.639577294935073	0.8898233386883773	-0.4538661983735799	1.3436895370619573	47.66992680595055
5	2.0	wm	384	diff_vonmises	0.0515406643020587	2.953062537808548	4.096126085467668	0.5433880568379614	0.1273292213981459	2.032013427534914	0.0573944474870557	-0.3156303956827624	0.3730248431698182	63.37223506039717
6	3.0	ltm	384	diff_vonmises	0.1062319220736409	6.086640784382275	3.4927514095740477	0.5296128971462155	0.3238540607756879	1.216125873975552	0.1171868457964532	-0.1785822175030658	0.2957690632995191	65.49164902839513
7	3.0	perception	384	diff_vonmises	0.0023510232029794	0.1347037070680536	4.861120505918871	1.855718740715328	0.3028398367828704	2.4941268549541538	1.0598855891984025	-0.3805854974741021	1.4404710866725043	58.966434816319946
8	3.0	wm	384	diff_vonmises	-0.0407573255661297	-2.335222739179882	4.256754480304599	0.5154129085457573	0.1531997350830798	1.4643394584757778	0.1398321253110269	-0.2263915863888678	0.3662237116998947	62.551126862622056
9	4.0	ltm	384	diff_vonmises	-0.0617904659925809	-3.540332915521527	1.0532985418018308	6.98901688075548	0.7451635206696219	8.661014798775126	-0.080687804439945	-0.3477845266630265	0.2670967222230814	81.16464032015514
10	4.0	perception	384	diff_vonmises	-0.0453783133983431	-2.59998583914702	2.4298782995183847	2.5456666028127355	0.2528794435357077	4.216413371026916	0.6248170288883454	-0.5495452328878102	1.1743622617761558	79.64773214888433
11	4.0	wm	384	diff_vonmises	-0.0449023680674012	-2.57271618040509	0.9410000827597194	286.76319504919826	0.9303831120632612	288.7240818794857	-0.0654677529363141	-0.4205966831508689	0.3551289302145548	80.38282624537067
12	5.0	ltm	384	diff_vonmises	0.0080032642000343	0.4585532609901149	2.206667304632023	0.7539790815409971	0.0170846376115675	1.6738136600484952	0.1416712214012835	-0.2568644456522463	0.3985356670535299	91.45023601338792
13	5.0	perception	384	diff_vonmises	-0.02253039318684	-1.2908964403762413	2.147193875962511	2.445085507477132	0.1781414443224674	3.2466255504519457	0.7038746721911171	-0.4185030236655586	1.1223776958566758	87.45379538864879
14	5.0	wm	384	diff_vonmises	0.0766415696514907	4.391238476288354	1.5289589629716356	1.137840015885048	4.726539264269559e-17	2.226377352370848	0.1442488051422856	-0.3309109348034511	0.4751597399457367	109.54160327885242
15	6.0	ltm	384	diff_vonmises	-0.1282703513594785	-7.34934976955828	0.4900772132853617	122.92116303332104	0.476728617025337	123.7116269796594	0.1142468162141021	-0.2615900601781877	0.3758368763922899	122.73850482803752
16	6.0	perception	384	diff_vonmises	-0.0435975969760062	-2.49795830363748	0.5363793341320227	95.60541035819864	0.5058707615310677	96.440039859159	0.3399797918044704	-0.3980878059434172	0.7380675977478877	121.93656065057816
17	6.0	wm	384	diff_vonmises	0.0066107462088551	0.3787678571995121	0.4344966639655048	145.142669503637	0.4206897789982866	146.0520327376769	0.1587689140400883	-0.3312983461607395	0.4900672602008278	129.5281148304934
18	7.0	ltm	384	diff_vonmises	0.0928594551096329	5.320454865666493	0.9320996549302186	198.96683761205432	0.9192306132350158	200.29085794983524	0.0548526022070632	-0.3148946551432665	0.3697472573503297	84.89426761904414
19	7.0	perception	384	diff_vonmises	0.0348427439279367	1.996342173725853	1.4340241983831818	2.4496030755760394	0.1461871335457641	3.6870589690138607	0.3570170254627686	-0.4456456844054646	0.8026627098682332	104.13698968309876
20	7.0	wm	384	diff_vonmises	0.1001896924142735	5.740446526051755	0.6860749362759242	133.96073321809848	0.6715376994859281	135.37199404357338	-0.0231446404368753	-0.3062552817481236	0.2831106413112483	96.50324317127595
0	1.0	ltm	263	diff_vonmises	-0.013299919435273	-0.7620292515051649	6.696769203853426	0.165764757400157	3.99775932050299e-26	2.312040463746917	-0.2002970801222752	-0.3679724127046788	0.1676753325824036	52.60242557762612
1	1.0	perception	263	diff_vonmises	-0.0018062595326439	-0.1034910479257718	12.518365566029088	0.7620006971737169	0.0936091121290973	3.078597348236381	0.5275194189668521	-0.510919132375112	1.038438551341964	37.77636465253559
2	1.0	wm	263	diff_vonmises	0.0182548409896577	1.0459253443898058	6.749738417380224	0.2476908437950181	1.2079448649483633e-17	2.599685771023469	-0.1621595515156177	-0.413752495837948	0.2515929443223302	52.389916930215975
3	2.0	ltm	263	diff_vonmises	0.0296224057761575	1.6972388299977808	4.451715314839432	0.4033574105963339	0.0885058444201334	1.5680486105699758	0.0565107984101977	-0.2453960828289598	0.3019068812391576	61.92968230191187
4	2.0	perception	263	diff_vonmises	-0.0112499772363952	-0.6445762152636967	7.684045399639666	1.3587366860758223	0.4180479267027095	2.5911421313762166	0.8763693200900534	-0.4555666434132617	1.331935963503315	46.54159340502429
5	2.0	wm	263	diff_vonmises	0.0544412086460921	3.119251487012209	4.200111019473407	0.5104367306505948	0.1483456747180249	1.9275605529690647	0.049126708474143	-0.3006235151454786	0.3497502236196216	62.12238527044056
6	3.0	ltm	263	diff_vonmises	0.1197816529336076	6.862983176196535	2.6141894336884444	0.8599318831456966	0.7448658836161322	1.4071347609688087	0.1077791770240995	-0.163034313919986	0.2708134909440856	67.05455794408692
7	3.0	perception	263	diff_vonmises	0.0004327149559727	0.0247927407094286	5.111138069569736	1.7656992712537023	0.4041463634359691	2.31375707926238	1.0193476059199795	-0.3578274515399521	1.3771750574599315	56.92235633000564
8	3.0	wm	263	diff_vonmises	-0.0204176541404337	-1.1698454098046671	4.121088064689099	0.4853700778771011	0.2673207427125523	1.3161139443153502	0.1104529803867812	-0.2030390743215532	0.3134920547083344	61.46466379362619
9	4.0	ltm	263	diff_vonmises	-0.079657144224499	-4.564018172128695	1.0138069411916415	148.35095553657385	0.997483012730116	149.80161510845912	-0.0371478223726384	-0.3191049960359251	0.2819571736632866	77.95804031127273
10	4.0	perception	263	diff_vonmises	-0.0456932671987675	-2.618031362652941	2.766792824754826	2.089879706437918	0.2213178511503119	3.620207385751197	0.5964061673412104	-0.49746477642729	1.0938709437685006	75.97571291967535
11	4.0	wm	263	diff_vonmises	-0.0842019161654579	-4.824414423195119	1.0198343089404736	283.5685593919195	1.009531362930976	285.2892418165529	-0.0391140176638487	-0.3806724498416685	0.3415584321778198	77.7722713380621
12	5.0	ltm	263	diff_vonmises	0.0332083569254639	1.9026986963931207	2.385840871665576	0.78160708759521	0.0622998414338791	1.595646596813928	0.1781082993437944	-0.2352630019452687	0.4133713012890631	85.72828555907381
13	5.0	perception	263	diff_vonmises	-0.0383047919158992	-2.19470291190786	2.548580541031355	2.062742023742936	0.1048564814588978	2.7641706419526257	0.7422593549156822	-0.3915406522956119	1.133800007211294	82.84096366823042
14	5.0	wm	263	diff_vonmises	0.0756584232870342	4.334908338961366	1.763904910012847	1.015280870515009	1.6364203468212146e-17	1.9591677949152213	0.1734919859741074	-0.2975574273501941	0.4710494133243016	102.84878006877588
15	6.0	ltm	263	diff_vonmises	-0.1136443173465387	-6.51133974960204	0.5455057502205607	106.39828220073692	0.5303886609830112	106.99217519963614	0.1523329745563018	-0.22728292633529	0.3796159008915918	118.82280838415632
16	6.0	perception	263	diff_vonmises	-0.0594146800786947	-3.404210409629219	1.1613207001968304	1.988835971123447	5.015823870942216e-10	2.675958584103804	0.3138779794610112	-0.3533797689904935	0.6672577484515048	122.13563690470572
17	6.0	wm	263	diff_vonmises	-0.0424104098872163	-2.4299374939573952	0.465544769526818	115.20455912544546	0.4498593774172206	115.8596498273569	0.1798093746992499	-0.2745965909173282	0.4544059656165782	127.364983049264
18	7.0	ltm	263	diff_vonmises	0.1048802742195017	6.009197066952186	0.9608021815099008	198.21640871213532	0.9488679527792306	199.22359776449875	0.1146805683170697	-0.2650094496427151	0.3796900179597848	85.89691738025087
19	7.0	perception	263	diff_vonmises	-0.0450266169862995	-2.5798351190670266	1.1042641376412967	4.568980232017672	0.4317796005317225	5.45572741726531	0.3739195851117842	-0.360851188319985	0.7347707734317692	102.34621124217954
20	7.0	wm	263	diff_vonmises	0.1496992663306323	8.577136156950097	0.7914362454863653	64.8210586746667	0.7626416669431744	65.84520799182609	0.0527449490108651	-0.2478104006956076	0.3005553497064728	93.53525969385304
0	1.0	ltm	240	diff_vonmises	-0.0933412678597981	-5.3480607027665545	3.1230130104660696	0.2573591616252822	8.495474795512238e-22	2.67776366127482	-0.2537372040134316	-0.4258450674648901	0.1721078634514585	77.72619423759579
1	1.0	perception	240	diff_vonmises	-0.0175572690852843	-1.0059574183623097	14.519654711918792	0.7540376616790925	0.055765107244816	3.289730431950149	0.5828915990852519	-0.5378546155848926	1.1207462146701443	35.27316847964352
2	1.0	wm	240	diff_vonmises	0.0100359864566502	0.5750196672165103	4.369844244008921	0.2965889954692632	4.626211407283867e-26	2.919018993981994	-0.2253534433677289	-0.4645379921845797	0.2391845488168507	65.42824656317558
3	2.0	ltm	240	diff_vonmises	0.0229293397303505	1.3137543935707248	3.39072121141066	0.3977844739402846	3.443853485935333e-27	1.829233474149596	-0.0119760955933228	-0.2908147771409244	0.2788386815476016	74.52200432869779
4	2.0	perception	240	diff_vonmises	-0.0271196249752253	-1.5538400530579903	8.28554033021413	1.2698419332106503	0.2879365302534007	2.734204222836182	0.8659875336318077	-0.470303499013875	1.3362910326456827	45.47097463279116
5	2.0	wm	240	diff_vonmises	0.0039412260733453	0.2258156201096088	3.888478211839913	0.5441392639483736	0.1002277607174432	2.239138479799485	0.018981328405133	-0.3470727762166139	0.3660541046217469	65.32832932136327
6	3.0	ltm	240	diff_vonmises	0.0516692930586468	2.9604324226850656	3.0133512194578813	0.6222367845809216	0.3434488187941677	1.3182264423475625	0.1213248329319217	-0.183944594009	0.3052694269409217	69.44874657467409
7	3.0	perception	240	diff_vonmises	-0.0115344478430312	-0.6608751804194687	4.159922696223673	2.1855246664309558	0.3942429815779585	2.7880020869129902	1.083184679766206	-0.4035532172591554	1.4867378970253615	62.55163399908909
8	3.0	wm	240	diff_vonmises	-0.1078814787091817	-6.181153417666564	3.577709005440642	0.6569173606159152	0.2409152859444603	1.611823749075731	0.1532789820859099	-0.240100966517567	0.393379948603477	66.15783230529786
9	4.0	ltm	240	diff_vonmises	-0.0418031391709326	-2.3951434448924527	0.975808153382363	81.37273152152926	0.9444422749250996	82.9538113486965	-0.0392829508299819	-0.3447085158044345	0.3054255649744526	79.89606589869948
10	4.0	perception	240	diff_vonmises	-0.0725440434451849	-4.15646751822278	2.2630894391780703	3.221436955301552	0.4205212936994251	4.714424324591924	0.6962492422705397	-0.5419543175330959	1.2382035598036356	78.71785576277901
11	4.0	wm	240	diff_vonmises	-0.0975180201836483	-5.587370982994629	0.9377532920161108	258.13170015147426	0.9267029782024911	259.9737121674732	-0.0615274331431408	-0.3948211260797691	0.3332936929366283	80.53616663993719
12	5.0	ltm	240	diff_vonmises	0.0491906158628843	2.8184146805925487	1.689091630777608	1.1134766891245038	0.189517032518577	2.362673441001286	0.0679500206331596	-0.2979741630508218	0.3659241836839815	91.78699011218116
13	5.0	perception	240	diff_vonmises	-0.0027395890589769	-0.1569668906795983	2.401013134945188	2.180939489660019	0.0997202665352479	3.3602333758513936	0.6656964492355741	-0.4763244049481432	1.1420208541837171	84.90076438640313
14	5.0	wm	240	diff_vonmises	-0.0130702970469114	-0.7488728577703307	0.781835813154747	3.114396180156688	0.2320882627370277	4.623766741659354	0.0191002645441559	-0.3799660022364753	0.3990662667806313	118.86846838645386
15	6.0	ltm	240	diff_vonmises	-0.2052100145259109	-11.757667746153016	0.4161517333646527	157.2374191343651	0.4058590834167199	158.53417423015017	0.0002742446492902	-0.3287850461055512	0.3290592907548415	126.52355521129329
16	6.0	perception	240	diff_vonmises	-0.0232901689069774	-1.3344283825166232	0.4171656941514586	159.15505768820776	0.3984620535773019	160.48859136469775	0.2430637400400641	-0.499807375281053	0.7428711153211172	131.86465996671376
17	6.0	wm	240	diff_vonmises	-0.096531913914189	-5.530871255603217	0.3593785485038308	194.50372831122723	0.3493131140594138	196.002010790566	0.0272872756453637	-0.4120218296481326	0.4393091052934963	134.91298826802608
18	7.0	ltm	240	diff_vonmises	0.1579728514831118	9.05117766762928	0.8756789225033276	157.11664874383877	0.8611816397373904	158.36646785497254	0.0402907287842495	-0.2923309297043523	0.3326216584886019	87.38676765355575
19	7.0	perception	240	diff_vonmises	0.0449974311062033	2.5781628913161385	1.4610437082920271	2.07656841574269	0.1057411035336969	3.2476396025125824	0.3123049391223775	-0.4160694636429786	0.7283744027653563	105.428595873936
20	7.0	wm	240	diff_vonmises	0.114976764227713	6.587683332318697	0.7634657939548519	124.53266683249257	0.7474353904221185	125.91999132014716	-0.026209072164768	-0.298307589247365	0.2720985170825969	91.00049949155604
0	1.0	ltm	119	diff_vonmises	-0.157080359101198	-9.00004162089804	3.154257531171261	0.2397957031730803	6.835582771029273e-19	1.556283923894502	-0.0860996183054741	-0.2473960655844775	0.1612964472790033	77.3258784182444
1	1.0	perception	119	diff_vonmises	-0.0524187815700719	-3.0033749511832637	16.317836862460098	0.6639889487611831	0.0235080392498243	2.190087620870097	0.7048078399642697	-0.3523888436747167	1.0571966836389863	33.43915209723116
2	1.0	wm	119	diff_vonmises	-0.0262434839799424	-1.5036408717698926	6.531664616429252	0.2425767629041954	5.295884038409924e-16	1.7444346266679347	-0.0354894078324574	-0.2776348797404973	0.2421454719080399	53.28198222324647
3	2.0	ltm	119	diff_vonmises	-0.0199619855154366	-1.1437375207357985	5.598994341996466	0.3134105743263008	2.045319152063899e-23	1.2027208636485551	0.0971622470317963	-0.1914150164090628	0.2885772634408591	57.62714958618295
4	2.0	perception	119	diff_vonmises	-0.0304949157545945	-1.747229969345271	8.326172461695004	1.206344469291868	0.3747571215128455	2.170104538718684	0.8812374844676132	-0.3813045465424785	1.2625420310100917	45.18247291925599
5	2.0	wm	119	diff_vonmises	-0.0192376019437549	-1.1022333993298288	4.304028679605404	0.3888606977185325	0.1292880728353312	1.4675706434334217	0.0464189048989898	-0.2291876691004505	0.2756065739994404	61.92788620456176
6	3.0	ltm	119	diff_vonmises	0.0928227390991157	5.3183511932233	1.645737912613554	132.15552442155604	1.6296321376896956	132.5958855994717	0.1607845606487501	-0.1669731009020836	0.3277576615508337	67.65381818528593
7	3.0	perception	119	diff_vonmises	-0.0262213004457758	-1.5023698488874593	4.554107184981163	2.1472142815110438	0.5469905006978814	2.537117624024007	1.1224479232655369	-0.3724115695979969	1.4948594928635337	59.13392494206866
8	3.0	wm	119	diff_vonmises	-0.0839417605375321	-4.809508603698399	2.62829142637768	1.066593926046755	0.7450953961035777	1.7728479285770111	0.1275531111821095	-0.2073362326764647	0.3348893438585743	66.71698870177491
9	4.0	ltm	119	diff_vonmises	-0.1097287733388135	-6.286995603461649	1.35507981335918	158.98841364696065	1.3389501336069551	159.94921908674357	0.0735899748221129	-0.2593559595875128	0.3329459344096257	70.73191613893343
10	4.0	perception	119	diff_vonmises	-0.0805222428841457	-4.6135846741888775	2.834143889112767	2.1501731450081047	0.2719208579578392	3.280504269288823	0.6902886051363584	-0.4400176214392198	1.130306226575578	74.78832079245359
11	4.0	wm	119	diff_vonmises	-0.1620652536204458	-9.285655038168832	1.235103495758	241.42498580909327	1.223448357167262	242.6603787725536	0.0437272587417538	-0.3089360481514234	0.3526633068931772	72.94104886545796
12	5.0	ltm	119	diff_vonmises	0.0991564167715502	5.68124419265004	2.0326876120391377	1.0645130706101322	0.3116812061344442	1.646511292647281	0.2052037149238578	-0.1937047417352054	0.3989084566590632	84.23885387938785
13	5.0	perception	119	diff_vonmises	-0.0241866960794751	-1.3857956057195395	2.7752857876052643	1.7084410590851886	0.0208888824350989	2.225971540048948	0.708287902783223	-0.3427553264834657	1.0510432292666887	81.89495366494597
14	5.0	wm	119	diff_vonmises	0.0133099895222826	0.7626062249901425	1.7384097546286978	0.8083516852274317	1.1530420708520487e-17	1.5536541408604252	0.1357159758040814	-0.2354349373575724	0.3711509131616539	103.54566393146436
15	6.0	ltm	119	diff_vonmises	-0.2395836475260033	-13.72713184358992	0.4423449079269685	69.38172480374487	0.4239649748145241	69.91357400041477	0.1118388690145693	-0.2052296370438657	0.317068506058435	129.04198585534135
16	6.0	perception	119	diff_vonmises	-0.0270487696075216	-1.5497803395327223	0.8871529777315457	3.45975994961256	0.2485897410596204	4.14939142143227	0.2742131204796302	-0.319244968885817	0.5934580893654472	119.18132609881174
17	6.0	wm	119	diff_vonmises	-0.1251959962597738	-7.17320219762068	0.4175637960042618	87.84355412976961	0.4011747072537147	88.47277641651961	0.1209171452167616	-0.2396802154455422	0.3605973606623038	131.70737749612795
18	7.0	ltm	119	diff_vonmises	0.0954801517779704	5.470609724146227	1.103535698390281	191.516240118082	1.0918585906815743	192.1790594844839	0.1808234611171286	-0.2113781372654983	0.392201598382627	82.66108208362053
19	7.0	perception	119	diff_vonmises	-0.0510190522016931	-2.9231763659146464	1.682029770551808	1.521086239833067	6.263705522216284e-13	2.164627799197782	0.3618487127684164	-0.3200749466882273	0.6819236594566438	105.08746381918948
20	7.0	wm	119	diff_vonmises	0.1427611547106643	8.179611643335258	0.8838228629110508	26.30814782379804	0.8249950219263441	26.9969652101722	0.0828185799052594	-0.1836029875469083	0.2664215674521677	91.24248649173796
0	1.0	ltm	338	diff_vonmises	0.0069737240197097	0.3995649538183749	2.396356440938884	0.4524327092295483	4.334827072224231e-20	3.5514142752201225	-0.3051663910229147	-0.5630690149275371	0.2579026239046224	88.8500244761149
1	1.0	perception	338	diff_vonmises	-0.0149405907238126	-0.8560327919067724	13.142696708754295	0.7290645548853896	5.969555221870736e-20	3.876099525720708	0.4270944059489073	-0.6169003994305918	1.0439948053794992	37.38747382750535
2	1.0	wm	338	diff_vonmises	0.0014704612237131	0.0842512220564036	4.22422290144892	0.4034440303809864	3.369850856774652e-19	3.631576777465567	-0.258451292047346	-0.5779149403675744	0.3194636483202284	66.57070880239186
3	2.0	ltm	338	diff_vonmises	-0.0433366452247881	-2.4830068696361334	3.2915114831534256	0.6663669098508701	0.0597997071017758	2.751165165040013	-0.0045326249602132	-0.4234713277708717	0.4189387028106584	72.04012306058834
4	2.0	perception	338	diff_vonmises	-0.0337892700772856	-1.9359825682561496	6.799204236225751	1.321532441819551	0.1038538072158588	3.4420627707343945	0.7413401384503245	-0.5525044963863094	1.293844634836634	51.02448138348487
5	2.0	wm	338	diff_vonmises	0.0006184919535984	0.0354369786039898	3.6911589476257984	0.7084396074555819	0.0625916803635592	2.933005523451088	0.0247225603986422	-0.4545232611791289	0.4792458215777711	68.20918433485232
6	3.0	ltm	338	diff_vonmises	-0.0058703410505707	-0.336345766500096	2.470187050682561	0.8801640777112313	1.1857834685613444e-20	2.349053780364151	0.1412025420317584	-0.3701794946710061	0.5113820367027646	87.51862530209294
7	3.0	perception	338	diff_vonmises	-0.0154304599330264	-0.8841002301081343	3.5489388221943137	2.45474776132833	0.1659466602888672	3.833756576404718	1.0517039108451989	-0.5613325366873642	1.6130364475325627	69.4181943232351
8	3.0	wm	338	diff_vonmises	-0.1042405275993675	-5.972542285660737	3.156669176138507	0.9310919521579284	0.0484011562390373	2.495450846345843	0.2110887438178919	-0.3819427917748609	0.5930315355927529	74.9824574652622
9	4.0	ltm	338	diff_vonmises	-0.0297853699953228	-1.7065759919675936	2.271456617259508	0.6488839577386571	1.0708861215843644e-19	3.37339241805146	-0.1755680562651569	-0.5330465097605186	0.3574784534953616	91.22840349032876
10	4.0	perception	338	diff_vonmises	-0.0745728143314126	-4.272707527602646	0.9076340300774588	139.3245997022958	0.8567926392295663	141.9208040396611	0.5336120058690952	-0.7745816012292064	1.3081936070983016	91.58183560201266
11	4.0	wm	338	diff_vonmises	-0.0542803496688552	-3.110034946519741	0.6272453035189092	225.28675467681117	0.6143922929294816	228.1791149941452	-0.2268694532430615	-0.5568004682548526	0.3299310150117911	94.23757724011932
12	5.0	ltm	338	diff_vonmises	-0.054699188462937	-3.1340326417169777	1.485979570284561	1.1867450904039476	3.355878297282619e-15	2.464818389325026	0.1188370563789067	-0.3661167318094743	0.4849537881883811	110.889451231929
13	5.0	perception	338	diff_vonmises	-0.0373117651153356	-2.1378066672921903	1.7971544481545938	3.37645895902788	0.233734368853044	4.542255632165197	0.7315029965988298	-0.5286257001921454	1.260128696790975	92.28878855259448
14	5.0	wm	338	diff_vonmises	-0.0367930820306548	-2.108088315635152	0.5823577612525687	148.0501341421159	0.5653102103165147	149.46503142085834	0.1099303239528239	-0.3851242429589607	0.4950545669117847	110.96341224727728
15	6.0	ltm	338	diff_vonmises	-0.0754331776763643	-4.3220027161161365	0.785806176683727	1.2116364363823993	2.549166773028187e-16	2.277309697192571	0.0021728149339765	-0.2867084256805517	0.2888812406145283	137.9776390541861
16	6.0	perception	338	diff_vonmises	-0.0830831851591331	-4.760315858122284	0.3020545926118241	116.7334555111309	0.2812768331585999	117.77301469916176	0.2179968695671306	-0.4455207562985883	0.6635176258657189	145.4671000032358
17	6.0	wm	338	diff_vonmises	-0.0131837522369831	-0.7553733613252909	0.4490301303116265	205.2306933019912	0.4404903859141328	206.381197378632	0.0533270213121284	-0.3195797187149978	0.3729067400271262	124.53537323054198
18	7.0	ltm	338	diff_vonmises	0.0577904511761607	3.311148948550855	1.3032105760109167	2.1863854332038035	0.3611648413078879	3.90970267291348	0.0057710495212822	-0.3811108731205183	0.3868819226418005	91.34562226175548
19	7.0	perception	338	diff_vonmises	0.1205474540078009	6.906860345694393	0.7385535539787518	325.3727331265615	0.7248089189576108	326.92931281185287	0.4030651279387029	-0.5222884392043632	0.9253535671430662	101.8071043185978
20	7.0	wm	338	diff_vonmises	-0.0781198102476175	-4.475935423551321	1.21310893960947	2.975578247361349	0.4815650269786952	4.80491322116221	-0.0337026996652567	-0.3911847779457139	0.3574820782804572	87.64132150116785
0	1.0	ltm	96	diff_vonmises	0.0130930658454743	0.7501774138325698	6.843714093705225	0.3800733204363605	0.0656402523134221	3.8425469627702937	-0.2635129446856342	-0.6207599846648921	0.3572470399792579	49.72031768416733
1	1.0	perception	96	diff_vonmises	0.0194315222574685	1.1133442148674693	11.302911762145824	0.7721532126337776	0.0909296616352105	4.243636847876116	0.2855106691726726	-0.7022699534256854	0.987780622598358	39.54169985612148
2	1.0	wm	96	diff_vonmises	0.0394597281634897	2.2608758845014725	3.469695743324606	0.6614356416096321	0.1123759958445588	4.366178007451345	-0.3049088491138622	-0.6799272053374722	0.3750183562236099	65.9747975560692
3	2.0	ltm	96	diff_vonmises	-0.0048098211865149	-0.2755824541999148	2.671487078176229	0.9118733898879632	0.3076823188963933	2.3258238898750485	0.0668363606801249	-0.3230562872864503	0.3898926479665752	71.94067585970754
4	2.0	perception	96	diff_vonmises	-0.0175059984732005	-1.0030198286768548	6.863460983301935	1.270736087352524	0.3246802492179337	2.741361009483417	0.7140062118361111	-0.4628345637192592	1.1768407755553705	49.31081819841461
5	2.0	wm	96	diff_vonmises	0.0414414758055699	2.3744216604526702	3.731239844316093	0.8335975687529383	0.2376876400723817	2.4685126947694034	0.1255584979460269	-0.3755745529290342	0.5011330508750611	64.1942631101723
6	3.0	ltm	96	diff_vonmises	0.0089325334711279	0.5117964682549774	3.039288207360094	0.7550783955467976	0.2539381575030467	1.782456120289609	0.1382970414740461	-0.2553249633800776	0.3936220048541237	70.59742123283249
7	3.0	perception	96	diff_vonmises	-0.0048681666787265	-0.278925404657253	4.585258111952544	1.7443541641667817	0.2531990857161126	2.7321653234789425	0.8927537562583335	-0.4156436361688322	1.3083973924271657	60.65698323768126
8	3.0	wm	96	diff_vonmises	-0.0047592498025764	-0.2726849273361028	3.3494631025781296	0.7680852234089643	0.1985395110450555	2.022708888606501	0.1465681279429427	-0.2999811086300057	0.4465492365729485	68.62922956359671
9	4.0	ltm	96	diff_vonmises	-0.0991951335016909	-5.68346249788365	1.372715248458082	2.122973928475576	0.3101349409108005	4.055359002117696	0.0123473536320992	-0.4291139111293322	0.4414612647614315	91.9797209500193
10	4.0	perception	96	diff_vonmises	-0.0520718190198695	-2.983495461407574	2.2022855904549865	2.8277920926143127	0.2480513387912579	4.523422371977801	0.6372905594155268	-0.5712070422460208	1.2084976016615476	83.25625572325566
11	4.0	wm	96	diff_vonmises	-0.0765335675860595	-4.3850504137604505	0.8431406348656566	263.4040400220948	0.8294650030612126	265.54053500016886	0.0268090662343212	-0.4843481332909292	0.5111571995252504	88.16255885810648
12	5.0	ltm	96	diff_vonmises	-0.0409418420008068	-2.3457947521376794	1.3333248785249432	2.0138163651749927	0.1617195436848058	3.265839191207519	0.205531977067247	-0.3828224705421161	0.5883544476093632	105.29707734168828
13	5.0	perception	96	diff_vonmises	-0.0310901247649836	-1.7813329335687216	1.684701053457173	3.682438648763499	0.3487618081275131	4.836607487376735	0.6531144178012396	-0.4908308729585435	1.1439452907597831	90.92467008390196
14	5.0	wm	96	diff_vonmises	0.017698129847099	1.0140281455132896	0.6677638263376156	192.58038401631325	0.6518784155609177	193.81586639465527	0.2415773163597308	-0.392788893487058	0.6343662098467888	106.27726783369404
15	6.0	ltm	96	diff_vonmises	-0.0463411034706938	-2.6551496468498077	0.4819625125662879	130.04896440588277	0.4638654845210478	130.97569397585386	0.2155010606968943	-0.3596825539550821	0.5751836146519764	125.29961986660749
16	6.0	perception	96	diff_vonmises	-0.0281999463062538	-1.6157379058438788	1.268047053082404	2.4113971349179013	3.2740630365105846e-09	3.3724176300329334	0.4076383785640665	-0.4619617104631786	0.8696000890272451	118.211094888869
17	6.0	wm	96	diff_vonmises	-0.0755412615757987	-4.328195467387041	0.5125477537185881	210.7433602300575	0.4993838864715432	211.64075200313545	0.2976511131045356	-0.3927628204566495	0.6904139335611852	122.85437178345452
18	7.0	ltm	96	diff_vonmises	-0.002742818183226	-0.1571519058705954	0.6615086066588114	256.12387816455106	0.6503272940241079	257.78377833820093	0.0878757284232278	-0.4138294361038639	0.5017051645270918	102.35985128083136
19	7.0	perception	96	diff_vonmises	-0.0050015144709324	-0.2865656703580374	0.8153836905900002	246.887284718915	0.7966908060424228	248.32246246778664	0.4463943642390404	-0.498909738583734	0.9453041028227744	97.54533303447602
20	7.0	wm	96	diff_vonmises	0.177652406247962	10.17873309835176	0.8102922443897292	110.73944142964638	0.7826530668827614	112.31572274307064	0.111096534799806	-0.3923592601628538	0.5034557949626599	93.06537237011864
0	1.0	ltm	194	diff_vonmises	-0.0170394672434909	-0.9762895582034474	3.778873486985099	0.3737903679170393	4.972624338259376e-18	2.599795594520083	-0.1351960983932248	-0.4136248900986504	0.2784287917054255	70.48868739424
1	1.0	perception	194	diff_vonmises	-0.0326909351311398	-1.8730526113502672	13.00967859446424	0.692684365901103	2.0433649975029744e-19	3.08568059955982	0.4956711013872901	-0.4911013202177635	0.9867724216050536	37.57861681964215
2	1.0	wm	194	diff_vonmises	0.0066179929125159	0.3791830627346569	4.579338719561562	0.4210347493624402	3.1328880007708613e-20	2.777937864654781	-0.093839079852563	-0.4420858604343997	0.3482467805818366	63.87584243890064
3	2.0	ltm	194	diff_vonmises	-0.0211037205366918	-1.2091541187760049	2.604137233013561	1.1084958081964866	0.3997749931307335	2.4099215547899946	0.1192242881411614	-0.319757511191793	0.4389817993329545	71.48388632272847
4	2.0	perception	194	diff_vonmises	-0.0238201306416208	-1.364792953215123	6.4734774737088525	1.2989516974238375	0.2068176549163343	2.577546198562209	0.7916051660029311	-0.4179612883861547	1.2095664543890858	51.68454930133663
5	2.0	wm	194	diff_vonmises	0.021172673053915	1.2131048069996937	4.001205053152649	0.6632720954050924	0.1496380005230434	2.0420902670715457	0.1346662988794053	-0.3142542112968787	0.448920510176284	64.11577684863153
6	3.0	ltm	194	diff_vonmises	0.0124635669511903	0.7141097839819406	2.68042219458222	0.879655260750462	0.161328333380207	1.8865541777721129	0.1894236422140847	-0.2676659954698219	0.4570896376839067	77.53490831869419
7	3.0	perception	194	diff_vonmises	-0.0175227507761196	-1.0039796649312434	4.30337237024219	1.9621335201512884	0.1731878672599011	2.917319946508073	1.021760520799765	-0.4397995343014134	1.4615600551011785	63.46914066353318
8	3.0	wm	194	diff_vonmises	-0.0565589078061439	-3.2405867111615767	2.807693542086531	1.0338884663703491	0.2632963708705848	2.1383540065837323	0.2166402388872729	-0.2961177728826105	0.5127580117698834	73.45740611510192
9	4.0	ltm	194	diff_vonmises	-0.1581869712700013	-9.063445827728282	2.75052525396802	0.7490296719679953	0.1030188621858867	2.5050432098513986	0.0259415684190356	-0.3725388144499914	0.398480382869027	76.71006205130908
10	4.0	perception	194	diff_vonmises	-0.0757109587021864	-4.337918396524558	1.927237338598032	3.3041293599251724	0.2535009144481189	5.117408092985641	0.6338893784575526	-0.6135598731585288	1.2474492516160811	87.83743793448198
11	4.0	wm	194	diff_vonmises	-0.1066780494130444	-6.112201998055497	0.9391224792304136	336.824678373359	0.9287636571569547	338.79083362231466	0.0180046866696699	-0.4471551957493958	0.4651598824190657	83.02080777741585
12	5.0	ltm	194	diff_vonmises	-0.0403333491469488	-2.310930679747747	1.5337177138046654	1.257083887527947	1.1485975214282676e-17	1.9558272331066515	0.2406062085197394	-0.2855934499993727	0.5261996585191122	109.41736247403408
13	5.0	perception	194	diff_vonmises	-0.0423824740984265	-2.428336891162371	1.716139934270667	3.2359057605060944	0.3107521920625298	3.7534212626235512	0.7253411105324971	-0.3869977881751846	1.1123388987076817	92.94885327957589
14	5.0	wm	194	diff_vonmises	0.0140108486095821	0.8027624927257953	0.7074293472203171	59.56849637703884	0.6684950486042769	60.26859181957354	0.2467727688626766	-0.2720980127934975	0.5188707816561742	106.2784613483239
15	6.0	ltm	194	diff_vonmises	-0.0726480990720142	-4.162429466474689	0.6005542929814601	3.0105431342582136	0.1818325837795434	3.4883894811048464	0.1393449281135108	-0.2184621996008292	0.3578071277143401	135.66424282789865
16	6.0	perception	194	diff_vonmises	-0.052457227443425	-3.005577737466095	0.9574865655826472	2.9324559673385493	0.1409569924072776	3.408310239761004	0.3569540707278222	-0.3246333029899783	0.6815873737178005	122.88224164540246
17	6.0	wm	194	diff_vonmises	-0.0292287290968072	-1.6746828177782798	0.5047647859963036	154.7422678362287	0.4935659524926265	155.20811149886742	0.2094596029072022	-0.2382088449912771	0.4476684478984793	124.3576499156618
18	7.0	ltm	194	diff_vonmises	0.0126954872907295	0.72739784062078	0.8486737866262933	72.8688283142699	0.8101614187015738	74.1085336324826	0.1568877820009184	-0.3345752273119426	0.4914630093128611	92.8384357554394
19	7.0	perception	194	diff_vonmises	0.0390292739206811	2.236212673115042	0.8048818614782155	253.87682393318337	0.7876538169604581	254.98025409883317	0.5028062848241888	-0.4537743558304115	0.9565806406546002	99.54947440049293
20	7.0	wm	194	diff_vonmises	0.051487062187827	2.949991362890095	0.7497778488674951	85.49090675394693	0.72258525566743	86.69269193816434	0.0964961636143044	-0.3072484149427357	0.4037445785570401	97.36667409247784
0	1.0	ltm	73	diff_vonmises	-0.0745588404820756	-4.271906885012083	4.130878197039751	0.3327952976097663	1.8564060202203927e-16	1.6576538736397195	-0.0034360643235858	-0.2637565682310674	0.2603205039074815	67.33978450011642
1	1.0	perception	73	diff_vonmises	-0.0680576122811769	-3.899413947449159	15.904190476504546	0.6101775568507437	6.101590706995879e-25	2.158026835225681	0.619443238526191	-0.3434606381511115	0.9629038766773026	33.95857748865541
2	1.0	wm	73	diff_vonmises	-0.0059807696355633	-0.3426728583577766	5.544340704984306	0.363032971087964	1.084886676232947e-15	1.8345284896410885	0.0405425188076029	-0.2919691940596094	0.3325117128672124	57.92153066814947
3	2.0	ltm	73	diff_vonmises	-0.0758570446533104	-4.346288504970118	2.7502114673030804	0.9780332656225924	0.4855265720650497	1.7850332450812854	0.1737384692197155	-0.2301503715901698	0.4038888408098853	69.95075854399747
4	2.0	perception	73	diff_vonmises	-0.0371046331771328	-2.1259388814308053	7.186966190542915	1.0939141969905268	0.2328233573510362	1.977348612144536	0.7562190278806997	-0.3260958090002297	1.0823148368809294	49.15305384983819
5	2.0	wm	73	diff_vonmises	0.0070901466687262	0.4062354802467539	4.423476312684557	0.5431366315186789	0.2419950514790495	1.432817018990767	0.1547155042177723	-0.22307110512595	0.3777866093437223	60.20056612154582
6	3.0	ltm	73	diff_vonmises	-0.0099833911321387	-0.5720061770998854	1.415833873663065	175.5524344881854	1.4002159352733827	176.16402670915076	0.2344254348507064	-0.2242324858082085	0.458657920658915	73.52509750266631
7	3.0	perception	73	diff_vonmises	-0.0440348646931076	-2.523011898344708	4.303282165514947	1.9954844188249852	0.3598590452435796	2.675494801203682	1.005213491539958	-0.3943650893682845	1.3995785809082426	61.78786541219563
8	3.0	wm	73	diff_vonmises	-0.0571719770470112	-3.275712991212559	1.3728146020561018	155.10023671858642	1.3548096602402115	155.89043334346013	0.1799147772566414	-0.2492914642592723	0.4292062415159137	73.11742039726289
9	4.0	ltm	73	diff_vonmises	-0.1740307034765337	-9.971224814898088	1.3107033886978592	157.4845876682462	1.2923107809289869	158.3716713428916	0.1750343283691435	-0.2681045311893975	0.443138859558541	74.50809728991041
10	4.0	perception	73	diff_vonmises	-0.1160907271077307	-6.651508703877948	2.390631141273572	2.4895584365536365	0.2536666313259996	3.525012556871701	0.7174788472158691	-0.448613508991951	1.16609235620782	81.19452951768653
11	4.0	wm	73	diff_vonmises	-0.1805822998898053	-10.346603638451594	1.2580376502107178	265.71573601228494	1.245999050795756	266.8325460166019	0.1532408877677369	-0.3138599213712254	0.4671008091389623	74.9676514976388
12	5.0	ltm	73	diff_vonmises	0.0366579787338257	2.100347466928539	1.2151221341647875	2.6440249703717207	0.4174109810789487	3.0766017127134253	0.2978635347234499	-0.2225528449840109	0.5204163797074609	100.90417498389772
13	5.0	perception	73	diff_vonmises	-0.046613739674481	-2.6707705506692827	2.20263829009807	2.075920752474181	0.1683513244093389	2.5063948821424766	0.6661898081207274	-0.3252221466742453	0.9914119547949728	87.23393826499651
14	5.0	wm	73	diff_vonmises	-0.016169270595642	-0.9264309629352696	0.7962592630999139	141.68126778391692	0.7818104655719899	142.15466578549697	0.2488448291542724	-0.209861365992479	0.4587061951467515	100.49912348714022
15	6.0	ltm	73	diff_vonmises	-0.156943669352872	-8.992209875216254	0.4169108703916452	107.8201800700704	0.4036502686739245	108.19322106287468	0.1774965482668804	-0.211999728114332	0.3894962763812124	133.37888439120752
16	6.0	perception	73	diff_vonmises	-0.0402245159822082	-2.30469499873706	0.820792082902608	7.058260596540214	0.4722172881130451	7.586921739207708	0.3385368616418942	-0.2922186491138023	0.6307555107556966	112.16331102749686
17	6.0	wm	73	diff_vonmises	-0.1615027839395805	-9.25342789935118	0.5824516151126116	101.50613340303806	0.5660386087993637	101.86252439255264	0.222121018098985	-0.2054978061115786	0.4276188242105636	117.99453634011232
18	7.0	ltm	73	diff_vonmises	0.0173777682655058	0.9956727789698602	0.964927688082034	162.41930644311137	0.9476643058635222	163.12678653777522	0.2975123415500675	-0.2660348906293972	0.5635472321794648	90.38433573026724
19	7.0	perception	73	diff_vonmises	-0.0737182008866694	-4.223741784103724	2.1416571397581805	1.8190685230336556	0.0441820568976272	2.5216892659311423	0.5586487434428979	-0.3703135648220342	0.9289623082649322	92.10412791343964
20	7.0	wm	73	diff_vonmises	0.1829644580630421	10.483091247910664	2.8150676748105363	0.7351435192144735	0.0401990646264041	1.3482396810456136	0.2409106190196429	-0.2047794345820611	0.4456900536017041	80.27439291157148
0	1.0	ltm	171	diff_vonmises	-0.0374545796445338	-2.1459893370683907	4.868252898171239	0.4142142078578778	2.1739639031531222e-16	2.76522647060568	-0.0860074302985351	-0.4400785387974637	0.3540711084989286	61.89922744914233
1	1.0	perception	171	diff_vonmises	-0.0622070883523558	-3.56420361838741	15.998666283209788	0.6534584707921766	2.209748302338334e-21	3.1849450363335894	0.5269609569972471	-0.5068997460084739	1.033860703005721	33.87196926459282
2	1.0	wm	171	diff_vonmises	-0.0477831592661777	-2.7377733577534187	4.709799928748899	0.4541411782633035	5.060931266490109e-19	3.046787677434299	-0.1035150375017186	-0.484880378079315	0.3813653405775964	62.9597359087349
3	2.0	ltm	171	diff_vonmises	-0.0434409804067498	-2.488984835217269	2.2404934439788677	1.4022837742612315	0.4458766631242071	2.669734902125679	0.1426106356610617	-0.3221569013712989	0.4647675370323606	75.23067988090915
4	2.0	perception	171	diff_vonmises	-0.0472078376371098	-2.704809856545237	6.580012912597583	1.208089656382602	0.2103510105486843	2.49424020247372	0.7262664803426022	-0.406157045058274	1.1324235254008763	51.20412992725193
5	2.0	wm	171	diff_vonmises	-0.034843149101163	-1.996365388441689	3.399508247593908	0.8891937462514636	0.2372929775380541	2.298382091675525	0.1676450713121117	-0.340280794897167	0.5079258662092787	67.3766102276434
6	3.0	ltm	171	diff_vonmises	-0.0484187502558279	-2.774190038956915	2.2288951282210023	1.4549378477402628	0.3112191580627048	2.648926379773068	0.2392659503533171	-0.3315237782845012	0.5707897286378183	79.86871986170866
7	3.0	perception	171	diff_vonmises	-0.042145511261782	-2.414759920721192	3.9653750931793863	2.2982593129255044	0.262327905758656	3.437654931729252	1.0593344947399086	-0.5045461275336565	1.563880622273565	64.80410937502276
8	3.0	wm	171	diff_vonmises	-0.0880346179122002	-5.044012057415872	2.339070185964945	1.6207694811246312	0.4014398365219165	2.9783413082655987	0.2379372810440264	-0.3676850371809773	0.6056223182250038	75.87159153191189
9	4.0	ltm	171	diff_vonmises	-0.1851409748307436	-10.60779647273941	2.6522414853743346	1.0165130447211377	0.0629067992693945	2.655134968486683	0.1705562339657967	-0.3976504803310554	0.5682067142968521	80.8330873867186
10	4.0	perception	171	diff_vonmises	-0.0768335534971472	-4.402238340379165	2.0554043846047074	3.131932777815724	0.1951057328855446	4.770777254455592	0.7283600993452328	-0.6077991474788247	1.3361592468240575	87.7008904925398
11	4.0	wm	171	diff_vonmises	-0.1546133188943605	-8.858690629157165	0.9489723075742852	387.9065896987479	0.9386607380327178	389.8023905597042	0.134157158094581	-0.4703325302729766	0.6044896883675577	85.12162120384392
12	5.0	ltm	171	diff_vonmises	-0.0380507874839331	-2.1801495299785887	1.116659869965535	2.754715542591166	0.2460819684134832	3.3998831207702995	0.3200317726205351	-0.3093765282046745	0.6294083008252097	110.8017371793928
13	5.0	perception	171	diff_vonmises	-0.0175944460870827	-1.0080875036603067	1.392122549347416	4.444383958268309	0.431193141280576	5.00591577588221	0.6691534821381828	-0.3900719006969976	1.0592253828351803	96.79693889418412
14	5.0	wm	171	diff_vonmises	-0.0451427245901545	-2.5864875947372963	0.7178067602239945	186.87241317718863	0.7039662025468183	187.5499457728495	0.2998643608681774	-0.2884402081118011	0.5883045689799786	105.34334725444708
15	6.0	ltm	171	diff_vonmises	-0.0991797670834098	-5.682582066969911	0.6903030316874252	2.047843287382436	5.0292895253788136e-18	2.4777181622461963	0.1845991157106466	-0.2487773148772427	0.4333764305878894	142.46178646044922
16	6.0	perception	171	diff_vonmises	0.01928424558536	1.1049058831349223	1.3265543562624194	1.9763834091888663	0.0183894936725753	2.466668090217736	0.3952246596469118	-0.3293986195193256	0.7246232791662374	115.23764512865807
17	6.0	wm	171	diff_vonmises	-0.0666990771397219	-3.82157561752358	0.4492852023125279	199.0611695011589	0.4396895459278339	199.4890093633284	0.2528439120787666	-0.2677220112066223	0.520565923285389	130.3836176796671
18	7.0	ltm	171	diff_vonmises	-0.0408040718563919	-2.337901104319802	0.8449620149930636	171.2485670120764	0.827579093994902	172.32219961364464	0.2365339454926669	-0.3295983655179437	0.5661323110106107	94.42008644098868
19	7.0	perception	171	diff_vonmises	0.0651256766621797	3.731426410676543	0.7167633343160228	153.30804139163533	0.691377371767271	154.3438206684266	0.4488704876659923	-0.4384120857995075	0.8872825734654999	105.7841112635839
20	7.0	wm	171	diff_vonmises	0.0610879031262062	3.500079028435648	0.7824968372278739	112.85722224078944	0.7609339940153469	113.92855652695272	0.1473545217765206	-0.2974160203694964	0.4447705421460171	96.6994645543555
0	1.0	ltm	292	diff_vonmises	-0.0313369319968105	-1.7954739463057094	7.484391005591642	0.4073337474118246	0.0598610773142469	4.068740878319714	-0.250283350120854	-0.6577791712340316	0.4074958211131775	47.88313693406448
1	1.0	perception	292	diff_vonmises	-0.0089902627928599	-0.5151041147443729	13.188986868465566	0.8324322221183817	0.091737353048037	4.46764792078859	0.4159161304090003	-0.743645343560618	1.1595614739696185	36.72266118108405
2	1.0	wm	292	diff_vonmises	-0.0181139687717114	-1.037853960850835	4.83100717126639	0.523472050358212	0.0827055775015517	4.537277510472446	-0.3373894056126176	-0.7240799413234422	0.3866905357108246	57.77795424983444
3	2.0	ltm	292	diff_vonmises	-0.1022185208092001	-5.856689830437348	3.1090209957240327	0.7090513380207906	0.108017795267905	2.351799898602419	0.0581295060776145	-0.3539502025013079	0.4120797085789224	72.5935527435451
4	2.0	perception	292	diff_vonmises	-0.0523427501274654	-2.999018670411624	7.900067656174547	1.165724794461006	0.2354382242083428	2.9036149100569024	0.7083325605302285	-0.4901351704897803	1.198467731020009	46.593643801193565
5	2.0	wm	292	diff_vonmises	-0.0241464009477084	-1.383486864734388	3.387549266295925	0.9605384407941177	0.2214857881351329	2.862454668544271	0.1121006863649589	-0.4282284689508838	0.5403291553158427	67.09760809520964
6	3.0	ltm	292	diff_vonmises	-0.0572155932653414	-3.278212016441202	2.311869032271766	1.0857350106700303	0.3119383320923587	2.0622454635155143	0.1733061338194192	-0.2629681132588785	0.4362742470782977	78.39466340591696
7	3.0	perception	292	diff_vonmises	-0.026528292458782	-1.5199591955769387	3.837275431707227	2.1830225620812445	0.386510575258522	3.0726680756369085	0.9468705748502276	-0.4379930188725312	1.3848635937227587	64.48670545895402
8	3.0	wm	292	diff_vonmises	-0.0848145095424898	-4.859513438256714	2.6948525249698747	1.1379351851878536	0.351389794213383	2.294121170018883	0.1974995547195195	-0.3067848821004406	0.5042844368199602	72.59128743351087
9	4.0	ltm	292	diff_vonmises	-0.1378413738409587	-7.897728963371925	1.3868037437362857	2.6554551315826607	0.3782443418161525	4.405797791698889	0.1091153704471216	-0.4243551307265851	0.5334705011737068	90.98993777345324
10	4.0	perception	292	diff_vonmises	-0.0804764184137977	-4.610959125439514	2.177382552052218	3.3277844469963367	0.3758596151480858	4.853602772500258	0.7205597155147518	-0.560188418870658	1.28074813438541	80.95958190051917
11	4.0	wm	292	diff_vonmises	-0.1647225507874675	-9.437906950751245	0.8554225484357946	296.2401690913656	0.8440617832706654	298.1188405648112	0.0559181155322363	-0.4375738053239146	0.493491920856151	88.28282549052275
12	5.0	ltm	292	diff_vonmises	-0.0298190410122335	-1.7085051991284952	0.6259300160843111	84.2199470206918	0.5912122976537675	85.57717094754867	0.1956765407180185	-0.4092436928260436	0.6049202335440622	109.66888743063794
13	5.0	perception	292	diff_vonmises	-0.0170131945685996	-0.974784244815657	2.204461518986603	2.549311290084502	0.1390706764381447	3.803017318524638	0.7022227573770847	-0.5136437222496757	1.2158664796267604	87.06435336691891
14	5.0	wm	292	diff_vonmises	-0.0838121956148004	-4.802085080452931	0.6679154257305877	293.35028753392754	0.6575369104108516	294.7000363119069	0.2059685177257648	-0.4000128346345839	0.6059813523603488	105.08862656993529
15	6.0	ltm	292	diff_vonmises	-0.0585916066787949	-3.3570517775854785	0.9644791990303496	1.728806446856591	2.5341112051190184e-13	2.7500613147047943	0.1414207017875419	-0.353538828573072	0.4949595303606139	130.0559741424305
16	6.0	perception	292	diff_vonmises	-0.0127861405063592	-0.7325918872756509	0.7688859610170105	3.33693304644712	5.004488343608553e-16	4.378564775389695	0.2965353705529504	-0.483424229609707	0.7799596001626574	138.82567862806832
17	6.0	wm	292	diff_vonmises	-0.1991851523525476	-11.41246857147128	0.4688229276773756	179.66522187644918	0.4552467898648055	180.672238285548	0.2129146945893154	-0.3808271529383269	0.5937418475276424	126.04128199931672
18	7.0	ltm	292	diff_vonmises	0.1031513867894711	5.910139113958209	0.6417149048813033	174.04135954727712	0.6284133448457996	175.08630310417016	0.1563942661577257	-0.312890886830516	0.4692851529882418	107.38169589419331
19	7.0	perception	292	diff_vonmises	0.0010369337539239	0.0594119277344999	0.8283888002646669	235.54327180651077	0.8135898708683484	236.35898543948625	0.4157404902669555	-0.3503433555831279	0.7660838458500834	98.3960767118381
20	7.0	wm	292	diff_vonmises	0.1432027046597724	8.204910591863365	0.8897896493755247	148.54963333891675	0.8723729422694416	149.55292622581123	0.1746640842708373	-0.2872494892931332	0.4619135735639705	91.03539784735275
0	1.0	ltm	459	diff_vonmises	-0.0232292177772702	-1.330936140027846	7.064318450432241	0.3359392952568606	0.0317488988008302	3.869800771646411	-0.2862080173089659	-0.6191658733707623	0.3329578560617964	49.83875571247256
1	1.0	perception	459	diff_vonmises	0.001559565029382	0.0893564940597895	12.717652689893894	0.8034593320873797	0.0846639672226507	4.3028268741867794	0.3874194212788397	-0.712615294176092	1.1000347154549317	37.40864496197122
2	1.0	wm	459	diff_vonmises	0.0164412198570086	0.9420125078532788	4.626696473426933	0.4738567852623164	0.0591734090479295	4.278043093495128	-0.3275555794987659	-0.6786874752813672	0.3511318957826012	59.79533875981534
3	2.0	ltm	459	diff_vonmises	-0.0813131314096303	-4.658899248764469	3.404762835960874	0.596429867978823	0.061785218486556	2.302149258900022	0.0301451350745823	-0.3545181450004894	0.3846632800750718	71.01651238756003
4	2.0	perception	459	diff_vonmises	-0.0400857060544127	-2.296741775719861	7.799462827501077	1.1833951653891326	0.2188162390372719	2.973715513321284	0.7137595588480906	-0.4986196427020328	1.2123792015501234	46.97433409903661
5	2.0	wm	459	diff_vonmises	0.0064678162012845	0.3705785709999388	3.663454530877628	0.8297830055496276	0.1807397153351369	2.774831773456885	0.0830614708660476	-0.4235509313566445	0.5066124022226921	65.47702510143739
6	3.0	ltm	459	diff_vonmises	-0.0362477979887097	-2.076845841395862	2.495464562354087	0.9203989779143624	0.2750653396650325	1.9179896666738567	0.1474565971739897	-0.2567421732350371	0.4041987704090268	76.49357969662296
7	3.0	perception	459	diff_vonmises	-0.0190681296105519	-1.092523349893058	3.874210459083725	2.102451870950111	0.3275245625337017	3.0446603751887293	0.9337851450959822	-0.4395817386932514	1.3733668837892337	64.79087353720593
8	3.0	wm	459	diff_vonmises	-0.0730399565902358	-4.184881248439258	2.7967632155270588	0.9973770654001618	0.3005612632871132	2.1800789910972957	0.1692595267751325	-0.3010328891846364	0.4702924159597689	72.2284207589955
9	4.0	ltm	459	diff_vonmises	-0.100041868950496	-5.731976865464295	1.3371320300422969	2.5820012610397107	0.3989122530318796	4.4574416755212845	0.0272671923789837	-0.4216333646164483	0.4489005569954321	89.54144520267934
10	4.0	perception	459	diff_vonmises	-0.08451874771311	-4.842567533692182	1.9867057191855584	3.8469802033967455	0.4455845316197811	5.481611551186735	0.6795770271675239	-0.5781542430951404	1.2577312702626644	82.06806073896419
11	4.0	wm	459	diff_vonmises	-0.1352957109815105	-7.751873225462341	0.8322442972885375	307.606227314047	0.8218502660644129	309.61849232382724	-0.009016702065395	-0.4439407723962247	0.4349240703308297	87.70089780235804
12	5.0	ltm	459	diff_vonmises	-0.0215067752448329	-1.2322474524653682	0.8645802918924472	5.229095146187797	0.3878206934851149	6.776544353465354	0.1208772609427331	-0.4135306339289859	0.534407894871719	107.4590924506056
13	5.0	perception	459	diff_vonmises	-0.0237736637500711	-1.3621305964422363	2.164407214807838	2.6564399279284525	0.1685743374232341	4.105030965213191	0.669285936298879	-0.541286003120207	1.210571939419086	86.59109631590113
14	5.0	wm	459	diff_vonmises	-0.060091856538825	-3.443009762780294	0.6251160026094715	272.3569846185341	0.6143610244212309	273.9408723016234	0.1304715270592709	-0.4239719271987745	0.5544434542580454	106.70420405917775
15	6.0	ltm	459	diff_vonmises	-0.0642573363776229	-3.6816741771902457	1.0683072616201654	1.460370180482786	1.9198770334101348e-11	2.820092841963513	0.0689937025802124	-0.3876984229942411	0.4566921255744536	125.76469101393845
16	6.0	perception	459	diff_vonmises	-0.0409734188029291	-2.347603969629808	0.7853259505191922	3.315114478691043	1.1879345917665945e-17	4.647983143186951	0.2575622743361599	-0.5323928068619016	0.7899550811980616	138.04265595211876
17	6.0	wm	459	diff_vonmises	-0.1803814566357408	-10.335096167650027	0.479037838215042	208.6871609917029	0.467003339971192	210.06274951518907	0.1363721160974123	-0.4199918347116167	0.556363950809029	122.79028353496884
18	7.0	ltm	459	diff_vonmises	0.1200950715085379	6.880940737761048	0.6339549341194678	181.42314891213744	0.6205862265471622	182.80706819493236	0.0872730568973167	-0.3557465207878003	0.4430195776851171	105.25783642470049
19	7.0	perception	459	diff_vonmises	0.0009159880391557	0.0524822487280867	0.8263638145477136	241.49495875038872	0.809694544833388	242.6421573036993	0.4181661723683874	-0.4228255677260151	0.8409917400944025	97.39479958779458
20	7.0	wm	459	diff_vonmises	0.1396210807274858	7.999698656740295	0.8749263645627913	134.5319899885783	0.8539597602839752	135.8844794031535	0.1133891473157717	-0.3416402679137977	0.4550294152295695	89.59391495880013
0	1.0	ltm	148	diff_vonmises	-0.0284399096317736	-1.6294867916340867	7.123751685081346	0.3332098858104374	0.0167533069106687	3.8922295081706375	-0.2818252878666443	-0.6203718649770865	0.3385465771104422	50.17289133662314
1	1.0	perception	148	diff_vonmises	-0.011877633516788	-0.6805382711150868	13.845220675495408	0.7869978861019453	0.0667363107771604	4.333458064524704	0.4206171915924073	-0.7126601291144367	1.1332773207068438	35.98939662001408
2	1.0	wm	148	diff_vonmises	-0.0197021989256694	-1.1288528455680429	4.885793980484723	0.4310018178152648	0.0376903016850362	4.308257546783916	-0.3426114057069573	-0.6835400632256182	0.3409286575186608	59.18282079061328
3	2.0	ltm	148	diff_vonmises	-0.0765649378532114	-4.386847797670452	3.3886489524900623	0.5905651582507709	0.0314957114785183	2.3500855506627865	0.0283922362171678	-0.3656520536081609	0.3940442898253287	72.52922672136816
4	2.0	perception	148	diff_vonmises	-0.0473318222638518	-2.7119136523820577	7.822071357230861	1.1998686275558053	0.2132723840946254	3.047260874112513	0.7223281464350098	-0.5103578211916379	1.2326859676266475	46.93444344295216
5	2.0	wm	148	diff_vonmises	-0.0239308693234079	-1.3711378123103648	3.379644039433705	0.9131508296293488	0.1834920172123154	2.95543401050067	0.0792647222734246	-0.4449389861896767	0.5242037084631014	67.76543730322254
6	3.0	ltm	148	diff_vonmises	-0.041268965799903	-2.3645375652041825	2.6096305540685245	0.9106018956970215	0.1918556282799463	2.027083602386186	0.1630215896268166	-0.283658737117714	0.4466803267445307	77.22928918546529
7	3.0	perception	148	diff_vonmises	-0.0245748125957545	-1.408033044061671	3.7785691688989416	2.3195975023875084	0.3431353583637343	3.341444437337555	1.0005649840288584	-0.4776979980138962	1.4782629820427546	65.33492684916723
8	3.0	wm	148	diff_vonmises	-0.0952187108499844	-5.455630262380646	2.974090031110104	1.0134834206333652	0.2388267998453254	2.3419634187427114	0.1938474797791093	-0.3340267667472911	0.5278742465264004	71.72562440913782
9	4.0	ltm	148	diff_vonmises	-0.114637171064387	-6.568226077308623	1.759976830029612	1.467775666476865	0.1853839009926449	3.4655039892042856	0.0424084630296015	-0.4484977764649813	0.4909062394945828	89.49320261938513
10	4.0	perception	148	diff_vonmises	-0.075317960885921	-4.315401280294691	1.9999533842063644	3.849122196995154	0.4081176893550424	5.604464905630902	0.6982706922038451	-0.6100415648858711	1.308312257089716	82.62167653025247
11	4.0	wm	148	diff_vonmises	-0.1461856790518065	-8.375822434922526	0.7948536631143152	318.88734804772747	0.7843133534291695	321.0564549388562	-0.0102661515324626	-0.4777852479579394	0.4675190964254767	89.85342503496344
12	5.0	ltm	148	diff_vonmises	-0.0277814697744921	-1.591760966748661	1.020994190995938	3.3065755425047016	0.2917615484039418	4.747788887895221	0.1525488317642361	-0.4046941606200921	0.5572429923843283	107.50890083636142
13	5.0	perception	148	diff_vonmises	-0.0117359602643489	-0.6724209916804331	2.067829985793984	2.731766766813469	0.1626877323972463	4.077115540921461	0.6793817813342328	-0.5325508382596845	1.2119326195939173	88.7214873086233
14	5.0	wm	148	diff_vonmises	-0.0800114785898627	-4.584320035800483	0.6163079187945035	278.53354490119887	0.605781153371131	280.05590442816856	0.1495701391857551	-0.4217989313362587	0.5713690705220138	108.06946609407149
15	6.0	ltm	148	diff_vonmises	-0.0860106973710995	-4.928049952340972	0.9111195430711798	1.6470913485270653	6.246644862988336e-14	2.8520177163003706	0.081128139807244	-0.3674160865154702	0.4485442263227143	132.31618878961405
16	6.0	perception	148	diff_vonmises	-0.0109220449898175	-0.6257870815685502	0.7872132645278359	3.2589663667244126	1.5455376304452287e-14	4.46178464676504	0.2714775175487441	-0.5067946114093651	0.7782721289581093	137.97168072662387
17	6.0	wm	148	diff_vonmises	-0.1540721566488591	-8.827684316458111	0.4194875454675129	240.0186522665311	0.4097510142892816	241.2855645348709	0.1386729977205831	-0.4116666369439201	0.5503396346645033	129.79117997496664
18	7.0	ltm	148	diff_vonmises	0.0966809486431188	5.539410316571772	0.683001985477004	182.51218465637035	0.6697983367389567	183.80114943664657	0.0993842137145861	-0.3335465430267703	0.4329307567413565	101.69371063256573
19	7.0	perception	148	diff_vonmises	0.0413220163519413	2.367577137936814	0.7581315351389847	237.45055246782871	0.7427763854845774	238.54003407435303	0.3771098363016136	-0.4050311640161794	0.7821410003177931	101.59340675186309
20	7.0	wm	148	diff_vonmises	0.103188350871806	5.912256999869576	0.8496221289719224	190.76071148605817	0.8357578518979427	192.08096521897085	0.0948559442631165	-0.3279682048301531	0.4228241490932696	90.38883444751067
0	1.0	ltm	269	diff_vonmises	0.0174935678809704	1.0023076082052194	6.0053992792367605	0.3713422580395896	0.042250234220494	3.5099361738749684	-0.2276782477319695	-0.5603749692534525	0.332696721521483	53.67785540178724
1	1.0	perception	269	diff_vonmises	-0.0059612695293018	-0.3415555845689323	12.711666244729631	0.6658738567283722	0.0504795428210422	3.8248075915658712	0.2973935392327722	-0.6224625422635025	0.9198560814962748	37.6158121183947
2	1.0	wm	269	diff_vonmises	0.0219415566942111	1.25715859452532	3.430547624302698	0.6658357218479869	0.1217177667343179	4.042216219059883	-0.2535933691925111	-0.6274122333610391	0.373818864168528	66.27336237068076
3	2.0	ltm	269	diff_vonmises	-0.0389486195342024	-2.231591517170596	2.5879752794843958	1.0281199916322024	0.3091419803540765	2.595161486539568	0.0688758676952534	-0.3568907874517659	0.4257666551470193	72.78046465722738
4	2.0	perception	269	diff_vonmises	-0.0247552179675322	-1.4183695104660234	6.8494795087164215	1.1878891057676846	0.2315137840928313	2.8466062122292626	0.6521659743959253	-0.4707684622348131	1.1229344366307386	49.86961917642691
5	2.0	wm	269	diff_vonmises	0.034805288327217	1.994196125885488	3.821234675109852	0.8000624544966514	0.2071796049336182	2.566382553329221	0.1027953199785948	-0.393563513276166	0.4963588332547609	63.880151111714895
6	3.0	ltm	269	diff_vonmises	-0.0180642359215278	-1.0350044784321633	2.3239032337814907	1.376603719317368	0.4086683285856232	2.7213511411074496	0.151676253172685	-0.3395872913104831	0.4912635444831682	74.98943153589346
7	3.0	perception	269	diff_vonmises	-0.020848828144282	-1.1945498604609288	4.284875980458379	1.950873317757124	0.2224094470607751	3.2661193665778523	0.9157231362402752	-0.4926185970625082	1.4083417333027834	62.73935451463586
8	3.0	wm	269	diff_vonmises	-0.0054079772047796	-0.3098542695368322	2.697227109433837	1.0930663923259312	0.2816684100470385	2.669284578655837	0.1213541346518488	-0.3711845315310043	0.4925386661828531	72.85594056401015
9	4.0	ltm	269	diff_vonmises	-0.097390451543119	-5.580061838294077	1.5214017141833454	1.877473403200581	0.2792375049153419	3.948806977650655	0.0052664685383799	-0.4538600467469824	0.4591265152853623	89.63245691159705
10	4.0	perception	269	diff_vonmises	-0.0747454124198324	-4.282596669621127	1.924028487096873	3.4160571805923152	0.3079752841064473	5.297570368436884	0.6009240468728108	-0.6116143215181906	1.2125383683910014	86.04801184573418
11	4.0	wm	269	diff_vonmises	-0.1081097531889657	-6.194232581928728	0.8395165274427401	322.46727872336453	0.828238412624644	324.7376274436872	-0.0073960933466565	-0.5020346856383426	0.494638592291686	87.39619309689877
12	5.0	ltm	269	diff_vonmises	-0.0241222584633129	-1.38210360227156	1.3150548441741776	2.2238829501976896	0.1961853201947814	3.530419615955904	0.2128286461243236	-0.3933864373903999	0.6062150835147235	103.80324399463444
13	5.0	perception	269	diff_vonmises	-0.0445280650687066	-2.5512701983207977	1.6848124465434533	3.6218553047934208	0.3365938034521636	4.865623343275669	0.629328408903207	-0.5020531752525901	1.131381584155797	91.03412208787915
14	5.0	wm	269	diff_vonmises	-0.0166828804692004	-0.9558586410064188	0.6841113769077202	238.5868677911051	0.6713853413427693	239.91443261175812	0.207548974098259	-0.3928791213846168	0.6004280954828758	103.9554119383681
15	6.0	ltm	269	diff_vonmises	-0.066129670459611	-3.788951017926667	1.0583276283453964	1.6793516364012353	3.226044102300525e-18	2.747243671374852	0.1550902026854194	-0.3659001349671056	0.5209903376525251	126.16300462443728
16	6.0	perception	269	diff_vonmises	-0.0456647821917865	-2.6163992919735284	1.2348962455533403	2.2188278957148797	0.0167415557399155	3.329874396604614	0.3166061280230303	-0.4487512646131997	0.76535739263623	118.36496535968767
17	6.0	wm	269	diff_vonmises	-0.0921835758694409	-5.281729837742985	0.5286761745584693	223.4831173715977	0.5175507823578809	224.53984110504132	0.2020878867660016	-0.3685868897064637	0.5706747764724653	119.37378438760447
18	7.0	ltm	269	diff_vonmises	-0.0495355763455382	-2.838179460347417	0.7172623837197419	259.92083132865065	0.7049411747754775	261.688370379282	0.1060547583271613	-0.4391102867306493	0.5451650450578107	98.37287739515811
19	7.0	perception	269	diff_vonmises	-0.0200812576981906	-1.1505713134209212	0.7900063165665749	283.2146160263013	0.7730339616293913	284.80473489341523	0.4433085386645388	-0.5359422212439107	0.9792507599084496	98.68963339339726
20	7.0	wm	269	diff_vonmises	0.1351844635032513	7.745499214476614	1.3096451416960213	3.4583570285094463	0.5111186103664151	5.1368297507861485	0.102486246724387	-0.4061737371101023	0.5086599838344893	88.11847104226348
0	1.0	ltm	436	diff_vonmises	-0.014369684937015	-0.8233222998236748	6.245024880988517	0.3234161265485766	0.0192185915558424	2.6994018059344245	-0.122510691133057	-0.4292809547296297	0.3067702635965727	53.64031087317747
1	1.0	perception	436	diff_vonmises	-0.0272249410727884	-1.5598742209631455	13.48304121004342	0.7108847230343515	0.0415300484775932	3.260179669304714	0.490317197041221	-0.5283780217685018	1.018695218809723	36.65695567803618
2	1.0	wm	436	diff_vonmises	-0.0134288192603332	-0.7694146674610897	5.240090346788607	0.3959465836765821	0.0084730450168909	2.994832175358681	-0.1286897785222571	-0.4751822432825403	0.3464924647602831	59.0595282191436
3	2.0	ltm	436	diff_vonmises	-0.0057143202498179	-0.3274064331007085	2.6550621406896315	0.9816798764267698	0.3985822493249894	2.0955460520932365	0.1215783730828642	-0.2790136384916761	0.4005920115745404	71.2463618173775
4	2.0	perception	436	diff_vonmises	-0.025735418192533	-1.4745308464363411	6.893381455213593	1.2750089618776297	0.3439515869563926	2.3941848015113	0.7871910141480641	-0.4036632017641698	1.190854215912234	49.36592493148712
5	2.0	wm	436	diff_vonmises	0.0115613953507866	0.6624191588822462	3.742705207208176	0.7494123960137906	0.2417984093570337	2.025487654235863	0.150920782997045	-0.3064426793642207	0.4573634623612658	64.46853055167583
6	3.0	ltm	436	diff_vonmises	0.0219096747006244	1.255331890850334	2.708660847969865	0.947036833891154	0.3948242128375979	1.771956643750518	0.1821728630814796	-0.2323737643607605	0.4145466274422402	72.07786258460965
7	3.0	perception	436	diff_vonmises	-0.0168002204050252	-0.9625817240975112	4.615890590476609	1.8802864375321255	0.3128371945522232	2.6508093256836385	0.9992124382171766	-0.4006953936588339	1.3999078318760103	60.15970396051986
8	3.0	wm	436	diff_vonmises	-0.0376050495115159	-2.1546106253903625	3.15067148278726	0.885322433117583	0.3144000826696764	1.911860031190029	0.1896151228275552	-0.2717158501895009	0.4613309730170561	68.77062246340284
9	4.0	ltm	436	diff_vonmises	-0.1687848390739887	-9.670658924734342	1.9332424775311068	1.445307674549109	0.3358689761882677	2.895604923601493	0.103435156177293	-0.3472231005938627	0.4506582567711557	81.77217547755887
10	4.0	perception	436	diff_vonmises	-0.0589404841602315	-3.377040984838945	2.480733443467509	2.3778855418635203	0.150725807343197	3.8290423808499887	0.6904605209155262	-0.52820673188262	1.2186672527981464	81.90969836801847
11	4.0	wm	436	diff_vonmises	-0.1194356808657568	-6.843160436879268	1.000724476855842	357.194178384345	0.9906405589234668	358.88673821393303	0.1062688973418062	-0.4172776143035577	0.5235465116453639	82.48935015885496
12	5.0	ltm	436	diff_vonmises	-0.0234499087319984	-1.3435808003104843	1.5682294316643552	1.4531243811496304	0.0818885316086964	2.109902405586399	0.2827804299556097	-0.2807926391935574	0.5635730691491672	104.09831199465442
13	5.0	perception	436	diff_vonmises	-0.0267034064245382	-1.5299924867485697	1.8318868116962508	2.8594420696498104	0.2748496772075554	3.4011937390871463	0.6992966481786292	-0.3762636734484474	1.0755603216270766	91.37577202940466
14	5.0	wm	436	diff_vonmises	0.0131218584404274	0.7518271080046104	1.1289128604080436	3.006505221515463	0.3561160405924919	3.657231598101653	0.2948656493903221	-0.2805657937653284	0.5754314431556505	104.90810985498284
15	6.0	ltm	436	diff_vonmises	-0.0824991220532286	-4.726851507184654	0.444908832659364	74.17428786947438	0.4220811655000069	74.54654884914385	0.2263212014426585	-0.2392585627976569	0.4655797642403154	131.53256030127358
16	6.0	perception	436	diff_vonmises	-0.007443024646734	-0.4264538990697132	1.356477601362997	1.993072172408637	2.072084318138681e-18	2.431454254455255	0.4255276926606939	-0.333071907945997	0.7585996006066911	115.13102383621168
17	6.0	wm	436	diff_vonmises	-0.0628265070448759	-3.599693695220325	0.4842525557063111	151.1124008656343	0.4706006026503497	151.4451377387399	0.3038791407107482	-0.268583930418421	0.5724630711291692	127.86001359161442
18	7.0	ltm	436	diff_vonmises	0.0174335318423208	0.9988677965719136	0.8367095530803296	195.7696878988649	0.8229152099099551	196.7926994645612	0.2004305750697881	-0.304430768853944	0.5048613439237322	94.36011001340783
19	7.0	perception	436	diff_vonmises	0.0010234061637032	0.0586368539078716	0.7917550917463946	96.21753726656438	0.7522936574119424	97.12832067893162	0.4567707077439067	-0.3977641973319246	0.8545349050758313	101.4574369052122
20	7.0	wm	436	diff_vonmises	0.1395129358324994	7.99350241068169	0.7874406575245546	96.8339031468534	0.7636685710601464	97.80962276519574	0.1500828713696869	-0.277277857748329	0.4273607291180159	96.84209317174518
0	1.0	ltm	246	diff_vonmises	-0.100507262451245	-5.758641948870034	3.4253909994315848	0.2839085931734206	1.8292435856234458e-17	1.9200702160659724	-0.1052094110401243	-0.3053765260817161	0.2001671150415917	74.132781026304
1	1.0	perception	246	diff_vonmises	-0.0262031397649552	-1.5013293185233538	13.848795810384468	0.6990876637795826	0.0414146122381237	2.549089953313389	0.6049796303041777	-0.4130180743064987	1.0179977046106763	36.22354575413669
2	1.0	wm	246	diff_vonmises	0.0794405290714078	4.551607038077989	3.195157252124991	0.4231965317095085	2.018706228361957e-19	2.165725624478655	-0.0574530191679416	-0.3442039453608465	0.2867509261929049	76.8246093585112
3	2.0	ltm	246	diff_vonmises	0.0645153362873295	3.69645648313119	5.213073915856298	0.3293420249992663	0.0155717011159766	1.1401734288043333	0.1076751927701708	-0.1803287497628962	0.288003942533067	59.28710126692016
4	2.0	perception	246	diff_vonmises	-0.0100960046701809	-0.5784584575457374	7.215412734570853	1.3000156629648505	0.4563340582676617	1.9797922283468457	0.8945880113909593	-0.3418330548654104	1.2364210662563695	48.12579859610764
5	2.0	wm	246	diff_vonmises	0.0548296931522462	3.141510009621062	4.369454984208157	0.5378269605465688	0.245665555761507	1.440362382356697	0.1451208657719291	-0.2240349383186042	0.3691558040905334	60.39458748929033
6	3.0	ltm	246	diff_vonmises	0.0484462437782327	2.775765301754661	2.766606208893705	0.7550638320642528	0.6641435709172168	1.1943299365428564	0.1403636304764918	-0.1436687683575649	0.2840323988340568	67.90787919054347
7	3.0	perception	246	diff_vonmises	-0.0086122780238816	-0.4934471827616871	4.588814192373993	1.7563246645022677	0.3809370015904639	2.0867674555741416	0.9854253931601704	-0.3098130965246582	1.2952384896848286	60.21442593033163
8	3.0	wm	246	diff_vonmises	-0.0536151543333429	-3.0719220612430984	3.2626100900704977	0.7169005499153207	0.4851409865703374	1.31571372459442	0.1713948459184663	-0.1817774461483599	0.3531722920668262	65.80350668799514
9	4.0	ltm	246	diff_vonmises	-0.1291700040110235	-7.400896069519563	1.2286646553203056	121.28565475955357	1.2093648796113428	122.25200146555254	0.0630818896171447	-0.2491274227006208	0.3122093123177656	74.2359943551242
10	4.0	perception	246	diff_vonmises	-0.080307907197095	-4.601304143921836	2.602673304078153	2.394377981209867	0.2830793593698824	3.287531333654448	0.7639979773764881	-0.4221749373050928	1.186172914681581	77.89929335925223
11	4.0	wm	246	diff_vonmises	-0.0860373208286487	-4.929575364094583	1.1854305284271651	246.8619596208056	1.173280346705902	248.06895572298163	0.104079194364985	-0.3157215148554151	0.4198007092204001	76.14028488313471
12	5.0	ltm	246	diff_vonmises	0.0279221781561659	1.5998229631606875	0.7315131107975346	111.79309600406836	0.7144590054430555	112.5913853373924	0.1343308081258456	-0.2359788177417616	0.3703096258676073	100.78834851838104
13	5.0	perception	246	diff_vonmises	-0.0033130869778935	-0.1898259009930509	1.904909050147306	2.635968154465115	0.2967415371894337	3.3415977270499027	0.6202469808497845	-0.373036219273169	0.9932832001229536	88.75250330783481
14	5.0	wm	246	diff_vonmises	0.105778263641734	6.060648070893485	0.5950016996485405	78.9496846551661	0.570076536528818	79.79335514746076	0.1525151888483265	-0.2760801342887351	0.4285953231370616	113.07719573370484
15	6.0	ltm	246	diff_vonmises	-0.1705943966584963	-9.774338937112512	0.4871826857500046	167.75209267542124	0.4762678444920976	168.55842702630562	0.1458266967887524	-0.2851776414218605	0.431004338210613	123.53290414136278
16	6.0	perception	246	diff_vonmises	-0.0224384250232947	-1.285627052755524	0.6725382257294726	306.2031336275776	0.6606069918620573	307.068546368349	0.4553402756968836	-0.4168636245046819	0.8722039002015656	109.43096756450424
17	6.0	wm	246	diff_vonmises	-0.0705489569274346	-4.042157480992239	0.7666689024142088	3.7016367098667	0.1883662750438398	4.55821025830218	0.2323053464247563	-0.3581267913660766	0.590432137790833	127.1367624056252
18	7.0	ltm	246	diff_vonmises	0.1139318670749559	6.52781513544048	0.9014946812883672	196.65303179859905	0.8884690108859815	197.8680408356252	0.0985085306550814	-0.3054521792910059	0.4039607099460873	87.88947506080387
19	7.0	perception	246	diff_vonmises	-0.0086464720238321	-0.4954063546435218	2.250903191783838	1.619896136431548	1.0104704608747465e-15	2.8171288983591727	0.4487376641767021	-0.4384104465120679	0.88714811068877	91.64148073877072
20	7.0	wm	246	diff_vonmises	0.2679068787695464	15.34993345601801	1.914857884548094	0.9996060776981692	0.2121410454569378	2.19218219807233	0.0757231470780105	-0.2825334430191568	0.3582565900971673	86.26968785381808
0	1.0	ltm	367	diff_vonmises	-0.0045867547350572	-0.2628016879804246	5.761514322590164	0.141290133460659	8.496324712514334e-22	2.383436081365621	-0.2472650413733902	-0.3793343263046553	0.1320692849312651	56.79392467726038
1	1.0	perception	367	diff_vonmises	0.0093503201235019	0.5357338801729036	12.361925329019508	0.7763650946715999	0.0999969080591313	3.173319458535307	0.52033155562281	-0.5281408732086266	1.0484724288314364	37.98511822767355
2	1.0	wm	367	diff_vonmises	0.0567334830137651	3.2505891337658865	5.733624584546796	0.2419947331029912	7.518201793303372e-22	2.660636638089239	-0.1978263069449799	-0.4234511107445738	0.2256248037995939	56.934754220395575
3	2.0	ltm	367	diff_vonmises	0.0786498599799068	4.506305036143538	5.37714355503975	0.2972670186595241	1.1396207229570238e-17	1.4974325890430196	0.0295510361233055	-0.2383180760991824	0.267869112222488	58.836803084030606
4	2.0	perception	367	diff_vonmises	-0.0034924841338163	-0.2001046008840807	7.693542773924163	1.4191027278604824	0.4502470724138789	2.6419492200709023	0.9156193661697484	-0.4682031777365761	1.3838225439063243	46.38482048415818
5	2.0	wm	367	diff_vonmises	0.0778976172098682	4.463204700251099	4.259325718956221	0.4846967818192206	0.1329128777553746	1.9613248182018093	0.0306025783870994	-0.3067197804629827	0.3373223588500821	61.90818123449398
6	3.0	ltm	367	diff_vonmises	0.1349739013499028	7.733434891764559	3.153249933160972	0.5398836176874927	0.592680253350349	1.0463254830028934	0.0873250233008117	-0.1430533887652809	0.2303784120660926	64.20600835754112
7	3.0	perception	367	diff_vonmises	0.0085061702868205	0.4873676572543995	5.141695862164869	1.7433326755481653	0.3877285049956032	2.242461766658204	1.0273771615275082	-0.3466519555535278	1.374029117081036	56.94349858286674
8	3.0	wm	367	diff_vonmises	-0.0208119517397627	-1.1924369981183556	4.663299698937055	0.4043120969051876	0.2014323388783846	1.216744741366817	0.1032746504069978	-0.1914999026295138	0.2947745530365118	59.058843792065176
9	4.0	ltm	367	diff_vonmises	-0.0263396048281808	-1.5091481906971675	0.9811241174659744	142.7756043978809	0.9654769606944148	144.30146196632083	-0.0879049512838747	-0.320007464327638	0.2321025130437632	76.91578856564243
10	4.0	perception	367	diff_vonmises	-0.0398469505552644	-2.2830620932831245	2.697904735988915	2.226469474618439	0.2634454123692845	3.763046165691924	0.6057725609379468	-0.5045777070896417	1.1103502680275883	75.93117759688235
11	4.0	wm	367	diff_vonmises	-0.0327314342175371	-1.875373038074965	0.9853421512354056	236.3555034282363	0.9733495264510548	238.18378528696303	-0.0783827979395255	-0.3910731048074183	0.3126903068678928	77.83578314090155
12	5.0	ltm	367	diff_vonmises	0.037784022455332	2.1648650197180546	2.3002062532751686	0.7537037161989134	0.1201310396130739	1.7387994077903557	0.1119150517215735	-0.2462485911499797	0.3581636428715533	83.96177592358791
13	5.0	perception	367	diff_vonmises	-0.0260398448867009	-1.4919732111832824	2.469541717239909	2.14538845960173	0.1286463762848332	3.0446390642186363	0.7063937199802306	-0.4225966811124486	1.1289904010926792	83.22190418581727
14	5.0	wm	367	diff_vonmises	0.1184111116641816	6.784456945809921	1.5871783108751816	1.025960155466468	6.349001956826093e-17	2.228530118745684	0.1052136891750816	-0.3354478709854001	0.4406615601604817	107.76377187225762
15	6.0	ltm	367	diff_vonmises	-0.1342343969330402	-7.691064409747049	0.5527941817072239	136.7570693649932	0.5396855862120422	137.63814285129126	0.1133034320104258	-0.2701135538867678	0.3834169858971936	115.56663293940991
16	6.0	perception	367	diff_vonmises	-0.0576010474158052	-3.3002969124585806	0.5419441277015273	68.38452689574933	0.4989409288527077	69.3416243603945	0.3153179399218579	-0.4127231670502231	0.7280411069720811	121.39526260264464
17	6.0	wm	367	diff_vonmises	-0.002551822936569	-0.1462086843300837	0.4322629732531821	121.46405628335144	0.4155989197715772	122.48754250322318	0.1366959765187374	-0.3464878925384873	0.4831838690572247	129.2995989170414
18	7.0	ltm	367	diff_vonmises	0.1288107649333609	7.380313186533325	0.9573012677076734	209.66762952069035	0.9457040085256844	210.9266725348491	0.0444363214669323	-0.2976045290063283	0.3420408504732606	83.42144222175983
19	7.0	perception	367	diff_vonmises	-0.0100849255230058	-0.5778236691720023	1.7660694796555874	1.6662061949259075	0.0138663704417798	2.830505461015388	0.3402684377718457	-0.4209551189539348	0.7612235567257805	102.0232830660946
20	7.0	wm	367	diff_vonmises	0.1692561902851002	9.697665359799412	0.7326318262555194	79.92408419209121	0.708928910546836	81.27266996053393	-0.0246829655509515	-0.290543830764804	0.2658608652138525	93.33496106178572
0	1.0	ltm	4	diff_vonmises	0.0077686342277096	0.445109953828636	7.866857960430776	0.1453744037785718	0.0424131549554815	2.793208569230813	-0.3037288071160944	-0.4508249364004784	0.1470961292843839	46.36025310847464
1	1.0	perception	4	diff_vonmises	0.0186142468729673	1.0665177846356204	12.729344362472132	0.6867450849546217	0.1209473537657595	3.435442194790938	0.3527008228751495	-0.5798258887573814	0.9325267116325308	37.21913581827317
2	1.0	wm	4	diff_vonmises	0.0608282200071181	3.485200281701105	6.045968645000312	0.2542868024476202	0.061787971594952	3.230763048374027	-0.3026790245416817	-0.5201747330310698	0.217495708489388	52.21395079746844
3	2.0	ltm	4	diff_vonmises	0.0336255314229629	1.9266010344203068	5.484418864502796	0.2984144514075225	1.3984557640087394e-22	1.7713792903386616	-0.0101344234230232	-0.281919087078113	0.2717846636550898	58.23800637435789
4	2.0	perception	4	diff_vonmises	-0.0049329302258513	-0.2826360825738006	8.134013240638685	1.3092832456608154	0.4069502956097656	3.1109271312965068	0.7513036238287331	-0.5577056884467344	1.3090093122754674	45.00162113465464
5	2.0	wm	4	diff_vonmises	0.0871856138367778	4.995367707104764	4.103014650172461	0.523011037570152	0.1480721676139765	2.5123235407053834	-0.0533994171679625	-0.3943227821686655	0.3409233650007029	61.81871342117131
6	3.0	ltm	4	diff_vonmises	0.1196518758073309	6.855547494583544	1.5109898211309378	51.278295322972646	1.4652100735342803	52.107949889296	0.0573714333721753	-0.2319250261751735	0.2892964595473488	66.92324841857143
7	3.0	perception	4	diff_vonmises	0.0017588736990303	0.1007760396510016	5.286800349989408	1.85440157054072	0.4090987393804783	2.858060206223872	0.999402372706639	-0.4525778856056789	1.451980258312318	55.58586952724184
8	3.0	wm	4	diff_vonmises	0.0406389198027339	2.32843858866728	4.667896096818593	0.4058661248313099	0.2230557194017258	1.7792138428240287	-0.0103542874157616	-0.2861838337248004	0.2758295463090388	57.20524890710115
9	4.0	ltm	4	diff_vonmises	0.0401051538546225	2.2978560525926994	0.8885753189489995	215.67896363314517	0.8769092011389448	217.61598392459	-0.1370188655160973	-0.3908299632669347	0.2538110977508374	79.51129271823555
10	4.0	perception	4	diff_vonmises	-0.0296280404634508	-1.69756167379856	2.746040450689791	2.08196176481186	0.26542177502623	3.9434467302239327	0.4918346579713012	-0.5375866564798288	1.0294213144511302	74.63151964486113
11	4.0	wm	4	diff_vonmises	-0.0529451779532361	-3.0335352422895268	0.8588907787608823	204.17931029141783	0.8450404160423828	206.48073240321256	-0.1790111785560668	-0.4568644937563348	0.277853315200268	80.13673069853473
12	5.0	ltm	4	diff_vonmises	0.066205316254165	3.793285202692524	1.923629446477171	1.4953611983674342	0.3755693934681133	2.9412778913364974	0.0953714037366498	-0.344806536643857	0.4401779403805069	80.61353857009033
13	5.0	perception	4	diff_vonmises	-0.0484715394778781	-2.7772146385841747	2.716854440918344	2.0758428511145626	0.1197238574214125	3.6137948325559175	0.6382647273079055	-0.5180716403589768	1.1563363676668823	79.19095165638538
14	5.0	wm	4	diff_vonmises	0.0830747577881265	4.759833005331218	1.957282219169997	0.8973759509704108	1.1488768089479804e-17	2.7563903936047858	0.0182344941340655	-0.4295774852738286	0.4478119794078942	98.00406285149664
15	6.0	ltm	4	diff_vonmises	-0.1349522281643494	-7.732193109703743	0.607376074335153	133.86756305866223	0.589789954593756	135.24397145606264	0.082658216598098	-0.3565655388169819	0.4392237554150799	107.77974308633516
16	6.0	perception	4	diff_vonmises	-0.0756028202051383	-4.33172251704081	1.2980901625188843	1.771248109465956	0.0164404496047868	3.314630549026776	0.1671309352740614	-0.4664581352990709	0.6335890705731323	115.88258541071878
17	6.0	wm	4	diff_vonmises	-0.0430432187223294	-2.4661947694479665	0.4652401258736363	155.00565481465836	0.451454266684778	156.59488397198547	0.0188284823443893	-0.4029330968455848	0.4217615791899742	121.21765785327575
18	7.0	ltm	4	diff_vonmises	0.0235184063762962	1.347505426235342	0.960290494799895	258.62688421030066	0.948682320551682	260.30108384899364	0.0141345098935374	-0.3814874228868952	0.3956219327804327	82.047178083067
19	7.0	perception	4	diff_vonmises	-0.1079704387080272	-6.1862504501459	1.0621119031772597	4.010317112997805	0.2883700949955214	5.544658665066391	0.2640242314467167	-0.4786102044699285	0.7426344359166452	107.593307768753
20	7.0	wm	4	diff_vonmises	0.1820723002668206	10.431974371527478	0.8747936706635057	72.29537922689157	0.8399230767181413	74.04962222751155	-0.0651226447240134	-0.3692077176499904	0.304085072925977	83.82226851281956
0	1.0	ltm	413	diff_vonmises	-0.0198920844292555	-1.1397324835142455	5.984289885328261	0.3743189770850124	0.0410439366062077	2.5813657500692453	-0.0709008351292744	-0.4110771897667931	0.3401763546375186	54.22470115571474
1	1.0	perception	413	diff_vonmises	-0.0461341474197916	-2.643291938588419	14.553318276490112	0.6553595293535063	0.0238674443347518	3.031892925307408	0.494153203637492	-0.4875900419817942	0.9817432456192864	35.37781286869867
2	1.0	wm	413	diff_vonmises	-0.0209625819886624	-1.201067475647317	5.117051848046303	0.4784532760655589	0.0722413276738138	2.929054345165095	-0.0804278088588835	-0.4653435519390596	0.3849157430801761	57.5885595542745
3	2.0	ltm	413	diff_vonmises	-0.0653537758498861	-3.744495531442484	2.2655678452559527	1.4829546461644925	0.5554368729948025	2.616941061855583	0.1515768854121013	-0.3012034174110635	0.4527803028231648	73.0114176807464
4	2.0	perception	413	diff_vonmises	-0.0402458288771259	-2.3059161376650468	6.988748408605442	1.1442304497451816	0.254085555243978	2.3620483331992546	0.7064872626972174	-0.3919129970475178	1.098400259744735	49.477091011954826
5	2.0	wm	413	diff_vonmises	-0.0015454510477912	-0.0885478224825078	3.794802372213311	0.7556421138437197	0.2543118943516492	2.02760175028042	0.1549568615851697	-0.3074660493517969	0.4624229109369666	63.87946043694436
6	3.0	ltm	413	diff_vonmises	-0.0237489363780854	-1.360713822389006	1.2326943296455262	75.86480556912	1.1921046860898543	76.79412350616116	0.2167415807674473	-0.2870562175212416	0.503797798288689	77.92066852615304
7	3.0	perception	413	diff_vonmises	-0.0357029568769171	-2.045628745184933	4.383681933580621	1.9742308467183431	0.3196579743953052	2.915111689987052	0.9725898053786964	-0.436329175530441	1.4089189809091374	61.36993924598002
8	3.0	wm	413	diff_vonmises	-0.0385086360025399	-2.2063823177510726	1.9194296462555385	2.286064259827389	0.7035908912476423	3.413049793610221	0.1767919501564618	-0.3132559034644239	0.4900478536208857	75.02553536134332
9	4.0	ltm	413	diff_vonmises	-0.1784136168082455	-10.222347250776792	1.6123245545033011	2.6160888789440992	0.5544718923161628	3.952176572240951	0.1684017504323864	-0.3513702029744202	0.5197719534068066	82.50610220228958
10	4.0	perception	413	diff_vonmises	-0.0878151799172964	-5.031439186443071	2.384653898230799	2.4480252906404085	0.1735727896489484	3.854389419348438	0.6788828360848465	-0.5190336263377171	1.1979164624225636	82.78068920647453
11	4.0	wm	413	diff_vonmises	-0.1676540334954475	-9.605868537634082	1.0584920997716143	350.44607738976566	1.0481304616960865	351.997460044478	0.1391776251272318	-0.3987234454238688	0.5379010705511007	80.92290418204703
12	5.0	ltm	413	diff_vonmises	-0.008341439163546	-0.4779292591363268	1.399012486572098	2.0131206810457303	0.1860931034234495	2.6124205116650376	0.3395068086357565	-0.2912680966716365	0.630774905307393	104.48293923431288
13	5.0	perception	413	diff_vonmises	-0.04510254169779	-2.5841852845961824	2.004311000906453	2.493901472116592	0.2124525309496555	3.04620165328188	0.6953088700728015	-0.370484420000062	1.0657932900728635	89.59671493518613
14	5.0	wm	413	diff_vonmises	-0.0292408441461686	-1.6753769589752825	0.7875669647860903	174.86545873621398	0.7730347817773124	175.45621537552074	0.3089320832846738	-0.2624258174224039	0.5713579007070777	101.05073425523716
15	6.0	ltm	413	diff_vonmises	-0.0842981869279162	-4.829930331574487	0.9104035678639434	1.6882944282303427	3.842137478278566e-17	2.0219303021229917	0.2263931533787118	-0.2330497122266214	0.4594428656053333	132.35026584742286
16	6.0	perception	413	diff_vonmises	-0.022926310606474	-1.3135808375569795	1.3306555501651554	1.751561928270383	2.5393599639131188e-20	2.206139349408227	0.3547870093794367	-0.3018039136808135	0.6565909230602502	116.0123342522576
17	6.0	wm	413	diff_vonmises	-0.1267686240069262	-7.26330713027768	0.5432225874022654	129.28685454498088	0.529081414797417	129.5665932953565	0.2729463996700403	-0.2241639305153917	0.497110330185432	122.42340350844977
18	7.0	ltm	413	diff_vonmises	-0.0090793962050792	-0.5202110830781386	0.8279868523116034	190.6786388883885	0.8130443215560798	191.51937865157257	0.2865890323880862	-0.3012506411701743	0.5878396735582605	96.9997837873662
19	7.0	perception	413	diff_vonmises	-0.0513384340582878	-2.9414755983505767	0.8404305994498683	209.12617385553827	0.8217859599568943	209.86606077861688	0.5165887699061358	-0.3752818064341774	0.8918705763403132	98.78453077246198
20	7.0	wm	413	diff_vonmises	0.1444070035353718	8.273911834707565	1.5868809120655265	1.8337559059400128	0.3945733634074326	2.578102803067878	0.2361132004488347	-0.2482483998441702	0.484361600293005	90.15828453581229
0	1.0	ltm	102	diff_vonmises	0.0012819252044579	0.0734489038668883	2.5701110319108698	0.37874818534894	2.0543393081036205e-18	2.593028080911913	-0.1858254016196214	-0.4113646047307308	0.2255392031111093	85.79528939441403
1	1.0	perception	102	diff_vonmises	-0.007560311988696	-0.4331739687544413	11.696213343417886	0.73028974536322	0.0087169100921945	3.08162872053113	0.4902276530073295	-0.4914703704730861	0.9816980234804156	39.58145786377912
2	1.0	wm	102	diff_vonmises	0.0612178901746325	3.507526737701835	4.291913240955306	0.4017492530624933	3.6845392390242856e-17	2.664559473868382	-0.1031849569374731	-0.4240177508822507	0.3208327939447776	66.0379900477225
3	2.0	ltm	102	diff_vonmises	-0.0109596673971453	-0.627942686723559	3.20671953223675	0.7411481256468904	0.2480437580415297	2.1216001209946325	0.0779362098621817	-0.3128129660097419	0.3907491758719236	68.0886356695803
4	2.0	perception	102	diff_vonmises	-0.0096287262989333	-0.5516853790155013	6.626514855381015	1.338195028018598	0.1922855720695944	2.659352081646307	0.8377126432125546	-0.431245972612936	1.2689586158254906	51.227436413310414
5	2.0	wm	102	diff_vonmises	0.0655712722396403	3.756957156634732	4.469581672251026	0.5461284248454259	0.0981461147634472	1.963403092624417	0.1020474234654318	-0.3069005963639462	0.408948019829378	61.751418906625815
6	3.0	ltm	102	diff_vonmises	0.0439885574705693	2.5203586899322903	2.92318903261962	0.6307675216489302	0.101925795483609	1.4712814793866864	0.148393431960731	-0.2175031311613157	0.3658965631220467	76.1560255849709
7	3.0	perception	102	diff_vonmises	-0.0015640936210226	-0.0896159632479324	4.323579279596793	1.8174616173216136	0.1378482063275337	2.607975868019775	0.9835214309932054	-0.3949224943883825	1.378443925381588	63.802325335794
8	3.0	wm	102	diff_vonmises	-0.0517250316253853	-2.963626007315287	2.9992093175743806	0.8044030142529044	0.2203785864200866	1.7081526827615523	0.1919600980377172	-0.2432900327530255	0.4352501307907427	72.41165632955
9	4.0	ltm	102	diff_vonmises	-0.1004636193331615	-5.756141382399056	2.608173698739466	0.6510667735987383	0.1918995663350583	2.440246211973148	-0.0728944950481965	-0.3558556706737477	0.2829611756255512	73.43653846040777
10	4.0	perception	102	diff_vonmises	-0.0861248471482131	-4.9345902528019385	1.7758235693277469	3.97335198000784	0.3860650171604948	5.794076614083581	0.599630909052004	-0.6030141057669036	1.2026450148189076	86.6731077355497
11	4.0	wm	102	diff_vonmises	-0.0627625379703982	-3.5960285372333924	0.9333118801873648	275.5566866879656	0.9223211315148706	277.5166628245776	-0.0649226440798287	-0.419901187133739	0.3549785430539103	80.75243581943846
12	5.0	ltm	102	diff_vonmises	-0.0351771567075326	-2.015502614611934	1.5487647071807376	1.0291057064301197	1.1526443335673207e-14	1.919701504578008	0.1489642484584957	-0.2850047319383118	0.4339689803968075	108.96082073564769
13	5.0	perception	102	diff_vonmises	-0.0520740196168209	-2.983621546325294	1.9680131583246532	2.8307718581033754	0.2430261546648612	3.521150697921405	0.7420390185083948	-0.415341909816236	1.1573809283246308	89.2726073411182
14	5.0	wm	102	diff_vonmises	0.0569256976260035	3.261602219807892	0.6461616380947587	112.96394920063672	0.626746866305872	113.87211637241698	0.170642317185429	-0.2893676876483386	0.4600100048337676	108.13247672595716
15	6.0	ltm	102	diff_vonmises	-0.0649634495788352	-3.722131483478184	0.4331596567955912	113.4443394523416	0.4210392936863171	114.1971891996826	0.0789587199711867	-0.2402440190587444	0.3192027390299312	128.34181864619137
16	6.0	perception	102	diff_vonmises	-0.1079148537578484	-6.183065667096206	0.4668199435682177	90.41459933307677	0.4376961690458938	91.11672061749832	0.3230644777914762	-0.3781950411923009	0.7012595189837771	129.07823706347077
17	6.0	wm	102	diff_vonmises	-0.024593305573666	-1.4090926136466289	0.5330668586543569	138.54137106891824	0.5199251170717614	139.29220985516298	0.1535467934610466	-0.2670610084386577	0.4206078018997043	119.26209283000416
18	7.0	ltm	102	diff_vonmises	0.0862330555002355	4.940790134680886	1.7477040839466476	1.3090570858348949	0.2349257671452289	2.752415003761876	0.0757425517980989	-0.339465890547901	0.4152084423459999	88.37620974685635
19	7.0	perception	102	diff_vonmises	0.0218418842297956	1.2514477829806427	0.8684743179376001	301.90534239006536	0.8525806194229039	303.16640551310854	0.519739694595188	-0.4823489532826954	1.0020886478778834	95.34108498737068
20	7.0	wm	102	diff_vonmises	0.0651145175675216	3.730787041649445	1.437584683809032	1.5421794605824353	0.2781409920262673	2.9384709712377823	0.0451770883551371	-0.3238680818584037	0.3690451702135409	92.90747156388164
0	1.0	ltm	321	diff_vonmises	0.0158560502564416	0.9084847594414354	5.72194964347158	0.3077240352128216	0.0215076152597613	3.577497918527027	-0.295071641864202	-0.5689374460163658	0.2738658041521637	55.55365898593337
1	1.0	perception	321	diff_vonmises	0.0133256169053565	0.7635016080851126	12.088998317015824	0.7109687413416931	0.072211694882014	3.939359265728981	0.3024354242056508	-0.6473009557618916	0.9497363799675425	38.40768063776821
2	1.0	wm	321	diff_vonmises	0.0723338224025093	4.1444227397126285	3.7442093685470375	0.5263179242763212	0.0690123420902584	3.963832326492131	-0.2848748333493696	-0.6211695111763691	0.3362946778269995	65.6318445933419
3	2.0	ltm	321	diff_vonmises	-0.0450035496466884	-2.578513457862716	3.4592200109277664	0.58020539264046	0.0882490089302316	2.276527067085454	0.016747930804576	-0.349274095876653	0.3660220266812291	69.40092342704776
4	2.0	perception	321	diff_vonmises	-0.0197865724959565	-1.133687095047944	7.33563068963364	1.1749361023321894	0.2089526884476818	2.946134311945925	0.6747374695201391	-0.4889947306460256	1.1637322001661647	48.40662780403821
5	2.0	wm	321	diff_vonmises	0.0584573515861259	3.349359527397405	4.04666743535997	0.7187992804890072	0.17164856094413	2.6140739350688627	0.0657890340537881	-0.4059278214420546	0.4717168554958427	62.6860122817474
6	3.0	ltm	321	diff_vonmises	-0.019268812387128	-1.104021626011841	2.431366606485857	1.059047680987351	0.3785812620302847	2.2016252154962537	0.1202081693583331	-0.2842091681169446	0.4044173374752777	74.19429465833284
7	3.0	perception	321	diff_vonmises	-0.0132902531608603	-0.7614754147777001	4.003446821242409	1.9454570728142095	0.2389171686425129	3.0822913396779765	0.8822757866925549	-0.4563662972441872	1.338642083936742	64.64448462624574
8	3.0	wm	321	diff_vonmises	-0.0244056731302835	-1.398342066541085	2.667909901909239	0.984190481929282	0.3010748049439694	2.3354468000701574	0.1113825125079618	-0.3216119615666694	0.4329944740746312	72.81411168344539
9	4.0	ltm	321	diff_vonmises	-0.0455957476837666	-2.612443906023225	0.7992371243983348	83.10212393335999	0.7653473414008596	85.09948964277092	-0.0554670442145841	-0.4233510296712648	0.3678839854566806	88.6829767828174
10	4.0	perception	321	diff_vonmises	-0.0933796512374197	-5.350259908307726	1.710381302225856	4.844894171114923	0.527768793594681	6.574531847748393	0.6164446623372097	-0.5884287775159845	1.2048734398531944	84.4343394320938
11	4.0	wm	321	diff_vonmises	-0.0896466937566864	-5.136377199559918	0.8340698357885874	257.059971436218	0.821806345132767	259.22522305942414	-0.0646494435595883	-0.4590630355268672	0.3944135919672789	85.9207758182969
12	5.0	ltm	321	diff_vonmises	-0.0063194865760112	-0.3620799094950256	0.6704187462799033	29.20524586125025	0.5765384825995512	30.99318076759654	0.0530649485449803	-0.4310628379877537	0.484127786532734	104.06823295665524
13	5.0	perception	321	diff_vonmises	-0.0404523910171644	-2.317751276496444	1.9306553859534925	3.109899310963532	0.2664776603326577	4.83565112043823	0.5833762877863914	-0.5751884033224399	1.1585646911088312	87.29436507879103
14	5.0	wm	321	diff_vonmises	-0.0111440509521383	-0.6385070862362713	0.6019608971733209	267.48994916249643	0.5911252019018844	269.3569395378175	0.055732979906736	-0.4550722998722385	0.5108052797789746	106.50135535618324
15	6.0	ltm	321	diff_vonmises	-0.0801040600904583	-4.589624565045596	0.4754163689659864	218.39478507229632	0.4647381222842071	220.25501414850245	-0.0130438798417316	-0.4462723668004855	0.4332284869587539	118.47073885146156
16	6.0	perception	321	diff_vonmises	-0.0849112926442098	-4.865058701513454	0.4702004044369116	91.00968128129628	0.432730309010932	92.80587645925716	0.2113724845639346	-0.5780184649234119	0.7893909494873466	125.79710662771964
17	6.0	wm	321	diff_vonmises	-0.1469296399908026	-8.418448256849592	0.5360187716783424	228.9420520369148	0.5237768388594236	230.82319128190096	0.0535867317823317	-0.4736784374765328	0.5272651692588646	113.42592041645644
18	7.0	ltm	321	diff_vonmises	0.0582738572660857	3.3388460772944777	0.6327885810029164	224.0365120570625	0.6201665542817476	226.11783346744647	-0.0241776506075623	-0.4603605250991727	0.4361828744916103	101.10534621715328
19	7.0	perception	321	diff_vonmises	-0.0269357490707316	-1.543304739776353	1.328007841439595	5.094686134730483	0.4343732555186025	6.959069271307056	0.4185899639147472	-0.5709744468779073	0.9895644107926546	93.86419343757024
20	7.0	wm	321	diff_vonmises	0.1639120561593519	9.391469029242195	1.7481188283650488	1.8596699711403848	0.3572637729929804	3.86871662984456	0.0313680820940358	-0.4470359368517914	0.4784040189458272	82.59758230764916
0	1.0	ltm	488	diff_vonmises	-0.0630921975767448	-3.614916641353	2.103997777853451	0.4742954317061605	1.1434233309706283e-14	2.749038174172896	-0.1852580289222351	-0.4337699239888132	0.2485118950665781	94.6912432770063
1	1.0	perception	488	diff_vonmises	-0.0354917579581758	-2.033527938503328	13.986633915833549	0.6838356619254002	4.517316398424783e-18	3.0752507031349388	0.5214060346930233	-0.4894413506500344	1.0108473853430575	36.22961462728884
2	1.0	wm	488	diff_vonmises	0.0371379730303776	2.1278491143113176	3.714847237052794	0.4283946434529332	3.0254202832811424e-18	2.8081339662732465	-0.1306524503675482	-0.4467407298520427	0.3160882794844944	71.1106796575958
3	2.0	ltm	488	diff_vonmises	-0.0474359041686981	-2.7178771062534306	3.6463589672255257	0.5439215029529804	0.0475877018146392	2.0789072846186145	0.05065152061492	-0.3226043682209404	0.3732558888358604	69.37518344054797
4	2.0	perception	488	diff_vonmises	-0.0315212685875278	-1.8060356549636425	7.004229512514814	1.218630284153318	0.1254628608157339	2.748648961797771	0.7679257418650385	-0.443179616936517	1.2111053588015557	50.24869076907959
5	2.0	wm	488	diff_vonmises	0.0198217248983933	1.1357011793473182	4.206036525613524	0.5793102912806978	0.0858815420457551	2.201855114557311	0.0765852254943448	-0.3429744637140775	0.4195596892084224	63.684441863809695
6	3.0	ltm	488	diff_vonmises	-0.0191687077309558	-1.098286051703565	2.35832133281464	0.9958747416727112	0.2125600150802747	2.0489917781284634	0.1682395323632272	-0.2761124684426834	0.4443520008059106	80.27457588704252
7	3.0	perception	488	diff_vonmises	-0.0252109872007583	-1.44448316396179	3.6032778588079855	2.31017692595887	0.2307512726646766	3.292388068851719	1.0256007948909207	-0.4734470621889465	1.499047857079867	68.23808338861608
8	3.0	wm	488	diff_vonmises	-0.1052417454816734	-6.029907844689892	2.5721363996067392	1.14699318615405	0.3062921729368226	2.2892292968754173	0.2038516628288691	-0.3046166440247048	0.5084683068535739	75.10581204514685
9	4.0	ltm	488	diff_vonmises	-0.0918844681847212	-5.264592229788614	2.681307926284979	0.7582170832301296	0.1889625344808868	2.563250758321412	-0.0229280888388571	-0.3726594950385472	0.3497314061996901	73.67221931844571
10	4.0	perception	488	diff_vonmises	-0.1078585127242886	-6.1798375636598255	1.5451539429939378	6.159039863400264	0.5651007283813338	7.899360827597112	0.6705731753578745	-0.6169029552653029	1.2874761306231777	86.86310317157478
11	4.0	wm	488	diff_vonmises	-0.1206614187206304	-6.913390042752945	0.9167862161025874	289.697218337802	0.9060472068685592	291.68917764861567	-0.0529580432565097	-0.4293304201458738	0.3763723768893641	81.95600266025855
12	5.0	ltm	488	diff_vonmises	-0.012237011950515	-0.7011291386156616	1.3189165634330933	1.4312182993356353	0.1053544854736341	2.594196986390952	0.1162813051855402	-0.3295304325579891	0.4458117377435293	108.62236983740809
13	5.0	perception	488	diff_vonmises	-0.0311269139442871	-1.7834407982745666	1.8790974921821773	2.922302815637611	0.2377645435813891	3.963973109482162	0.6626281120917001	-0.4676594675453223	1.1302875796370224	90.44104049166418
14	5.0	wm	488	diff_vonmises	-0.0251262156642995	-1.4396261126998624	0.5904944373101374	191.81271224285507	0.5786525354067478	193.07760724082016	0.0984280333590916	-0.342133460237747	0.4405614935968387	109.88315409246523
15	6.0	ltm	488	diff_vonmises	-0.1482838359536004	-8.496037970151562	0.3453671934568993	153.6942417217748	0.3362638232369933	154.88798676673952	-0.0054733996873181	-0.3116898586661811	0.3062164589788629	135.72980461478733
16	6.0	perception	488	diff_vonmises	-0.0706848726235397	-4.049944876748641	0.428245514841897	252.38156753405792	0.4170039013625825	253.5324667731828	0.2567396518774814	-0.4572904381982319	0.7140300900757133	130.63879963237054
17	6.0	wm	488	diff_vonmises	-0.0840144157755955	-4.813671442198947	0.4683654138279278	201.14840668437023	0.4587536757192383	202.39389079483357	0.0614316658973237	-0.3439603514790335	0.4053920173763572	122.3463963517197
18	7.0	ltm	488	diff_vonmises	0.0700656559600607	4.014466375327124	0.7987013557961755	122.38691354682078	0.7766997144047321	123.92690437101317	0.0534754005292796	-0.3621026681727919	0.4155780687020716	92.11466569265473
19	7.0	perception	488	diff_vonmises	0.0508168737694154	2.9115923950365654	0.7868372273496032	179.0717004140148	0.7617346162426822	180.50974130589637	0.4322530079981774	-0.4997615537160733	0.9320145617142508	99.44992062537956
20	7.0	wm	488	diff_vonmises	0.0450200622779629	2.579459561943398	1.3300643038749869	2.125908866674928	0.4048052483699101	3.6896373434684846	0.0112699347487277	-0.3474069836719072	0.3586769184206349	89.13418872388223
0	1.0	ltm	177	diff_vonmises	-0.014828062538887	-0.8495854018342697	1.655100809513646	0.2627349203972565	3.72094607951101e-22	2.366551533344699	-0.2558333644202286	-0.3722375117896458	0.1164041473694172	105.84957077376724
1	1.0	perception	177	diff_vonmises	-0.0062097762161751	-0.3557939689075552	13.249941974307225	0.767638198141044	0.0799076780830235	2.9967787953239293	0.5877589511971112	-0.4947503274254655	1.0825092786225767	36.82593771533237
2	1.0	wm	177	diff_vonmises	0.0526188778489751	3.014839623460693	7.344225012145355	0.2104571446862466	1.0629057226947344e-18	2.4792969194297623	-0.171205338491592	-0.3945922668060663	0.2233869283144742	50.18765787530458
3	2.0	ltm	177	diff_vonmises	-0.0246830842716681	-1.41423655413233	4.795155618374066	0.3073297873005273	1.2801516511120456e-30	1.776535078226445	-0.022168099655049	-0.2827265144861846	0.2605584148311355	62.386922113768094
4	2.0	perception	177	diff_vonmises	-0.0203030621146946	-1.163279770363958	8.83644098638036	1.2496976628279286	0.2639950336883395	2.8371865052233103	0.8819467177568855	-0.4889947616056594	1.370941479362545	44.177119689644144
5	2.0	wm	177	diff_vonmises	0.057402711117236	3.2889330796263136	4.682670868385366	0.3563138599551855	0.034984211401022	2.0802696948003048	-0.0444573302684178	-0.3282387652728823	0.2837814350044645	61.40927666173712
6	3.0	ltm	177	diff_vonmises	0.1029560983251604	5.898949909165615	1.9669195836461424	1.3346331735551478	0.857669101109127	1.875162229266594	0.0915793412187655	-0.1566573777616296	0.2482367189803952	71.92766626527646
7	3.0	perception	177	diff_vonmises	-0.0051193096622387	-0.2933148376668251	4.4846560119640815	1.9824145822962775	0.3923141234904933	2.509225746128398	1.0525086217254624	-0.3718729593327513	1.4243815810582137	60.54796854065901
8	3.0	wm	177	diff_vonmises	-0.0860619805353491	-4.930988261212546	3.502933307378635	0.5471380031462737	0.3164506461211704	1.3396621356687974	0.1056267858241822	-0.1981705660780674	0.3037973519022496	65.18180623145025
9	4.0	ltm	177	diff_vonmises	0.0382764699040252	2.1930801801601643	1.0984557300379882	175.99287660704712	1.084712937720388	177.5072649246698	-0.088376997948707	-0.3282246800520418	0.2398476821033348	72.55392435453868
10	4.0	perception	177	diff_vonmises	-0.0825174075345324	-4.72789918808973	2.272180543142369	3.094948570137419	0.4737007760411918	4.67112602609189	0.5940954028576377	-0.5293026106797112	1.123398013537349	77.03622258418986
11	4.0	wm	177	diff_vonmises	-0.0971055586363009	-5.5637386771201855	0.9945025313363188	206.88876851835784	0.9828408241064674	208.6279727450452	-0.1318225196188507	-0.3586610381391786	0.2268385185203278	74.64921324169154
12	5.0	ltm	177	diff_vonmises	0.1056729242090006	6.054612565981561	2.5294477173969243	0.6624056564884049	0.1288135061220726	1.8743097371992756	0.0551755948630272	-0.2711411543075334	0.3263167491705606	79.16640870257513
13	5.0	perception	177	diff_vonmises	-0.0366042817973321	-2.097270859094674	3.012120056029531	1.8907897527551956	0.0386699760059102	3.043031681812152	0.7380098182448848	-0.4639256815955522	1.201935499840437	77.84740729907097
14	5.0	wm	177	diff_vonmises	0.0344685759197324	1.9749039260269272	1.535383998655479	0.7820897565890386	6.875491395578223e-14	2.277524921272766	-0.0188917739506321	-0.3465418571502606	0.3276500831996284	109.36207287399614
15	6.0	ltm	177	diff_vonmises	-0.1862293130144653	-10.6701536573496	0.4979078198862263	85.17455155189225	0.4810459192895904	86.42100394877842	-0.0351602004813216	-0.2794003593966652	0.2442401589153435	114.0811151919184
16	6.0	perception	177	diff_vonmises	-0.115113480926578	-6.595516622152621	0.6916415289305511	2.8786206015996947	2.9180701259653177e-18	4.156261003067565	0.1530461982222739	-0.457234394866333	0.6102805930886069	142.35665106691238
17	6.0	wm	177	diff_vonmises	-0.1396734964634828	-8.002701857192998	0.4323461619178448	141.7492882834376	0.4210521911587566	143.13688496776115	-0.0266926672653298	-0.3308762715660798	0.30418360430075	123.27195488645516
18	7.0	ltm	177	diff_vonmises	0.1868401955916313	10.705154650799283	0.9125797916296003	110.44987682019604	0.893864759649245	111.51611337418132	0.0507662476987391	-0.2554749977743	0.3062412454730392	86.25073693407217
19	7.0	perception	177	diff_vonmises	-0.0418821106380972	-2.39966817666294	1.077212489116954	4.943473608811742	0.4681953681508979	5.902864410332544	0.3396848776191794	-0.3591827976559114	0.6988676752750909	101.20324315185384
20	7.0	wm	177	diff_vonmises	0.1074793015344526	6.158110362938089	1.197944288371422	2.39823792679634	0.5543563454817958	3.5460463044067096	-0.0027654614032085	-0.2527144559225738	0.2499489945193653	86.51920314080155
0	1.0	ltm	298	diff_vonmises	-0.0461930838846698	-2.6466687492853604	3.121550604139799	0.4284564535484145	1.0537701007967013e-18	2.598746690975146	-0.1265950747139855	-0.4130454235730766	0.2864503488590911	77.7461221341405
1	1.0	perception	298	diff_vonmises	-0.0524637697191746	-3.0059525822549578	14.408560381290531	0.6649237610580366	2.235170682079012e-21	3.0030573213810454	0.5199395757330489	-0.4779514170857952	0.9978909928188442	35.69113794432002
2	1.0	wm	298	diff_vonmises	-0.0164401698050476	-0.9419523443076436	4.406884776119702	0.425669717646505	2.2850066558233746e-19	2.756604806842524	-0.0937813814377271	-0.4386759972096283	0.3448946157719011	65.14092859610287
3	2.0	ltm	298	diff_vonmises	-0.0446785342167369	-2.559891445449865	2.6468462546987834	1.0332469823229953	0.3111343913208697	2.4377373818531063	0.1125905685451964	-0.3341256128395519	0.4467161813847484	72.77638119609358
4	2.0	perception	298	diff_vonmises	-0.0378552983045059	-2.1689488250569333	6.536091712216716	1.2380915925388465	0.1485915809376992	2.664566407877382	0.7472880679661307	-0.428551012274667	1.1758390802407976	51.799467736024326
5	2.0	wm	298	diff_vonmises	-0.0097074885904205	-0.5561981259024972	3.8023318828418047	0.6923522981257731	0.1368452640448813	2.198548344139589	0.1183372522321634	-0.3367630857755213	0.4551003380076847	65.78149134827999
6	3.0	ltm	298	diff_vonmises	-0.020363288168337	-1.1667304690543965	2.2472609674380157	1.2554951367638456	0.243706221248177	2.44851938553378	0.2047375537210716	-0.3195104217822244	0.524247975503296	81.15591881611576
7	3.0	perception	298	diff_vonmises	-0.0338694970883413	-1.9405792373925868	3.918834038572232	2.2520160446222186	0.1978857020548899	3.411988866397238	1.0567496369450604	-0.5045155889155116	1.561265225860572	65.93423972888877
8	3.0	wm	298	diff_vonmises	-0.0873064739178056	-5.002292479659262	2.4209702471492154	1.3745714498031578	0.3293341615308381	2.684276879997753	0.2168693144588279	-0.3469609781545252	0.5638302926133532	76.34168516734681
9	4.0	ltm	298	diff_vonmises	-0.1570546638764851	-8.998569392968347	2.872477236625878	0.771412018807943	0.0752184661018026	2.603636976140523	0.0467190056157309	-0.3928505238924475	0.4395695295081785	76.52604748243542
10	4.0	perception	298	diff_vonmises	-0.0881690689160509	-5.051715532487815	1.7500455217054065	4.009531398879831	0.3197437625261132	5.900057373172174	0.6470250244920592	-0.6421301248086956	1.289155149300755	89.23676158821107
11	4.0	wm	298	diff_vonmises	-0.1394988851349859	-7.992697365014952	0.9215525958627367	384.8510878114223	0.9122497704031052	386.911461705136	0.0115523415623783	-0.4652152786895343	0.4767676202519126	83.63888200356354
12	5.0	ltm	298	diff_vonmises	-0.0300737955673209	-1.7231015599467323	1.560017399325652	1.2945385534770228	1.0564431291801136e-16	2.056556273088282	0.2469175705647612	-0.3019547431371893	0.5488723137019507	108.6233200972234
13	5.0	perception	298	diff_vonmises	-0.0363177739964362	-2.080855171305765	1.6405342534404352	3.3882363520894487	0.3142045477018793	4.013990062312679	0.6961855143929752	-0.4050057364318953	1.1011912508248705	94.22764552086495
14	5.0	wm	298	diff_vonmises	-0.0271818170503757	-1.5574033964832708	0.6848495657128306	145.97263760199155	0.6686265676107014	146.78704467616336	0.2239413760434629	-0.2879400965349603	0.5118814725784233	106.22301684600586
15	6.0	ltm	298	diff_vonmises	-0.1053446379743676	-6.035803150264846	0.7328732439252073	1.542074437997969	1.0291053588949394e-09	2.13007071091273	0.1094668401665367	-0.2354551610659276	0.3449220012324644	140.40300602868774
16	6.0	perception	298	diff_vonmises	-0.036160516907498	-2.0718450038110907	0.8724969757474518	3.407852950311048	0.1898270849482653	4.019167979634883	0.3154622542286752	-0.3353837515203313	0.6508460057490065	123.42410567826296
17	6.0	wm	298	diff_vonmises	-0.0429885524866849	-2.4630626248636687	0.4745541293483367	177.04370823309043	0.4651720980733537	177.65101562611756	0.1629990982068179	-0.2498238294020289	0.4128229276088468	126.01763521595674
18	7.0	ltm	298	diff_vonmises	-0.0141920347634866	-0.8131436946507306	0.8795891938375555	131.07599146792535	0.8569828152627399	132.34125210733768	0.1671387423657364	-0.3424952711616509	0.5096340135273874	90.77591677536488
19	7.0	perception	298	diff_vonmises	0.0606843175314015	3.476955277181057	0.7414331728268774	222.9610499312919	0.7225613479617602	224.1467412903039	0.4603580387835819	-0.4681843121147864	0.9285423508983685	103.3220502767138
20	7.0	wm	298	diff_vonmises	0.0113179731857559	0.6484720961860526	0.7770245575063542	82.06084208975089	0.7481290940762088	83.33055644354195	0.0797676628224763	-0.3136550087502758	0.3934226715727522	94.92791948342898
0	1.0	ltm	465	diff_vonmises	-0.0177068818965768	-1.014529601010454	3.59711508931862	0.339686874542178	3.249663258505405e-18	2.8607478630659013	-0.2089389552807533	-0.4551171677107642	0.2461782124300109	72.29429995767083
1	1.0	perception	465	diff_vonmises	-0.0059454363905819	-0.340648412543839	12.67502482390592	0.697475787381062	0.0399451967214271	3.2963241594630053	0.4344875293032937	-0.5332616725114692	0.9677492018147628	37.79514554520176
2	1.0	wm	465	diff_vonmises	0.1171881831781623	6.714388304914693	3.5735623934873866	0.4615801120393601	1.7592045414467083e-10	3.060072573889101	-0.1534887154339564	-0.4867631180146519	0.3332744025806954	72.53948124295897
3	2.0	ltm	465	diff_vonmises	-0.0118339575266978	-0.6780358212168601	3.9967232491196834	0.4585235160338596	0.0416221802183958	1.8096630547720065	0.0522317439930259	-0.2825946885916015	0.3348264325846274	66.57651511465835
4	2.0	perception	465	diff_vonmises	-0.0151765448038491	-0.8695519648517586	7.069904244572303	1.2085392097237124	0.2247709485359037	2.496057878112839	0.7664365493844234	-0.4117222481053421	1.1781587974897656	49.40837582780037
5	2.0	wm	465	diff_vonmises	0.0642581418740069	3.681720328733464	4.319580845728176	0.6296488342122555	0.1766881192308848	2.0645493082796182	0.1156817632773477	-0.3219801404727181	0.4376619037500658	61.232092257353344
6	3.0	ltm	465	diff_vonmises	-0.0206035395283872	-1.1804958580075546	2.6636804058815016	0.7975682625619165	0.3122011869645893	1.6343177206599688	0.1408853529708528	-0.2202001855731057	0.3610855385439585	73.7637650426187
7	3.0	perception	465	diff_vonmises	-0.0122148032384007	-0.699856673143094	3.8663065361075417	1.9160956477631244	0.2454902394089725	2.6854313884528014	0.9077990689690963	-0.3909838113943296	1.298782880363426	65.95058469777149
8	3.0	wm	465	diff_vonmises	-0.05923404423571	-3.3938607381974086	2.632387895289199	1.000288943852666	0.3862171954630726	1.9514472111691936	0.1671528154980491	-0.2556235756779219	0.4227763911759711	72.64094315610055
9	4.0	ltm	465	diff_vonmises	-0.0822326965874541	-4.711586452440968	1.558390686090256	2.0197564713002323	0.5419807893023108	3.5269595387795047	-0.0026391044997972	-0.3340058415786622	0.331366737078865	79.69782093856105
10	4.0	perception	465	diff_vonmises	-0.1067205712947571	-6.114638322414585	1.795112640787185	4.59506040302088	0.5458267855286923	5.890978567182592	0.7159038862217517	-0.5249177842887731	1.2408216705105248	83.72328095845563
11	4.0	wm	465	diff_vonmises	-0.0866778835680499	-4.96627690557561	0.9852553306130704	292.88020866321983	0.9747628686358656	294.5636926934192	0.0150832498361808	-0.3854286700490235	0.4005119198852043	80.94540972850322
12	5.0	ltm	465	diff_vonmises	-0.0067616437344491	-0.3874136485550152	0.5748975669546533	161.27710686964377	0.5610180747331069	162.74948831691117	0.0420603151417893	-0.3628019923930203	0.4048623075348097	109.2709210377968
13	5.0	perception	465	diff_vonmises	-0.0226634748042032	-1.298521455381925	1.737288215676593	3.415371669572933	0.3420447573273527	4.788234213470885	0.575362672092055	-0.5045228806062284	1.0798855526982836	89.31770898440547
14	5.0	wm	465	diff_vonmises	0.0352713402702514	2.020898935255226	0.5678699398368384	227.3581997155972	0.557286695721705	228.87718143937371	0.0624668980385649	-0.3857291520496062	0.4481960500881712	110.49963904569756
15	6.0	ltm	465	diff_vonmises	-0.1258061562814866	-7.208161791692435	0.4447580158200483	220.52628639394163	0.4356734033573199	222.2088352700496	-0.0244543485952135	-0.4030514776611156	0.378597129065902	121.81872508922476
16	6.0	perception	465	diff_vonmises	-0.0727880471356851	-4.170447899874058	0.5300770594296097	282.7988779310709	0.5167983428020941	284.4061262417112	0.3026769880457181	-0.5577031421230672	0.8603801301687852	119.29505381390918
17	6.0	wm	465	diff_vonmises	-0.135562280707475	-7.767146545706063	0.5346839540536596	152.23360511782622	0.5166894611232242	153.9525041360157	0.0844471100031327	-0.4548222569732587	0.5392693669763915	114.9976601932696
18	7.0	ltm	465	diff_vonmises	0.1306871369850042	7.487821385888787	0.6469914034113019	198.52848240680729	0.6339008446165512	200.41296605414016	-0.0189700800190308	-0.4168360351921727	0.3978659551731418	100.036695279464
19	7.0	perception	465	diff_vonmises	-0.0029201086891176	-0.16730990360592	2.2926870460349504	2.0277966727069394	0.086479704589502	3.7869352884646577	0.4795275339986219	-0.5432724849228809	1.0228000189215027	86.5400870416932
20	7.0	wm	465	diff_vonmises	0.2095506474459414	12.00636769288631	2.0169781893173577	1.2195366752155496	0.2270274016032871	3.0383486098974077	0.033294511234845	-0.4002323884639964	0.4335268996988415	82.65300731459342
0	1.0	ltm	154	diff_vonmises	-0.0011350734278869	-0.0650349168553715	5.892873567966153	0.3683885411486995	5.575977971999923e-15	3.665823845003658	-0.23494966461195	-0.583431332654272	0.348481668042322	56.140353718345295
1	1.0	perception	154	diff_vonmises	-0.0139455364703106	-0.7990203827945676	12.523869168823598	0.7735951462236288	0.0277720457033152	4.127336040955438	0.4055206993692133	-0.6639732098834983	1.0694939092527116	38.07058580726226
2	1.0	wm	154	diff_vonmises	-0.0245390095049409	-1.4059816780645271	4.8788551193025285	0.48584163820526	0.0376519977999299	4.013741783894636	-0.2473204887552483	-0.6358417932534197	0.3885213044981714	59.58455576211048
3	2.0	ltm	154	diff_vonmises	-0.053959571339614	-3.09165570209496	2.441912705953037	1.248673412821447	0.3293513038131763	2.987546801656345	0.0824184630891277	-0.3997073071350779	0.4821257702242056	74.09243496442016
4	2.0	perception	154	diff_vonmises	-0.0399955662480856	-2.291577145251189	6.712823407403974	1.301092566713633	0.1775192588325878	3.081521512607743	0.736580534658626	-0.5013174271975438	1.2378979618561698	50.793553167875984
5	2.0	wm	154	diff_vonmises	-0.0110466168210897	-0.6329245217466667	3.485878265394629	0.8802297908983077	0.1601143591388421	2.754765642360676	0.1160362116825225	-0.4164407359098793	0.5324769475924018	67.715102345599
6	3.0	ltm	154	diff_vonmises	-0.0231500366521101	-1.3263993957390747	2.745332390985032	0.8528222100954894	6.123526519740401e-16	2.150009157059778	0.1886097373979325	-0.3399948097780834	0.5286045471760159	82.99365444577421
7	3.0	perception	154	diff_vonmises	-0.0179534436533274	-1.028656549061597	4.033572414258448	2.1295809788416045	0.1914447001012546	3.324750833973054	1.009858274781677	-0.4955385197685493	1.5053967945502262	65.07585555059927
8	3.0	wm	154	diff_vonmises	-0.0692069755212874	-3.9652676102349695	2.9334810233784863	1.069380882076871	0.1579106290903489	2.460515945108159	0.2357408080097996	-0.3566096716040414	0.5923504796138411	74.36206113581355
9	4.0	ltm	154	diff_vonmises	-0.1306034559100896	-7.483026813471066	2.0829242668256684	1.0080965559318191	3.129400033168271e-20	3.3197173423266344	0.0045776380495116	-0.5200790147822633	0.5246566528317749	95.13705038143286
10	4.0	perception	154	diff_vonmises	-0.0609116552623672	-3.489980769689472	1.7695255979946722	3.979053232260558	0.3007773935429673	6.2048844413087325	0.6012133774936896	-0.6969149291373821	1.2981283066310718	88.86157430885979
11	4.0	wm	154	diff_vonmises	-0.1111149813022498	-6.3664194692939695	0.7497257805373267	336.0165712917913	0.7390660962362989	338.4832050348036	-0.0366026341823015	-0.5342276407201965	0.4976250065378949	92.00519503039412
12	5.0	ltm	154	diff_vonmises	-0.0653776425865322	-3.745862994723053	1.4154825002604758	1.5417917989839425	2.330438273622184e-18	2.4896771850381016	0.2485848790618303	-0.3582268579661611	0.6068117370279915	113.14554385541868
13	5.0	perception	154	diff_vonmises	-0.038318916932628	-2.195512215751976	1.7867374974764485	3.2842075701982583	0.2464233745480747	4.049685991128305	0.769958427901848	-0.4584256937687969	1.2283841216706448	92.85594202334232
14	5.0	wm	154	diff_vonmises	-0.0319511132698094	-1.830663941104521	0.6891398368284791	170.31964333897366	0.6732010461924338	171.24577296844498	0.2581383116331892	-0.3282182975129757	0.5863566091461649	105.91540080484089
15	6.0	ltm	154	diff_vonmises	-0.0329788491397635	-1.8895488689070952	0.8108503422920614	1.497364767609673	7.381343829774039e-18	2.042748098569928	0.1326549893580108	-0.2346753418831714	0.3673303312411823	136.8669820240197
16	6.0	perception	154	diff_vonmises	-0.0460261196968753	-2.637102405994906	0.8175896949267232	2.6790670577200464	2.6209358705038517e-15	3.215612618249396	0.3106885090460632	-0.351461834738757	0.6621503437848202	136.54877503543656
17	6.0	wm	154	diff_vonmises	-0.0577627554610164	-3.309562100962488	0.4729571102987369	181.81872943567245	0.4632366829546285	182.355819936732	0.1997430714936072	-0.2559082635389202	0.4556513350325275	127.02241932722856
18	7.0	ltm	154	diff_vonmises	0.0237572060819769	1.361187641519807	0.7162034131518391	67.76507973012627	0.6784689676930541	68.9951903221526	0.142306618542424	-0.3376858761142367	0.4799924946566607	101.35335731284684
19	7.0	perception	154	diff_vonmises	0.0677077596524443	3.8793688683712215	0.8048549715001709	288.6684333829776	0.7907014843427725	289.6688725704824	0.4782368069329834	-0.4208009589399104	0.8990377658728939	99.61840838539794
20	7.0	wm	154	diff_vonmises	0.0366637600635603	2.100678712722305	0.8059466770378692	156.5422061568441	0.789735151893571	157.74982626945396	0.1203208404582767	-0.3145721044296525	0.4348929448879293	93.9640364798672
0	1.0	ltm	33	diff_vonmises	-0.009284358455636	-0.5319545549945442	6.062205728900475	0.3885063094150665	0.0429627385175809	2.950815766128556	-0.1170682635648922	-0.4705790738682424	0.3535108103033502	53.72752079924573
1	1.0	perception	33	diff_vonmises	-0.0129594814450245	-0.7425235914780081	12.082786212604605	0.7437770165518663	0.0570942740566831	3.4509959846327924	0.4391613583639964	-0.5622710614029246	1.001432419766921	38.59090702755015
2	1.0	wm	33	diff_vonmises	0.0380300563154856	2.1789617215221684	4.084421779771675	0.5445620440177651	0.0511509526773079	3.275659438293581	-0.124862345234898	-0.5138946262836287	0.3890322810487306	64.7109016084722
3	2.0	ltm	33	diff_vonmises	-0.0195714201689884	-1.121359774760257	2.3802578503074305	1.2403943301949645	0.5150539273398502	2.31703888891543	0.1319512501929551	-0.2805317316408162	0.4124829818337714	72.24134782272776
4	2.0	perception	33	diff_vonmises	-0.0221455625086181	-1.268847266686965	6.591656480886249	1.2593657220198355	0.338538663247561	2.2815205133426657	0.7682506792787984	-0.3801698191179676	1.148420498396766	50.479125445032565
5	2.0	wm	33	diff_vonmises	0.0316222885946003	1.811823675015281	3.891366818063373	0.7719683932427432	0.2742964432624627	1.9384082272407288	0.1863060346554055	-0.294120630242816	0.4804266648982215	63.1599530897501
6	3.0	ltm	33	diff_vonmises	-0.0099614394823169	-0.5707484402117445	2.7206934278590404	0.8535615507489234	0.3117473816923897	1.6269964458915227	0.1832447261037392	-0.2185547436387702	0.4017994697425095	73.74430210389426
7	3.0	perception	33	diff_vonmises	-0.0133950358160863	-0.7674790186883242	4.476844174242753	1.71016086563407	0.2658157298974147	2.4043029579894344	0.907148843492509	-0.3613315638167186	1.2684804073092275	61.46191500931894
8	3.0	wm	33	diff_vonmises	-0.0326839332400076	-1.8726514325397832	2.8144674271492534	1.0016555664123372	0.3843379089481883	1.8880809662977012	0.2070038519084895	-0.2518322296360557	0.4588360815445452	71.24556185849264
9	4.0	ltm	33	diff_vonmises	-0.1684601745492612	-9.652057017709833	1.934698071232357	1.4382207228528094	0.333495916564797	2.7923428132035	0.1237391737863281	-0.3330921242964733	0.4568312980828015	82.2720327398826
10	4.0	perception	33	diff_vonmises	-0.0743643011070279	-4.260760599872739	2.345037909823034	2.577195755632207	0.1986671993582247	3.830320105479224	0.7262437839304486	-0.5032682405008744	1.229512024431323	82.98449048795808
11	4.0	wm	33	diff_vonmises	-0.1104744168655094	-6.329717830562573	1.016755797514539	358.74678657761007	1.006851545416363	360.28742057183194	0.1429859644980666	-0.3956554101410603	0.538641374639127	82.7434360112392
12	5.0	ltm	33	diff_vonmises	-0.0438958275471284	-2.515045656684559	0.6385501909208736	44.34306185643776	0.583338520264812	45.110286312770846	0.262477896896204	-0.3121639316883939	0.574641828584598	112.80833156743984
13	5.0	perception	33	diff_vonmises	-0.027637036688562	-1.5834855605028155	1.6372783392697292	3.5607685010543504	0.3853439597248131	4.202878523054234	0.6787025434143417	-0.3932117584625778	1.0719143018769195	92.15923775865808
14	5.0	wm	33	diff_vonmises	0.0244666996943072	1.4018386310978252	0.7171898681695185	193.83171107391152	0.7036683834509709	194.51060283257863	0.3060812639003671	-0.2917778772005466	0.5978591411009138	105.44323742307652
15	6.0	ltm	33	diff_vonmises	-0.0526420930068648	-3.016169754028502	0.4441981382555261	163.26155816121522	0.4321572554535093	163.73736226643842	0.2520824841313569	-0.2806485621481194	0.5327310462794763	130.83944780088265
16	6.0	perception	33	diff_vonmises	-0.0232784476992664	-1.3337568067839871	1.0389551266687456	3.850342359684817	0.2291754002756881	4.352349011585914	0.4842215885878274	-0.3754021706944707	0.8596237592822981	115.6678831752794
17	6.0	wm	33	diff_vonmises	-0.0900384578015632	-5.1588236258963365	0.53727811232667	135.2246658664984	0.5191351173300366	135.59768044356494	0.3670707757963143	-0.3029311927406866	0.6700019685370009	123.1921685961313
18	7.0	ltm	33	diff_vonmises	0.0248319717646989	1.4227671791052745	0.7077080057354913	187.79515853705	0.6931876976066316	188.96539505368008	0.1882479521636639	-0.3452076510003792	0.5334556031640432	102.29562431007469
19	7.0	perception	33	diff_vonmises	-0.005711944352463	-0.3272703042097161	1.4995147692602515	3.847564859597665	0.4124699360449565	4.857242738360612	0.5466203737164783	-0.4277013151208033	0.9743216888372817	93.02844441195391
20	7.0	wm	33	diff_vonmises	0.1880789443901108	10.776129728829064	1.4344334011883852	2.1151349871402334	0.3430765507724032	3.1603806388265823	0.2032995566374965	-0.3079800159598802	0.5112795725973768	94.04546808169124
0	1.0	ltm	373	diff_vonmises	0.0352680123143302	2.020708257426538	5.741561939278949	0.3098259794150702	0.0069370717040797	3.442617310515476	-0.2626198664994518	-0.5470170461178872	0.2843971796184353	56.34332104646694
1	1.0	perception	373	diff_vonmises	-0.0013139016642533	-0.0752810200569304	12.69593940649094	0.6718610095127365	0.0356256490399998	3.862189166512796	0.3084946450894089	-0.6238821608544499	0.9323768059438589	37.73666551551608
2	1.0	wm	373	diff_vonmises	0.0146161210942975	0.837442051555384	3.685044953772133	0.5127611623744505	0.0540980470596833	3.858004860062748	-0.2707969497921567	-0.6041241615074542	0.3333272117152974	66.97908955415548
3	2.0	ltm	373	diff_vonmises	0.0161469540169408	0.9251523171625234	2.817642913376509	0.8684344323302026	0.2470005254038372	2.472873947906582	0.0524661108448498	-0.3548747450829189	0.4073408559277687	71.55197275046544
4	2.0	perception	373	diff_vonmises	-0.014393700347165	-0.824698281468545	6.652794315427986	1.3085301009528276	0.2585528981565678	2.9792690671216278	0.7151661158346384	-0.4931984779869617	1.2083645938216	50.407417200478505
5	2.0	wm	373	diff_vonmises	0.0381900586104524	2.188129177736176	3.737591068374994	0.7857315317982777	0.178388546330238	2.623121367185012	0.0869735793130255	-0.4014952510714459	0.4884688303844715	64.99914035660015
6	3.0	ltm	373	diff_vonmises	0.0273719517770615	1.5682973138612402	3.184307094027956	0.7997061101157962	0.1633793834672247	2.1861650645295274	0.1347714172338381	-0.3237521250548852	0.4585235422887234	70.87805010497232
7	3.0	perception	373	diff_vonmises	-0.0089160098537397	-0.5108497347163407	4.488535752651082	1.9707244322641768	0.1816667008306716	3.315073922821448	0.9850978270592528	-0.5054038613775298	1.4905016884367828	61.89590536770058
8	3.0	wm	373	diff_vonmises	-0.0070981642262819	-0.4066948524566967	3.603710480597818	0.7590410157889598	0.0928817353644948	2.414748796967736	0.1301984803647671	-0.3695054475733111	0.4997039279380783	68.61009934848894
9	4.0	ltm	373	diff_vonmises	-0.0587838045119844	-3.368063902258792	1.9944805057824744	0.8912504434762655	0.0449285714731262	3.261767273766425	-0.083710739771371	-0.4879601344125607	0.4042493946411897	92.06213004337756
10	4.0	perception	373	diff_vonmises	-0.0434141859146112	-2.487449623903532	1.8529551301346452	3.538620154115092	0.2753315275414492	5.721714002888712	0.5659664473025394	-0.6708009412192372	1.2367673885217765	87.92311306426936
11	4.0	wm	373	diff_vonmises	-0.0465141594640574	-2.6650650248889893	0.7515936510877932	254.61951685290612	0.7374824721401826	257.25373191629507	-0.0826084661544399	-0.5542321183406891	0.4716236521862491	90.72687647435748
12	5.0	ltm	373	diff_vonmises	-0.0393937077391381	-2.257093192824461	1.7887357934937094	1.2094448834236349	0.004420396686959	2.4032738023675115	0.1988740142673958	-0.3645090976554738	0.5633831119228697	101.91768796239984
13	5.0	perception	373	diff_vonmises	-0.0342331764367868	-1.9614165291545853	1.4400390872383242	4.833206194899656	0.4338157421893331	5.952104049727415	0.6471128455707587	-0.4932059425597637	1.1403187881305223	93.94522287887412
14	5.0	wm	373	diff_vonmises	0.0147775811266741	0.8466930299706081	1.138018691861961	2.7753357625299206	0.2472025179599057	4.068775689350368	0.2036680813550504	-0.3933929946810063	0.5970610760360567	106.85947267511357
15	6.0	ltm	373	diff_vonmises	-0.0746352277866471	-4.276283555172407	0.965984923999612	1.756657694954498	0.0263347782935341	2.7120274343372235	0.1458686387967416	-0.3350236479580379	0.4808922867547796	128.10254703457434
16	6.0	perception	373	diff_vonmises	-0.0323385797044942	-1.8528641325149384	1.094120027652116	2.868307946518025	0.1121747759204663	3.856367226185627	0.346501243881101	-0.4313247340316462	0.7778259779127472	118.1450724390755
17	6.0	wm	373	diff_vonmises	-0.0049505958517334	-0.283648248379302	0.4885242940970424	245.4111011292821	0.4787527195346964	246.4327626518679	0.1989911556092067	-0.3695377493278116	0.5685289049370184	123.64658520580268
18	7.0	ltm	373	diff_vonmises	-0.0588064157513935	-3.369359430846496	0.7780538935858794	218.18979264666297	0.7633314959177531	220.1271129644948	0.0386940102847574	-0.4450092159481293	0.4837032262328868	92.44699461377982
19	7.0	perception	373	diff_vonmises	0.0518686039499268	2.9718520955664016	0.6992733642174686	291.6435817917669	0.683476084065674	293.43778629890835	0.3728834898796123	-0.571191533541203	0.9440750234208152	103.96722870064193
20	7.0	wm	373	diff_vonmises	0.0766552485219275	4.392022217832892	0.752077173457681	176.47890494758346	0.7355666516620183	178.43791366374182	-0.0145919160331473	-0.429851066918328	0.4152591508851806	92.55364260797737
0	1.0	ltm	419	diff_vonmises	0.0183167275250546	1.0494711816767364	6.47981563201662	0.3260881158565638	0.0402773577841453	3.813729548872458	-0.3074310396371297	-0.6106431545402812	0.3032121149031515	51.568234873959
1	1.0	perception	419	diff_vonmises	0.0239861907451606	1.374307496293461	11.737243939107636	0.7320317573146782	0.0860863243832991	4.186801653882429	0.264261483793501	-0.6923368065948156	0.9565982903883166	38.84729199214812
2	1.0	wm	419	diff_vonmises	0.0778411562922564	4.459969727964503	3.249835224529929	0.607375002276173	0.0828452060262582	4.290529248076195	-0.3243710533222633	-0.6655937072953657	0.3412226539731024	69.04413833425349
3	2.0	ltm	419	diff_vonmises	0.008151868223342	0.467067644344306	3.303347373645149	0.5970582015757133	0.1285224682672464	2.1161769356032187	0.0314829114085541	-0.3203959845543353	0.3518788959628895	69.72414006952485
4	2.0	perception	419	diff_vonmises	-0.0125948477037063	-0.7216316170324127	7.027541673462153	1.2457710995579343	0.2985931315993094	2.8088148268147024	0.7028272270744857	-0.4737336536669692	1.176560880741455	48.888990869895366
5	2.0	wm	419	diff_vonmises	0.0579565123400579	3.3206635523831944	3.8396213777738537	0.7971863484258662	0.2179086247165811	2.562485853287425	0.098150842316956	-0.3935109541888087	0.4916617965057647	63.49926356583475
6	3.0	ltm	419	diff_vonmises	-0.0011006241396269	-0.0630611180308402	3.085241157634607	0.7329326632719392	0.2687196861446652	1.808497535231382	0.1178899614137504	-0.2605338256764182	0.3784237870901686	69.52864770641756
7	3.0	perception	419	diff_vonmises	-0.004648822934801	-0.2663579338677205	4.341850000807565	1.8113780926967995	0.2410625021502534	2.859619362913747	0.8851990576402143	-0.4305401076681226	1.315739165308337	62.29600994873448
8	3.0	wm	419	diff_vonmises	-0.0092591956958534	-0.5305128350580984	3.311992799819085	0.7532207826536679	0.1978404706251042	2.088404054465694	0.1204974383637898	-0.3101495555704459	0.4306469939342357	68.71971523455554
9	4.0	ltm	419	diff_vonmises	-0.0556231115525768	-3.1869695353480254	0.7603228629749014	51.07374186379381	0.706455826870488	53.057038208901695	-0.0418321307456714	-0.4249259916291601	0.3830938608834886	92.28174285807953
10	4.0	perception	419	diff_vonmises	-0.0656743303668573	-3.762861952368784	1.9847040832869536	3.513009333773896	0.377280935111822	5.17122437584064	0.6452581518652423	-0.5728166058581867	1.218074757723429	83.57536489834825
11	4.0	wm	419	diff_vonmises	-0.0584566358605998	-3.3493185193454704	0.8254534782207905	262.3698504154437	0.812401219890397	264.57689485443444	-0.0215368736937051	-0.4826435872283809	0.4611067135346758	87.82695902379996
12	5.0	ltm	419	diff_vonmises	-0.0274124755521394	-1.5706191551431434	0.6413451587481539	128.54189126797206	0.6192985538492847	130.20652874967507	0.0896563753266761	-0.4198197163647332	0.5094760916914094	104.59298875512368
13	5.0	perception	419	diff_vonmises	-0.0231540162981814	-1.3266274126629212	1.579540855507289	4.2266290650584	0.3914079595206425	5.822954505914319	0.5693627387025415	-0.5570381012124763	1.1264008399150178	90.74456652492452
14	5.0	wm	419	diff_vonmises	0.0247912137713213	1.4204319181033158	0.5953751806380634	263.12095184784874	0.5838515738275107	264.8602700386565	0.1166947802456377	-0.4591713057134541	0.5758660859590918	108.95062783740792
15	6.0	ltm	419	diff_vonmises	-0.0742932876178102	-4.256691826652068	0.4844907316706764	263.1670199256142	0.4745517080349299	264.7958212229731	0.0930933092625707	-0.4528573254479333	0.5459506347105041	120.75276344084442
16	6.0	perception	419	diff_vonmises	-0.0403403936213185	-2.311334298398018	0.5532771760442011	199.6391311789132	0.5336227059785259	201.26061919577637	0.3276015639890417	-0.5668529317447799	0.8944544957338216	117.4660614877309
17	6.0	wm	419	diff_vonmises	-0.0857342470877671	-4.912210517860824	0.5044936580540704	229.588526512506	0.490998836544402	231.27456924441137	0.1656937992603815	-0.5048763090195472	0.6705701082799287	120.0330681824232
18	7.0	ltm	419	diff_vonmises	0.0137779256140427	0.7894169881298428	0.6443592945163271	280.5673665407033	0.6339912423087273	282.72464250470887	-0.0343384133861945	-0.4716039240516778	0.4372655106654832	99.69180850398052
19	7.0	perception	419	diff_vonmises	0.0025051923414694	0.143536948034697	1.6877803869069188	2.816604921654281	0.1994959894066101	4.780346978810271	0.3910660000293341	-0.5808183680634623	0.9718843680927964	93.73522548609228
20	7.0	wm	419	diff_vonmises	0.2026926347011417	11.613432506762354	0.9937239516220726	8.580244696385956	0.6372493173999141	10.695232288383808	0.0060318123747622	-0.4709339474428864	0.4769657598176486	89.25914092896389
0	1.0	ltm	10	diff_vonmises	-0.0483356216643881	-2.769427121510549	5.476598482094886	0.3077502215371824	2.465987461165376e-13	2.62269336385912	-0.1373451683228531	-0.4174097108698788	0.2800645425470257	58.283020429798654
1	1.0	perception	10	diff_vonmises	-0.0334066101330428	-1.914057768462323	13.842863768238583	0.7588389278866643	0.0334905394833152	3.223880340014339	0.585388048793373	-0.5205233150378883	1.1059113638312614	36.225783096834135
2	1.0	wm	10	diff_vonmises	-0.0283638402227374	-1.6251283355462631	6.586433161575277	0.3399652230639634	5.395120844439696e-24	2.8729533937452527	-0.11636228763068	-0.4572440855156715	0.3408817978849914	53.05161844079157
3	2.0	ltm	10	diff_vonmises	-0.0694586031561729	-3.979684811722768	3.1625883955387675	0.7360300404153627	0.2021014543612864	2.0375392507611547	0.103834056779605	-0.2999792903313119	0.4038133471109169	69.91287851605236
4	2.0	perception	10	diff_vonmises	-0.0417183449438452	-2.390285093553272	7.524323322583837	1.2242345939344184	0.2254223310050176	2.5831321782624106	0.807099272150098	-0.4298789621840932	1.2369782343341913	47.96048761846498
5	2.0	wm	10	diff_vonmises	-0.0205045031909726	-1.1748214938552606	3.7230879516511246	0.6871989587405866	0.1596288819563151	2.137421391660403	0.1114346034697252	-0.3259503473408312	0.4373849508105565	65.87403497557662
6	3.0	ltm	10	diff_vonmises	-0.00205666764423	-0.1178383758754951	2.238187269807686	1.115654721729615	0.3986224170936109	1.8806450704837296	0.1871039039595068	-0.2241406344351251	0.411244538394632	78.05772345936603
7	3.0	perception	10	diff_vonmises	-0.0238315347049786	-1.3654463579148275	4.203782319258992	2.0748841805458715	0.3371125590328001	2.773773766513681	1.037648180099067	-0.4066477175778021	1.4442958976768687	62.66286362812341
8	3.0	wm	10	diff_vonmises	-0.0881046929605046	-5.048027061932892	2.661838964090114	1.104803767182709	0.4124832489346622	2.0136211976368554	0.2112981161412687	-0.260109675595699	0.4714077917369677	72.3644486981515
9	4.0	ltm	10	diff_vonmises	-0.1556641516695014	-8.918898912146759	1.9315231864151556	1.458288241343406	0.3670551848561762	2.9248475646078704	0.0867396108073631	-0.3461998446441297	0.4329394554514928	80.55600529408534
10	4.0	perception	10	diff_vonmises	-0.0827563170665558	-4.741587695960115	2.306314252885742	2.795065133747318	0.2714095733398437	4.330059588974819	0.6829728451457908	-0.5455640646178465	1.2285369097636374	81.32411719426062
11	4.0	wm	10	diff_vonmises	-0.1588371039195283	-9.10069568466984	0.992479865199276	338.5376590584533	0.9829878591177472	340.1959831296708	0.0471930733548617	-0.39018498504349	0.4373780583983517	81.50986453533284
12	5.0	ltm	10	diff_vonmises	-0.0093077078751053	-0.5332923781842153	1.711697221283501	1.1619496516313876	2.4145683069423263e-20	1.8827583759480728	0.2456791368920751	-0.28186968011477	0.5275488170068452	104.27789678243262
13	5.0	perception	10	diff_vonmises	-0.0338591278216058	-1.939985122172	2.2974297142966598	2.246849079739228	0.0998115155612749	2.8072229742409203	0.7672160622324622	-0.3914583605718558	1.158674422804318	87.36491694624124
14	5.0	wm	10	diff_vonmises	-0.0306549488056578	-1.7563991877538	0.7030767565113862	125.01372327257032	0.6845898186939254	125.75776781460306	0.2308345534905385	-0.2729258227067372	0.5037603761972758	105.33110084008734
15	6.0	ltm	10	diff_vonmises	-0.0907824994380494	-5.201454071449001	0.8877162714776577	1.3193947289761874	5.54888372070536e-17	1.7860830622081532	0.1384448547818133	-0.2126519977841927	0.3510968525660061	133.33625375389624
16	6.0	perception	10	diff_vonmises	-0.0437066516693688	-2.504206677303248	0.8951285840113588	2.360659481026802	9.256825597595519e-22	2.864764407334407	0.3036813263037743	-0.3291387871350209	0.6328201134387953	133.0687952893187
17	6.0	wm	10	diff_vonmises	-0.1166338196620783	-6.682625615127046	0.4707844370835047	139.16552440994437	0.459134539279269	139.62384422832673	0.191660354791523	-0.2322113347313319	0.4238716895228549	127.56567811340088
18	7.0	ltm	10	diff_vonmises	0.0935702134220171	5.361178317219952	0.8407905372295351	118.95734181133372	0.82200717356156	119.7342584428243	0.1873574052777229	-0.2453923684468346	0.4327497737245576	95.04699684057618
19	7.0	perception	10	diff_vonmises	0.0002368100446738	0.0135682161061177	0.819261223051235	196.1052212234061	0.8022702438157744	196.7282649972033	0.4468082400047422	-0.3245585899513319	0.7713668299560741	100.09953853610251
20	7.0	wm	10	diff_vonmises	0.0927168365871878	5.31228342625	0.8395237126763674	90.83758706688232	0.8179581981508336	91.5870691360785	0.1438212314798193	-0.2218744106047054	0.3656956420845247	94.34977886239044
0	1.0	ltm	229	diff_vonmises	0.0076622768438571	0.4390161246138366	6.132937833991137	0.4522178106341004	0.051328520527644	3.71955540347752	-0.1859701762403171	-0.5948850824387734	0.4089149061984562	53.07056162409947
1	1.0	perception	229	diff_vonmises	-0.0104289397033889	-0.5975342298006026	11.841695615642315	0.7503902837506601	0.0460759370339257	4.060155656001632	0.342238919275552	-0.6581741099365713	1.0004130292121234	39.002323514265015
2	1.0	wm	229	diff_vonmises	-0.006328198609061	-0.3625790722197558	3.948163928622139	0.7019993217541101	0.1244221076075807	4.211108392125129	-0.2202254739063718	-0.6617177997999121	0.4414923258935402	62.62507155101051
3	2.0	ltm	229	diff_vonmises	-0.065015126430785	-3.725092348993429	2.0225717988898797	2.019536154548155	0.5684658072339746	3.5744274342407865	0.1210075613570993	-0.3871651532886929	0.5081727146457923	74.72118441209497
4	2.0	perception	229	diff_vonmises	-0.0379738378737711	-2.175740642081126	6.530768759252276	1.2269533306874485	0.2027463950288103	2.8346144017164843	0.6780418378932083	-0.4620413139179763	1.1400831518111847	51.27238270647695
5	2.0	wm	229	diff_vonmises	0.00942727229397	0.5401429147650976	3.656573504691268	0.8783868534797445	0.2132455772628817	2.529509335972861	0.1501390041448784	-0.3826987118892995	0.532837716034178	65.42018073474588
6	3.0	ltm	229	diff_vonmises	-0.0408165450998649	-2.338615768527644	2.312789634700372	1.2341173595394914	0.2224188714497116	2.5091768116859137	0.2019034117911715	-0.334657297733075	0.5365607095242466	80.64713678889711
7	3.0	perception	229	diff_vonmises	-0.0222397178548564	-1.2742419706450163	4.215154955429082	1.9221004458444813	0.1970967388205669	3.120787668089797	0.9214200967734532	-0.4694478050676017	1.390867901841055	63.604571468804096
8	3.0	wm	229	diff_vonmises	-0.0297208707701077	-1.7028804585809083	2.4458196015879343	1.3584674163073107	0.3208829130704803	2.7196175446928783	0.2088101871256763	-0.3549567837605186	0.563766970886195	76.07365767975887
9	4.0	ltm	229	diff_vonmises	-0.1467630285653017	-8.408902125349732	2.223611887745982	1.0908652954039113	0.0215822803126616	3.1344047617628594	0.0900732953318184	-0.4811238093785354	0.5711971047103538	90.41549545158745
10	4.0	perception	229	diff_vonmises	-0.0738021908559333	-4.228554054863978	1.9424640434753455	3.2508095565283104	0.2326335355083472	5.204429680538027	0.6163955567545176	-0.6380857227011362	1.254481279455654	88.00085650168327
11	4.0	wm	229	diff_vonmises	-0.1292371294351989	-7.404742073022842	0.8391531100992552	331.941480701966	0.8277188247804539	334.1161156499177	0.0526732309787405	-0.5020682343232323	0.5547414653019729	88.91927942159114
12	5.0	ltm	229	diff_vonmises	-0.0578832342795852	-3.316465028787204	1.4359161327984475	1.7288240509822297	3.759085897800282e-17	2.639470044858596	0.3092354664424981	-0.3788069236369391	0.6880423900794372	112.48449462015756
13	5.0	perception	229	diff_vonmises	-0.0510139279663093	-2.9228827688539227	1.7647207495628578	3.324295296350273	0.2873296302051958	4.084261238838255	0.7407102207582883	-0.4418959933751545	1.1826062141334428	92.0511151008784
14	5.0	wm	229	diff_vonmises	-0.0275814194747013	-1.580298928880322	0.7487320803837546	230.2452117913114	0.7362530872053219	231.0583437651647	0.3113831564264444	-0.3171827803948623	0.6285659368213068	102.52375356267775
15	6.0	ltm	229	diff_vonmises	-0.0191535138862799	-1.097415508529054	0.8921978812812361	1.7107819898249967	9.899746867975656e-22	2.19643870165304	0.1999909423432483	-0.2573027067545629	0.4572936490978113	133.20929663593552
16	6.0	perception	229	diff_vonmises	-0.0495781181854844	-2.840616928229055	1.0037319948848007	2.3049148079023603	1.2552672590645333e-19	2.8006127107715058	0.3435061443775767	-0.3397131258027538	0.6832192701803306	128.4120088707156
17	6.0	wm	229	diff_vonmises	-0.0941274809180323	-5.393107392801445	0.538534259223527	166.473777095455	0.5267264082992226	166.87525823990228	0.2680594042780839	-0.2506150340259712	0.5186744383040551	122.0314760104475
18	7.0	ltm	229	diff_vonmises	-0.0204760652595816	-1.1731921204084776	0.6549719488590839	142.98612028024243	0.6350937679971175	144.19862083032615	0.2099639037629828	-0.3752805107783548	0.5852444145413376	107.06655759855916
19	7.0	perception	229	diff_vonmises	0.0042402833828496	0.242950341776743	0.8761665258540359	343.3168592804409	0.8631071624928088	344.2707029537455	0.5538675162126907	-0.4290881547955223	0.982955671008213	95.98896105826331
20	7.0	wm	229	diff_vonmises	0.1036041264724279	5.936079187009727	0.8606664794356804	84.18546174849774	0.8268321020821264	85.27138112889003	0.2082958280733819	-0.3203909777923561	0.5286868058657381	93.47077411520236
0	1.0	ltm	350	diff_vonmises	-0.0024328185017296	-0.1393902324704466	5.29778703223236	0.398460942649141	1.244477359321319e-15	3.8829846742826817	-0.261686900569071	-0.6179872873967817	0.3563003868277106	59.27971534205247
1	1.0	perception	350	diff_vonmises	-0.0310995165049802	-1.781871040632812	16.202196222550803	0.6114690133465295	0.0024516130677451	4.090722254142725	0.3213445496774294	-0.651649352624247	0.9729939023016764	33.62409218065358
2	1.0	wm	350	diff_vonmises	-0.0035410241828243	-0.2028857408295988	2.8397298967088016	0.683438727229024	0.0645784971631089	4.431975708045871	-0.3178809694264854	-0.6812994311025025	0.363418461676017	74.74418922254952
3	2.0	ltm	350	diff_vonmises	-0.0231326670895303	-1.3254041931112688	2.725708602617705	0.8223493385254731	0.1296110151310343	2.6128427863109867	0.0382959303029884	-0.3841534525016108	0.4224493828045993	76.08229944222444
4	2.0	perception	350	diff_vonmises	-0.0394085200576463	-2.257941876159788	6.6766226235923485	1.2089740424752329	0.1905665858218168	3.00437638611863	0.6476485169025604	-0.4906800909222105	1.138328607824771	50.74093645908295
5	2.0	wm	350	diff_vonmises	-0.0067168298788271	-0.3848460037641659	3.3936889274585407	0.9850554610262788	0.203773106844747	3.030642792171132	0.1063416131113585	-0.4547748435265855	0.5611164566379441	67.34726913802865
6	3.0	ltm	350	diff_vonmises	-0.059249720623346	-3.39475892904696	2.894323151451136	1.0346348446099576	0.1096450726068762	2.7610059186439484	0.1749657860655507	-0.4085298032391087	0.5834955893046594	75.73414798432395
7	3.0	perception	350	diff_vonmises	-0.0362007530134475	-2.074150362866041	3.528035408926776	2.5255398692413293	0.2390406563165018	4.103154653245114	0.994431662329005	-0.5915714332175882	1.5860030955465931	68.31195438662184
8	3.0	wm	350	diff_vonmises	-0.0801219496120713	-4.590649559131532	2.842349056737325	1.1950314794482295	0.1659567859354195	3.1528589687332693	0.1704982020353235	-0.4572229853213099	0.6277211873566334	74.43169448184395
9	4.0	ltm	350	diff_vonmises	-0.0930339571934642	-5.330453098586268	2.180842086519702	1.0309474577425908	2.5798879087925286e-17	3.4174894818060007	0.0163638321114258	-0.5367624723917659	0.5531263045031918	93.05499886471095
10	4.0	perception	350	diff_vonmises	-0.0719205210444213	-4.120742316227163	1.5090683514089744	6.103797233556952	0.471743796283724	8.10628434930668	0.6961270753082365	-0.6904452400937782	1.3865723154020146	89.8103398687118
11	4.0	wm	350	diff_vonmises	-0.1099713612913634	-6.300894869303478	0.7359728138259881	247.547147294898	0.7201625805227517	250.1830832502189	-0.0134809839305631	-0.5813394759914203	0.5678584920608571	93.76425233575895
12	5.0	ltm	350	diff_vonmises	-0.0480436966136055	-2.7527010481665646	0.5967925432998462	210.39109733964665	0.5824063185450754	211.9593377883209	0.1610294865569486	-0.4437854171387698	0.6048149036957184	110.2751466310863
13	5.0	perception	350	diff_vonmises	0.000180769099134	0.0103573064467643	0.8175708640116156	284.7107294550989	0.7989820406183947	286.2132405762092	0.554695962085944	-0.5589056153246048	1.1136015774105488	98.03979295670686
14	5.0	wm	350	diff_vonmises	-0.0661418141684418	-3.7896468011903086	0.5976470845066104	309.2105807082864	0.5874436996818657	310.90594672844946	0.1505134735209026	-0.4662981193758639	0.6168115928967666	109.5027720337717
15	6.0	ltm	350	diff_vonmises	-0.1114144520225234	-6.383577877653391	0.7609572752593771	2.2207307994858616	1.978232319301736e-15	3.742024473096123	0.0621825353638479	-0.4519754710148516	0.5141580063786996	139.064677283104
16	6.0	perception	350	diff_vonmises	0.0225555676248936	1.2923388294283265	0.5658379467892309	57.860433422233925	0.5014730560914253	59.378583916886576	0.3243881532257084	-0.545216145207613	0.8696042984333214	118.69022311380198
17	6.0	wm	350	diff_vonmises	-0.0670814452207445	-3.8434836947866864	0.4221402462641956	306.37667334805354	0.413148193252679	308.0251229178339	0.127132658337203	-0.4995010005435283	0.6266336588807313	128.79166166931213
18	7.0	ltm	350	diff_vonmises	-0.08881137166614	-5.0885167692375655	0.720875446958384	200.42964461501447	0.704595053664497	202.57319038654907	0.0104293731983773	-0.4821087974491789	0.4925381706475562	95.47038308225676
19	7.0	perception	350	diff_vonmises	0.1226139813579081	7.02526364110389	0.7907418156089577	16.365187074189297	0.5233496193130363	18.44481438774502	0.3085835356469406	-0.615468907878485	0.9240524435254256	105.81775188537608
20	7.0	wm	350	diff_vonmises	0.0710955063074506	4.073472453762643	0.7823284754154731	168.2603271107729	0.762988680229832	170.49674719091615	-0.0418665097361667	-0.4810841186841408	0.439217608947974	89.93357775840704
0	1.0	ltm	396	diff_vonmises	-0.0338447344154119	-1.9391604407442744	5.047697055547379	0.3152629061382702	3.6705636062194665e-18	2.7316495373546283	-0.1599937810195953	-0.4347441874028464	0.2747504063832511	60.7639533585093
1	1.0	perception	396	diff_vonmises	-0.0369431756771829	-2.116688048112942	15.35103103603997	0.6625229099383316	0.0137752800264966	3.2388855952655837	0.5042368190312518	-0.5185463522605448	1.0227831712917967	34.488192550686335
2	1.0	wm	396	diff_vonmises	-0.0167300083645468	-0.9585588705070964	4.100782968251459	0.4033792941657368	3.5244640992617474e-18	3.044094405111975	-0.1701067797249476	-0.4843964622700684	0.3142896825451208	67.59099571737801
3	2.0	ltm	396	diff_vonmises	0.0148898069332807	0.8531230950416169	3.4217855114552984	0.5895998403165066	0.1224545465910408	1.8413218393340764	0.0859031523490154	-0.2787836498420087	0.3646868021910242	69.36254035393063
4	2.0	perception	396	diff_vonmises	-0.0280132810061503	-1.60504277196641	7.0852220826428205	1.2617830933427376	0.3040970836404135	2.512975887060898	0.7845127780298448	-0.4226919945715744	1.2072047726014192	48.89534662558373
5	2.0	wm	396	diff_vonmises	-0.0014212792157918	-0.0814333005745389	3.63251859394167	0.7518983029914951	0.2080512004138999	2.210038843221591	0.1198497745735029	-0.3344286538538554	0.4542784284273583	65.61717282531058
6	3.0	ltm	396	diff_vonmises	0.0115823746048188	0.6636211815956232	2.9313609238892995	0.8684996730407435	0.30125302743244	1.844835374862436	0.1733514183095763	-0.2571338909742507	0.430485309283827	71.13461488038828
7	3.0	perception	396	diff_vonmises	-0.0222107296854608	-1.2725810708828396	4.268022106775703	2.132266318206488	0.3098057455022676	3.027997058439251	1.056722936265183	-0.4489334148118316	1.505656351077015	62.32942653690685
8	3.0	wm	396	diff_vonmises	-0.0684744905237372	-3.9232993113186936	3.218876168501849	0.8904885097555083	0.2563041414907965	2.112360002290277	0.1796153469194972	-0.3065467912591565	0.4861621381786538	68.90879938792315
9	4.0	ltm	396	diff_vonmises	-0.1422941785596334	-8.152855880747921	2.088515676654412	1.1904107088641358	0.259390528115904	2.8069285325984823	0.0609511572706883	-0.3656837960945793	0.4266349533652677	80.85382977080653
10	4.0	perception	396	diff_vonmises	-0.0624582396372596	-3.5785935270316864	2.26895302406911	2.85517581672025	0.237065222959828	4.379187040249682	0.7176422323277282	-0.5588006736021981	1.2764429059299265	82.87600953003141
11	4.0	wm	396	diff_vonmises	-0.1127970765367264	-6.4627964269685485	0.9470096262542176	404.2930766330472	0.9380924476652432	406.1871970859369	0.059936155591231	-0.4450310820958947	0.5049672376871257	83.68331760741924
12	5.0	ltm	396	diff_vonmises	-0.0133809804216298	-0.7666737039065753	1.1779904881427152	2.48917221358786	0.3117147218355826	3.4022130848450867	0.211703228158949	-0.2999396634466544	0.5116428916056035	103.24270578008095
13	5.0	perception	396	diff_vonmises	-0.0055668710184428	-0.3189582144504689	1.6332400609009607	3.3938543256701803	0.3279843607483919	4.230948809840683	0.6378944604506964	-0.4251914934255615	1.063085953876258	93.31632782695388
14	5.0	wm	396	diff_vonmises	-0.0049067181734231	-0.2811342425972859	0.9897348076385212	3.305718127974037	0.312121881408624	4.321359892523423	0.2059330379921828	-0.3361726882778626	0.5421057262700455	109.61009750889583
15	6.0	ltm	396	diff_vonmises	-0.1329225370890198	-7.615900377371988	0.4017460192503505	155.07345908628534	0.3901068835403214	155.8414724147403	0.1569435571958024	-0.3017854943702609	0.4587290515660633	133.33633436259652
16	6.0	perception	396	diff_vonmises	0.0131013450534506	0.7506517775073203	0.9036558631164456	5.263314414796829	0.3233908829025316	6.104468237198653	0.3941683024572042	-0.4057459549493818	0.7999142574065861	115.0140015829116
17	6.0	wm	396	diff_vonmises	-0.0494729209293376	-2.8345895694354835	0.4234111276251066	176.09707352736916	0.4106944551266563	176.943119980188	0.2175761485188019	-0.3565496100846843	0.5741257586034862	131.59116004258505
18	7.0	ltm	396	diff_vonmises	0.0106454671569247	0.6099403390369182	0.8711965279635651	190.592832456306	0.8562543668086303	191.9290738004988	0.1230827574170803	-0.3416818155526187	0.464764572969699	89.90219393632182
19	7.0	perception	396	diff_vonmises	0.0632061310812525	3.621444550306425	1.6440180016003765	1.9924476222869985	0.0211606533087945	3.289243912313315	0.3777976055499462	-0.4784201916420649	0.8562177971920112	104.92820834922256
20	7.0	wm	396	diff_vonmises	0.1121512271596221	6.425791983459319	0.7432599475784247	131.11273136074314	0.7254609115858195	132.49718237687756	0.0446441120513299	-0.3260790858242792	0.3707231978756091	95.4750225202257
0	1.0	ltm	327	diff_vonmises	0.0374395700171444	2.145129348766916	3.977107367412175	0.3374132982392265	2.784905375200708e-18	3.7565390171033823	-0.3392642409041917	-0.5977809336664406	0.2585166927622488	68.66311384438285
1	1.0	perception	327	diff_vonmises	0.0169768376435767	0.9727011464557684	11.668958274106066	0.7652849264004143	0.0482910545753807	4.157836680948308	0.3372036525516646	-0.6745022821618729	1.0117059347135375	39.26077432263364
2	1.0	wm	327	diff_vonmises	0.0762700604454103	4.369952566729693	4.035900264285883	0.4302915449255747	7.936306711112828e-22	3.948397527799704	-0.29598541000704	-0.6283031775085608	0.3323177675015208	68.15152568089977
3	2.0	ltm	327	diff_vonmises	-0.011519981946206	-0.6600463455845118	3.486158408292954	0.5772878533473794	0.0622557695224619	2.418576270718252	0.0021850238328466	-0.3735439285511019	0.3757289523839485	70.0147123067346
4	2.0	perception	327	diff_vonmises	-0.0170628790496843	-0.9776309558891036	6.876518431478239	1.3105873107443424	0.186210788309386	3.1384541224616416	0.7476786851566529	-0.5131931776741586	1.2608718628308115	50.13245831221187
5	2.0	wm	327	diff_vonmises	0.0522671272499832	2.994685798697259	3.952120407442317	0.7294033488162116	0.1255328057555365	2.713542785426171	0.0694151027456946	-0.4198582811060787	0.4892733838517734	64.43928314179183
6	3.0	ltm	327	diff_vonmises	0.0010801466238679	0.0618878428029381	3.2573329751633686	0.5924329114109442	1.199549531055819e-17	1.7672905838181052	0.1252521347699647	-0.280670742348126	0.4059228771180907	76.06632352141989
7	3.0	perception	327	diff_vonmises	-0.0023326306262624	-0.133649890047798	3.819919131116696	2.0562907624326328	0.1769110583464833	3.168407385921666	0.944425865678684	-0.4684998468485565	1.4129257125272408	66.96740189436
8	3.0	wm	327	diff_vonmises	-0.0612847314109756	-3.511356458441729	3.191461836474633	0.8103806776142731	0.1130738251690234	2.117686665103172	0.173470429957032	-0.3165162703851532	0.4899867003421851	72.47466656641569
9	4.0	ltm	327	diff_vonmises	-0.0175400106984617	-1.00496858563617	2.5984635736561423	0.5792690050542824	0.0058562195810338	2.9211837724313927	-0.118436336013057	-0.4602697777993673	0.3418334417863103	84.58161593706376
10	4.0	perception	327	diff_vonmises	-0.0775060821953519	-4.440771396387722	1.406271748371066	7.77758964445535	0.608733397444265	9.830965582248789	0.613119682487544	-0.6699282186365312	1.2830479011240752	87.76554485865734
11	4.0	wm	327	diff_vonmises	-0.0297538670754056	-1.704771007614002	0.7258100097364891	235.31705840288728	0.7126684033640648	237.82518877595012	-0.1299068107247052	-0.5086905119232625	0.3787837011985573	90.48181063496958
12	5.0	ltm	327	diff_vonmises	-0.0538506080447832	-3.085412565179321	1.2592597533154797	1.5445803527533626	0.0842919580100119	3.154432684364915	0.0572104473601035	-0.4120973631733469	0.4693078105334504	111.26049224898392
13	5.0	perception	327	diff_vonmises	-0.0297435197521183	-1.704178149660381	1.6834143486505944	3.862395663094268	0.3228791532501474	5.367761781584492	0.6447603791388115	-0.5649778501504168	1.2097382292892285	91.09344492895568
14	5.0	wm	327	diff_vonmises	0.0100193217311889	0.5740648487808376	0.5595036569911219	280.62501394224813	0.5497271333017842	282.3281878245621	0.0805400210403064	-0.4403653690759519	0.5209053901162584	111.65984785438926
15	6.0	ltm	327	diff_vonmises	-0.059380823975379	-3.402270597798469	0.4127842824690412	184.0978017745513	0.4022206096754559	185.71440512948857	-0.0122410929697451	-0.4024175691661504	0.3901764761964053	126.7016871489456
16	6.0	perception	327	diff_vonmises	-0.0773463274098563	-4.431618121421804	0.3949824591205937	266.3612536160004	0.3826047547487971	267.86118615066016	0.2658022423773118	-0.565028827766465	0.8308310701437769	133.93394164150962
17	6.0	wm	327	diff_vonmises	-0.0527120166651835	-3.020176084538275	0.4812979697431208	279.4270572169518	0.4720655349378695	281.11542002949324	0.0725631622430142	-0.4555314120065681	0.5280945742495824	120.50899352347264
18	7.0	ltm	327	diff_vonmises	0.1036318649802078	5.937668486435503	0.6172526527904449	130.94666831726866	0.5976089037495556	133.04960634388658	-0.0702962331404464	-0.4459015087388671	0.3756052755984207	100.92773586370733
19	7.0	perception	327	diff_vonmises	0.0685393271844055	3.927014178332711	0.8073501678761436	400.0980853344057	0.7945252169885505	401.98436045409454	0.4091162580072733	-0.5819722135250558	0.9910884715323292	96.49614741743744
20	7.0	wm	327	diff_vonmises	0.0803672028009298	4.604701531765249	0.7724704785301333	95.85549945043878	0.7411168944169311	97.99006493578992	-0.0503739002433754	-0.4552645808608702	0.4048906806174948	90.5675125747684
0	1.0	ltm	85	diff_vonmises	-0.2165562961780538	-12.407761797987524	2.6969069893932	0.4156023080052249	6.480418853404067e-18	1.2370925962850623	0.0591205001183267	-0.19572577838347	0.2548462785017968	83.72749921308608
1	1.0	perception	85	diff_vonmises	-0.0623805448075963	-3.574141941201993	14.819254755097688	0.7563364536393489	3.485047756977377e-15	1.8437718349532075	0.8575242994564962	-0.2934454014662614	1.1509697009227575	35.198937606471475
2	1.0	wm	85	diff_vonmises	0.0267522759044359	1.5327925016937094	3.690309419308121	0.4449108894375395	1.0838870975614644e-28	1.3541595703786058	0.1117127390725047	-0.2153172021887585	0.3270299412612633	71.35804933819585
3	2.0	ltm	85	diff_vonmises	-0.015319697528073	-0.877754011775587	3.6708176587643058	0.5435745520911586	0.3700210604899958	0.903062193374548	0.1975413068538423	-0.1295161165232708	0.3270574233771133	65.15484418921025
4	2.0	perception	85	diff_vonmises	-0.0314186404808771	-1.8001554975931375	7.187059354659554	1.2620031554591982	0.4711424744100888	1.4744454665231088	0.9686191044489956	-0.2504763165749986	1.2190954210239942	48.61995121018725
5	2.0	wm	85	diff_vonmises	-0.005931149176438	-0.3398298154723971	4.414839978763418	0.5054434631674773	0.323936025621411	0.8632958934035696	0.2248869130391626	-0.130937585349264	0.3558244983884266	60.668552325227125
6	3.0	ltm	85	diff_vonmises	0.0141711562616109	0.8119474446106996	1.519818781641426	22.764086649570004	1.4544485406816183	22.892866618280276	0.2062563261653682	-0.0987112743295375	0.3049676004949058	75.0700745794887
7	3.0	perception	85	diff_vonmises	-0.0244130040076696	-1.3987620948754351	4.297925837253057	1.8562390276340976	0.5273867975597676	1.8166865876064875	1.02629682259908	-0.2539129608595383	1.2802097834586184	61.496664176778864
8	3.0	wm	85	diff_vonmises	-0.1121450164114337	-6.425436133800509	1.672916083307255	91.40631817811756	1.6510382148074192	91.57127883520344	0.2619123045709912	-0.1274221548124341	0.3893344593834253	70.78796502430055
9	4.0	ltm	85	diff_vonmises	-0.1856323545154385	-10.6359504548109	1.5668244327705814	103.00019173538637	1.544294834144277	103.45226884909926	0.2018633870847637	-0.1795302361313009	0.3813936232160646	70.16262139674879
10	4.0	perception	85	diff_vonmises	-0.1021846706962976	-5.8547503618319965	2.8545054756894768	2.170659959168157	0.2174831564252367	2.6578098124966827	0.8621829790579625	-0.3581060899078229	1.2202890689657853	76.57014516119622
11	4.0	wm	85	diff_vonmises	-0.1455813045867084	-8.341194328826928	1.382169974642855	195.39750093120765	1.368487612546199	196.06002122549907	0.2078602497675206	-0.2271052919809051	0.4349655417484257	73.80751823884495
12	5.0	ltm	85	diff_vonmises	0.011835595473495	0.6781296686554051	0.6981706119832106	53.53193850701571	0.6694595472312181	53.6629955614514	0.2561765709235608	-0.1554005798445557	0.4115771507681165	111.1756612401372
13	5.0	perception	85	diff_vonmises	-0.0061036506074576	-0.3497134194297853	2.170091813709092	2.0360036375568065	0.1780995041512464	2.014642462406761	0.7230761062198136	-0.2536791583273807	0.9767552645471944	88.49831502247915
14	5.0	wm	85	diff_vonmises	0.0500915938602923	2.8700369172781794	0.7346578200602308	79.75425905429958	0.714907101325372	79.83404533282167	0.2775843643443849	-0.14884257558721	0.426426939931595	108.783291162023
15	6.0	ltm	85	diff_vonmises	-0.1519075520942147	-8.703661611162193	0.4083145813321651	108.11018394438796	0.3968291938508471	108.1908739721632	0.2095515049742076	-0.160284256202253	0.3698357611764606	135.90013249159318
16	6.0	perception	85	diff_vonmises	-0.0095122905256237	-0.5450141006205221	0.6453655467768723	182.43115573142657	0.6300948350802751	182.52833815656692	0.5026143052559746	-0.2841093295079524	0.786723634763927	115.68127050262952
17	6.0	wm	85	diff_vonmises	-0.1236153900243292	-7.082640131257646	0.8354455972428877	2.5906671206399965	0.1511315093298086	2.5903129579416526	0.3273795121862997	-0.2011710861223572	0.5285505983086569	128.58862706609835
18	7.0	ltm	85	diff_vonmises	0.1523276053696282	8.727728891014037	0.9758578838925658	110.21464702388482	0.9578111594800774	110.61356886315995	0.2441365387955087	-0.1786454866347853	0.4227820254302941	91.11800557708082
19	7.0	perception	85	diff_vonmises	-0.009004836886983	-0.5159391488278503	2.331305487048545	1.4431804795061085	2.3368161998595428e-21	1.7856109379696463	0.5319146951297176	-0.2764820568706596	0.8083967520003772	90.07284035002569
20	7.0	wm	85	diff_vonmises	0.1824541853900232	10.45385477734582	1.6035283825066344	1.0218709845157294	0.1887545101430554	1.3461942008463437	0.204435474816527	-0.1572961746201626	0.3617316494366896	98.6439405245324
0	1.0	ltm	494	diff_vonmises	-0.0213521782988339	-1.2233896999340104	6.295785782072591	0.2320008219178284	0.0294327705861597	2.2245133074652617	-0.1373234656369981	-0.3545909316149946	0.2172674659779965	52.93682733444217
1	1.0	perception	494	diff_vonmises	-0.0270977415054979	-1.5525862226015104	14.242065419475184	0.6303208668470458	0.0687525633711999	2.7730722870402587	0.4677677491076804	-0.4563869119964211	0.9241546611041016	35.561343780752935
2	1.0	wm	494	diff_vonmises	0.0166958561804577	0.9566020944976372	5.654300716572482	0.3348997052840872	0.0574176297894668	2.562988123535998	-0.1216853397767126	-0.4090139081749828	0.2873285683982701	55.03382804330053
3	2.0	ltm	494	diff_vonmises	-0.0477222506108123	-2.7342835488651627	4.140727955615343	0.4802401537389651	0.116479400027908	1.6559123876989623	0.0811384856892192	-0.2568243561982623	0.3379628418874816	63.587370952790025
4	2.0	perception	494	diff_vonmises	-0.0234990822978079	-1.3463982380949793	7.927897671898369	1.1294171938919615	0.3129928996109156	2.4703056451964858	0.7224586708191464	-0.4258766462857743	1.1483353171049206	46.23666667229645
5	2.0	wm	494	diff_vonmises	0.0407584879431413	2.3352893384768514	4.309964534712932	0.543525841162203	0.2016958552264328	1.957697675454823	0.0578011171010245	-0.3073369174171798	0.3651380345182043	60.413760888279086
6	3.0	ltm	494	diff_vonmises	0.0422636327999961	2.421527786330453	1.4891297834943231	133.01414204014847	1.4687766877670458	133.79452821609166	0.1418722974918722	-0.2422723210414297	0.3841446185333019	69.36722682978083
7	3.0	perception	494	diff_vonmises	-0.0250788491439685	-1.4369122109946737	4.698288155364151	1.8966815898839289	0.4012527404747231	2.7425728534571707	0.9641328115064508	-0.4174304613397095	1.3815632728461604	58.82172532586799
8	3.0	wm	494	diff_vonmises	-0.006797409842232	-0.3894628955805811	2.305348249345733	1.285214368127882	0.6496542502516159	2.387757456416193	0.0654147598269463	-0.2763791027719643	0.3417938625989106	69.3194775698957
9	4.0	ltm	494	diff_vonmises	-0.1077852121064337	-6.175637747621041	1.123635293455406	206.9603558508713	1.1102299037505725	208.25363100634107	0.0496049876604161	-0.3156230031042781	0.3652279907646942	76.80547653302062
10	4.0	perception	494	diff_vonmises	-0.0857258256769252	-4.911728006562039	2.527313140693628	2.298438045957177	0.2915593099953398	3.63528276951414	0.6050463161563661	-0.46884038299703	1.073886699153396	77.74972651997933
11	4.0	wm	494	diff_vonmises	-0.154937549683391	-8.87726768495681	1.1060614632013015	292.82948972300363	1.0955565665611189	294.3592791025693	0.0256015521263179	-0.3624580660905607	0.3880596182168787	76.52516709207501
12	5.0	ltm	494	diff_vonmises	0.0656307903587601	3.760367293664853	1.515279871019221	2.109987882341171	0.4160575332027817	3.1067906416933684	0.2013966272218107	-0.2908819067903304	0.4922785340121411	89.73096792624116
13	5.0	perception	494	diff_vonmises	-0.0524856444386642	-3.007205911359744	2.5681727788839197	1.982425867508604	0.1269994719416571	2.994739561408593	0.6479441944275264	-0.4205213765911577	1.068465571018684	81.55493660316517
14	5.0	wm	494	diff_vonmises	0.0015712775093316	0.0900275697285298	0.7153138405192266	81.41868089059298	0.6860734755611714	82.5427258244732	0.1369032424229743	-0.3113118193920963	0.4482150618150706	101.27115168510524
15	6.0	ltm	494	diff_vonmises	-0.1470943561456133	-8.427885797337868	0.5270124704499721	114.05248864720043	0.5104052088523114	114.9317013194608	0.1363437767026667	-0.2889019496542673	0.425245726356934	119.12327859838246
16	6.0	perception	494	diff_vonmises	-0.06524470171179	-3.7382460436755447	1.270505728743859	1.9443453302090627	0.0718877897124271	2.999351886363585	0.2500696793857625	-0.3836120431300915	0.633681722515854	113.5735378177411
17	6.0	wm	494	diff_vonmises	-0.172413444059795	-9.878562675941168	0.5622610920814323	116.39467805850752	0.5451797752520818	117.313059100242	0.140004893109122	-0.2924824054540273	0.4324872985631494	115.37138935438446
18	7.0	ltm	494	diff_vonmises	0.0255759415892985	1.4653935101399238	0.92736630995126	233.579014517318	0.914997327941986	234.7095106968557	0.1815488044047981	-0.3166831447429068	0.4982319491477049	88.66455854286883
19	7.0	perception	494	diff_vonmises	-0.1206059063854318	-6.910209420235152	1.7874420215834697	2.103489415018897	0.1360198925168996	3.1544726868906228	0.4410883202527312	-0.4081977439362762	0.8492860641890074	95.55318185293598
20	7.0	wm	494	diff_vonmises	0.2030989488882554	11.636712594840256	2.4027107629555933	0.948749692352836	0.2454135894413777	2.0057809597180145	0.1442553489444952	-0.2688511913196146	0.4131065402641099	78.4082116133209
0	1.0	ltm	183	diff_vonmises	-0.0463026560119001	-2.652946769727925	5.779489703983083	0.4080784989048002	0.0038289696418943	3.0457047987132158	-0.1045368260634014	-0.4839979309727703	0.3794611049093689	56.47055432204604
1	1.0	perception	183	diff_vonmises	-0.0547402576212165	-3.136385731154549	16.907503644643484	0.6599988282232164	0.0056853075786049	3.4449392746514045	0.5229843470983869	-0.5496110342385588	1.0725953813369458	32.898404093932726
2	1.0	wm	183	diff_vonmises	-0.0324490682292479	-1.8591946586679555	4.292288677966534	0.4715935850474952	9.402032241458474e-21	3.376855101227326	-0.160690246243687	-0.5373727391978703	0.3766824929541833	66.02620621331278
3	2.0	ltm	183	diff_vonmises	-0.0506841783405689	-2.9039895070029824	2.595540690252347	0.9036467293579452	0.2374391728406541	2.1580678304616967	0.1149603031960835	-0.2994173209946104	0.4143776241906939	75.45480971736788
4	2.0	perception	183	diff_vonmises	-0.0502640410039063	-2.8799174107963488	7.000690878262363	1.1689743883288393	0.2527825191821902	2.414464956655969	0.7232270739079345	-0.4005875715364361	1.1238146454443707	49.4436794384537
5	2.0	wm	183	diff_vonmises	-0.0352364701542622	-2.0189010247779127	3.352974760302644	0.9628164626496756	0.2793624036340699	2.386805897225325	0.1788568763806631	-0.3502887322217257	0.5291456086023889	67.0275839901258
6	3.0	ltm	183	diff_vonmises	-0.0713971617148056	-4.090756035471386	2.34606561623938	1.3224282128321414	0.3383756929254529	2.3876784270935394	0.2325937719475247	-0.3005260764929949	0.5331198484405197	77.6998400042896
7	3.0	perception	183	diff_vonmises	-0.0424131795054084	-2.4300961813906667	3.7349829208299647	2.375465827536582	0.3536337139183909	3.320808901364296	1.029087721767655	-0.4709192125217409	1.500006934289396	65.65949832363751
8	3.0	wm	183	diff_vonmises	-0.1037637354798355	-5.945224109506455	2.3569328562938483	1.6386795157354217	0.4611060953116306	2.875137706670805	0.2441902561732459	-0.3459425620731191	0.5901328182463651	74.64877508271377
9	4.0	ltm	183	diff_vonmises	-0.1722546097206686	-9.869462138667476	2.1921977402191293	1.346590253742204	0.1994839101802584	2.797811348444427	0.195889596111554	-0.3731002210393723	0.5689898171509263	83.01802131707956
10	4.0	perception	183	diff_vonmises	-0.0847586372889608	-4.856312193937618	2.178913577727363	3.20001276785164	0.2738450556471906	4.46547158151371	0.8208928054399507	-0.5430057318812795	1.3638985373212302	83.9362272286642
11	4.0	wm	183	diff_vonmises	-0.157432043352119	-9.02019164419703	0.966315188478232	420.9017020061032	0.957117461156924	422.5885577946445	0.1718801486449876	-0.4369125566667975	0.6087927053117852	85.24587939877347
12	5.0	ltm	183	diff_vonmises	-0.0326136420465115	-1.868624043815518	0.622436446759886	229.47608105373664	0.6106365169424361	230.40105857094085	0.2657952490963851	-0.3474280886797984	0.6132233377761835	111.6043809862698
13	5.0	perception	183	diff_vonmises	0.0084463318386964	0.4839391667242762	1.3673632281243686	4.752727262846185	0.4443436275421251	5.638450987665894	0.6139802741233351	-0.436390718003172	1.0503709921265072	95.87010965102772
14	5.0	wm	183	diff_vonmises	-0.0662373221539794	-3.795119005671408	0.6689377693036371	239.62075578038747	0.6574102544263747	240.5859653448374	0.2586191947769549	-0.3408643879323669	0.5994835827093219	107.22949014743074
15	6.0	ltm	183	diff_vonmises	-0.1211675793145293	-6.942390908539188	0.3320073786494891	110.0737315627836	0.3145896729322103	110.8470936406264	0.1807479791940736	-0.3372023800815924	0.517950359275666	141.8489763651192
16	6.0	perception	183	diff_vonmises	0.0441267639847741	2.5282773398974387	1.094361523860966	3.460131977882841	0.1746114518476637	4.314049753984776	0.432407039660732	-0.4328402279033653	0.8652472675640973	115.2755026664252
17	6.0	wm	183	diff_vonmises	-0.1245943407868221	-7.138729878299599	0.4239393833582251	210.0582593805348	0.4122076969200905	210.85518590459108	0.2701787526600441	-0.3783973264822116	0.6485760791422557	131.98525470757937
18	7.0	ltm	183	diff_vonmises	0.0014834293140104	0.0849942388987871	0.7625102498000631	195.22066203563867	0.7481875732384821	196.3750763863891	0.1947150014049725	-0.337445965128186	0.5321609665331586	98.5225573079031
19	7.0	perception	183	diff_vonmises	0.0664226978767489	3.805740252210291	1.622524088959047	2.2477678347819814	0.107921731915131	3.371441474210599	0.4251777335361452	-0.4404965079646853	0.8656742415008305	101.07095291876234
20	7.0	wm	183	diff_vonmises	0.1381668161988538	7.9163754369541	0.8147696042903989	131.20185618746618	0.7947814829407555	132.3520670634449	0.1526861356020106	-0.3146151478474532	0.4673012834494638	94.47403039995422
0	1.0	ltm	62	diff_vonmises	-0.0606214539769241	-3.4733534608243124	2.390175911793524	0.2649619664992837	2.4142152033122084e-22	2.5768537310504804	-0.2580546097012339	-0.408842517261841	0.1507879075606071	88.96276643380676
1	1.0	perception	62	diff_vonmises	-0.0059365786748606	-0.3401409028168835	13.12542328857252	0.792677030934556	0.0723335683836667	3.2050784441208005	0.5864570821696748	-0.5270264502497769	1.1134835324194516	37.01999003832776
2	1.0	wm	62	diff_vonmises	0.056119819936669	3.2154288294052717	5.966702529890287	0.2617249033426085	1.8250354221551848e-16	2.7216884244849746	-0.1839684350591224	-0.4331685295877576	0.2492000945286352	55.78797924368473
3	2.0	ltm	62	diff_vonmises	-0.0264107352349442	-1.513223662799763	4.112247294405846	0.355388745679663	8.024258070498097e-22	1.8250164042709756	-0.0131059961505905	-0.2903860267666521	0.2772800306160616	67.50206645001347
4	2.0	perception	62	diff_vonmises	-0.0235221878577093	-1.3477220891606174	8.525033312617273	1.2480415571487975	0.2427322014013939	2.767355680486697	0.877680211786241	-0.4709595376236724	1.3486397494099134	45.07081752629455
5	2.0	wm	62	diff_vonmises	0.0409603745712424	2.34685659020717	4.415732910816703	0.4451530595726581	0.0604536977688636	2.120230551891273	0.0029501873234848	-0.3327797135002552	0.3357299008237401	62.55195085690568
6	3.0	ltm	62	diff_vonmises	0.0607227496419873	3.479157274915405	2.571626010406121	0.6666304457289756	0.4472989797823187	1.2382205182049322	0.1060415697644322	-0.1571308233825663	0.2631723931469986	72.24189223694859
7	3.0	perception	62	diff_vonmises	-0.0060942581203666	-0.3491752695603409	4.211711045780413	2.0087450883095475	0.3657631941861388	2.524703118417469	1.0279087822456057	-0.3673297790740569	1.3952385613196627	62.52976905757117
8	3.0	wm	62	diff_vonmises	-0.0991723288493245	-5.6821558875497935	3.3647351929989666	0.6176619498518289	0.2939801774772253	1.3874815771122295	0.1416068975574258	-0.2017429390655754	0.3433498366230013	67.19670800698833
9	4.0	ltm	62	diff_vonmises	-0.0028376494548655	-0.1625853375013934	1.0392630464023382	126.5511945472086	1.01995394833265	128.06296372460525	-0.0612833602528795	-0.3284327660763146	0.2671494058234351	76.03905970593539
10	4.0	perception	62	diff_vonmises	-0.0883957811740231	-5.064705188033502	2.1392824596296034	3.5109308323147754	0.5036845949301713	5.004520219585029	0.6479583808035452	-0.5327249464178924	1.1806833272214377	78.61588393229079
11	4.0	wm	62	diff_vonmises	-0.0953701131823188	-5.464304977031848	0.9725826863044402	231.52438649647715	0.9616043114826208	233.2367224904252	-0.0905813500998817	-0.3606344816583586	0.2700531315584769	77.55878779885279
12	5.0	ltm	62	diff_vonmises	0.0711780771106889	4.078203412299208	2.1942509793969043	0.7007575204705551	0.0685010177415133	1.9685863963801769	0.0471127553427859	-0.2891233524907713	0.3362361078335572	87.51923790251647
13	5.0	perception	62	diff_vonmises	-0.0266656081127986	-1.5278268030131728	2.72803458896393	2.038741241887151	0.0701668996874391	3.2118345336658014	0.7165519090320055	-0.4738432517045675	1.190395160736573	80.77679690345573
14	5.0	wm	62	diff_vonmises	0.0110636262501137	0.6338990902416693	0.5153877229895837	75.50160852197227	0.4896769902329068	76.98352772187485	0.0001560546565926	-0.3546976725217954	0.354853727178388	114.86795532949252
15	6.0	ltm	62	diff_vonmises	-0.1686410493225712	-9.662420378840883	0.4606288448614565	128.15345540295186	0.4489387787503278	129.472214501706	-0.0349890814411679	-0.3031196465226209	0.2681305650814529	118.85877115763208
16	6.0	perception	62	diff_vonmises	-0.0899262153876379	-5.152392609296056	0.3356766348282909	81.32665210220924	0.3036140084752874	82.63521784135652	0.1933215834567647	-0.4905328928276908	0.6838544762844556	141.68430912290938
17	6.0	wm	62	diff_vonmises	-0.1446017622111336	-8.285070684852272	0.4346194680203306	154.54721020133542	0.4227574944893309	155.99095622342895	0.0028113527935289	-0.3637168926406549	0.3665282454341838	124.40200044016927
18	7.0	ltm	62	diff_vonmises	0.2183212167224855	12.508884296359394	0.819568853699314	145.96739527901036	0.8054055030369163	147.11681536167302	0.0445433603172205	-0.271655520777541	0.3161988810947616	90.8109818327944
19	7.0	perception	62	diff_vonmises	-0.0097492376385057	-0.5585901701564703	1.1120970378779091	5.239563903296382	0.4915906355535749	6.262603216081765	0.3654791875080352	-0.3788488870604958	0.744328074568531	99.29664565914756
20	7.0	wm	62	diff_vonmises	0.119003677832926	6.818408486361216	0.8413758646983945	30.13019704673462	0.7764353848446807	31.35014287354888	0.0086692374008023	-0.274004494823667	0.2826737322244694	89.43217727035531
0	1.0	ltm	160	diff_vonmises	-0.0146050599973503	-0.8368082973835252	4.932706343719187	0.3053043523763497	1.0057645931881638e-14	2.605721942687141	-0.1518847908462112	-0.4146998755125195	0.2628150846663083	61.484577890967415
1	1.0	perception	160	diff_vonmises	-0.0307984570542496	-1.7646216047234222	14.189722897286863	0.6703444758944243	0.0103475875945061	3.149674586702474	0.4916069218967094	-0.5032072255304179	0.9948141474271271	35.89929027450691
2	1.0	wm	160	diff_vonmises	-0.0115757201425736	-0.6632399089940471	4.4223468627670135	0.3915238196893141	5.883468204327927e-18	2.888661696757079	-0.1418927233496127	-0.4596989643062564	0.3178062409566436	65.02613245494018
3	2.0	ltm	160	diff_vonmises	0.025665533175475	1.4705267299077167	3.0486743794139923	0.7581392352016526	0.263201954138291	1.9670177000321376	0.1007155192104277	-0.2841179093547103	0.384833428565138	69.66581327223528
4	2.0	perception	160	diff_vonmises	-0.0197991245403641	-1.1344062742167624	6.816255227719306	1.3148933463527104	0.3163634935609821	2.5140011694106046	0.8069175160754436	-0.4205476947054253	1.2274652107808688	49.75550206683769
5	2.0	wm	160	diff_vonmises	0.0151934298147407	0.8705194047128777	3.7698389859136343	0.7025389976872118	0.1933066602895796	2.089610530520318	0.1231353578108954	-0.3183429412201358	0.4414782990310312	64.89991594472218
6	3.0	ltm	160	diff_vonmises	0.0429601160395421	2.4614333364580387	3.104790153266001	0.7817029375262023	0.2608307254839263	1.731913275520223	0.1702450494888148	-0.2476165190116241	0.417861568500439	70.21310476135716
7	3.0	perception	160	diff_vonmises	-0.0143827695797389	-0.8240719946281927	4.588176128687027	1.976183324172038	0.260108952453368	2.8679569434533896	1.05438048280188	-0.4343135715887031	1.488694054390583	60.75375663348882
8	3.0	wm	160	diff_vonmises	-0.0423457367394497	-2.4262319955425427	3.543117656033335	0.7687217995700361	0.1936301845634173	1.9462619003256705	0.1803820620682297	-0.2909014352669513	0.4712834973351811	67.31226128990781
9	4.0	ltm	160	diff_vonmises	-0.1508319972947528	-8.642036860517987	2.288935214171606	0.965775536715066	0.1980214362670021	2.645984490126489	0.0318895576170785	-0.3661788839698895	0.3980684415869681	79.45189245824955
10	4.0	perception	160	diff_vonmises	-0.05128351923189	-2.9383292105652883	2.2868998237656517	2.6435006551007945	0.1769198010434201	4.320688802835879	0.663638912914087	-0.5766946090185876	1.2403335219326743	83.97816781727002
11	4.0	wm	160	diff_vonmises	-0.094369952790213	-5.407000007728037	0.945068688639284	350.0134711886662	0.9347865585440576	351.9715830406962	0.0389853519158549	-0.4524431329746008	0.4914284848904557	83.27300875372359
12	5.0	ltm	160	diff_vonmises	-0.0227832937513222	-1.3053865753575482	1.737401117328974	1.1683186592275765	0.0299491948426512	1.9073457697991052	0.2406127256869523	-0.2774043917824824	0.5180171174694348	101.92164042512762
13	5.0	perception	160	diff_vonmises	-0.0215028179937225	-1.2320207186782677	1.661593092454593	3.3183882040180124	0.3309658768893764	3.93622263527328	0.6807097544903828	-0.3930512754598526	1.0737610299502354	93.23426048463044
14	5.0	wm	160	diff_vonmises	0.0240153145857946	1.375976169445	1.4587151065109092	1.5448065747949082	0.0892208689848471	2.346329318059216	0.250445171450686	-0.3053000224616151	0.5557451939123011	106.6422499807956
15	6.0	ltm	160	diff_vonmises	-0.1053463095631088	-6.035898925244798	0.424575197244071	106.96564839848423	0.4094413640115958	107.48771337549252	0.178007689295228	-0.2487669541990538	0.4267746434942818	132.14008680570265
16	6.0	perception	160	diff_vonmises	-0.0080387380435821	-0.4605857625085103	1.0834900639940506	3.106002515845294	0.1980948432437001	3.678296039566263	0.403458492269983	-0.3483915003910119	0.751849992660995	115.0285691206422
17	6.0	wm	160	diff_vonmises	-0.0142176875404925	-0.8146134905059598	0.4560532595153372	186.87594762215292	0.4451638183875657	187.4309222675914	0.2458838171408928	-0.2933252079152417	0.5392090250561345	129.22979437335223
18	7.0	ltm	160	diff_vonmises	0.0023952762978858	0.1372392226365818	0.8954549547815728	172.65523717564577	0.8787983318580792	173.93539977964616	0.1400809947584633	-0.3351399125381746	0.475220907296638	89.1574673887182
19	7.0	perception	160	diff_vonmises	0.0499849534390618	2.863926871216175	1.1856429212290829	3.922695745430427	0.2903454329894582	5.13528755414392	0.4068419098132654	-0.4611490425270834	0.8679909523403488	105.13558428341908
20	7.0	wm	160	diff_vonmises	0.0832129605922506	4.7677514427244	0.7106218387725398	130.3074108748727	0.6935442015680197	131.61068101775183	0.0549355252494621	-0.3143174207731682	0.3692529460226303	98.25285872775744
0	1.0	ltm	39	diff_vonmises	-0.1021116144835607	-5.850564549174957	3.387628116938809	0.3153715609556167	4.171538130867198e-20	1.7682770236667675	-0.0602141093194542	-0.2811774659199564	0.2209633566005021	74.55416537632183
1	1.0	perception	39	diff_vonmises	-0.0445779018386262	-2.5541256349017547	14.520457086593696	0.6699560069923923	0.0103143120581558	2.3186774065816507	0.6361239560925391	-0.3704027463021438	1.006526702394683	35.5121511353627
2	1.0	wm	39	diff_vonmises	0.039838398530151	2.282572098337836	4.923772576439326	0.356252359204064	1.6637550506463562e-14	1.920772483998174	0.0006793177843034	-0.3056842330502441	0.3063635508345475	61.54330616820462
3	2.0	ltm	39	diff_vonmises	-0.0517601312554051	-2.965637067977896	3.9871228719058354	0.4898456247653892	0.1528914337427824	1.3579494962993424	0.1255960783219736	-0.208000513605832	0.3335965919278056	64.4780832970549
4	2.0	perception	39	diff_vonmises	-0.0264428066482314	-1.515061219424134	7.589896846019462	1.152251009769883	0.2681941554962382	2.0193354759060558	0.831010883230302	-0.33834571546611	1.169356598696412	47.75875078306021
5	2.0	wm	39	diff_vonmises	0.033140888497484	1.8988330402194893	4.70651731313348	0.4765522967356302	0.1882912892260484	1.4149237606379832	0.1306299099898066	-0.222504535444122	0.3531344454339287	59.08161168049372
6	3.0	ltm	39	diff_vonmises	0.0135260707020618	0.7749867646236978	1.3949193879758734	113.45319979742966	1.376564931696836	113.92901303505536	0.176971821323832	-0.1720907936011446	0.3490626149249767	74.05357811935889
7	3.0	perception	39	diff_vonmises	-0.0265071403558385	-1.5187472693504496	4.285461395510159	1.8809699981369503	0.3760760685507922	2.317088592762528	0.9825565572019838	-0.3379852701596801	1.3205418273616638	62.02154659967522
8	3.0	wm	39	diff_vonmises	-0.0717783765842959	-4.11259803858081	1.4146673934707057	39.99539911056893	1.3561007899331652	40.59885445618732	0.1732546389313114	-0.2022281285322584	0.3754827674635699	73.23839010799293
9	4.0	ltm	39	diff_vonmises	-0.1336945171363829	-7.660131575954205	1.31424874808985	144.1604250910576	1.2966043349617862	145.06695060529077	0.1021561914931936	-0.2512832859649343	0.353439477458128	72.80138641548294
10	4.0	perception	39	diff_vonmises	-0.1124769761451535	-6.44445602551094	2.375370512366019	2.6811312957241844	0.3657032134867694	3.638730003481225	0.7255132540139032	-0.4325648121420773	1.1580780661559804	79.18682308326805
11	4.0	wm	39	diff_vonmises	-0.1491276494055858	-8.544384919646685	1.2354726757366843	237.24908823476872	1.2236043950856912	238.3515922769171	0.0949570684830547	-0.2916170417741561	0.3865741102572109	74.48848034091026
12	5.0	ltm	39	diff_vonmises	0.0515417204688943	2.953123051710692	1.2635512252530554	1.9298449207528536	0.3411546757889927	2.6232775897672336	0.1836878334533189	-0.231448997455716	0.4151368309090349	99.6798055503555
13	5.0	perception	39	diff_vonmises	-0.0363801309671587	-2.0844279625513837	2.3760382147854258	2.028231490323966	0.1485644553239711	2.6442674245103333	0.6744634927354746	-0.357014767242298	1.0314782599777723	84.48259380756082
14	5.0	wm	39	diff_vonmises	0.0232840594116779	1.3340783342210103	0.6922552536887286	128.67411364513845	0.6772819069513535	129.40172930226066	0.1630525738747721	-0.2381257670663839	0.401178340941156	104.78144946416216
15	6.0	ltm	39	diff_vonmises	-0.1693692375492291	-9.704142490919494	0.4497314741290518	130.2452135120719	0.4384356849236476	130.93503391573373	0.1100261627058394	-0.2415858007419284	0.3516119634477679	127.30891713995436
16	6.0	perception	39	diff_vonmises	-0.0641324267265639	-3.674517381364113	0.5701330281426312	188.32908203472883	0.5551019879947006	189.10681144059336	0.3336781770960328	-0.367684429839116	0.7013626069351488	118.07437802941234
17	6.0	wm	39	diff_vonmises	-0.175286959169401	-10.043202964088668	0.5697001441206171	94.76235998772628	0.5497352492750971	95.45420899748058	0.1793605616138442	-0.261250666608273	0.4406112282221173	116.66020382025638
18	7.0	ltm	39	diff_vonmises	0.1080630525199004	6.19155683069085	0.8959043508595292	149.39655905108606	0.8793878551137899	150.27801566467912	0.1892116977114639	-0.2658565548297353	0.4550682525411993	91.44265532401845
19	7.0	perception	39	diff_vonmises	-0.0602553504862226	-3.452377275942113	2.406405585288561	1.5862044052706443	9.995540317545697e-12	2.3975009111856247	0.5324206519714032	-0.3741468114826846	0.906567463454088	88.66531410752904
20	7.0	wm	39	diff_vonmises	0.2035383955875987	11.661891036033586	2.5412383668463367	0.7431410857391733	0.103187321112099	1.540630135431272	0.1710546779605832	-0.2224802964136019	0.3935349743741851	81.53065863862204
0	1.0	ltm	448	diff_vonmises	-0.1066401755541801	-6.110031985788696	4.121224171104713	0.3075208314575044	1.278991143484724e-19	1.6339204658372866	-0.0197307873177469	-0.2599832573321032	0.2402524700143563	67.4191910307321
1	1.0	perception	448	diff_vonmises	-0.0754608579578879	-4.323588679423168	18.040742337472945	0.6239188244138953	2.8941360739609957e-25	2.188608754198744	0.7010758069900012	-0.3483279017249248	1.049403708714926	31.88006946107569
2	1.0	wm	448	diff_vonmises	-0.0590246139491245	-3.381861266673844	6.128185262976313	0.3138039993370314	2.7045813743019847e-21	1.8504054496161173	0.0084824604059921	-0.2944997330328436	0.3029821934388358	55.0364734056769
3	2.0	ltm	448	diff_vonmises	-0.0487622678816303	-2.7938721491037466	3.6974535853930894	0.5658368228123224	0.1762947424000453	1.3909460117572658	0.1546461985473363	-0.2093390456525422	0.3639852441998785	66.56557283820501
4	2.0	perception	448	diff_vonmises	-0.0443257485755633	-2.539678317137798	7.692275343720025	1.135200263124852	0.3039893039470883	2.0628440394258245	0.7991359729268367	-0.3502880270180878	1.1494239999449245	47.2186195003244
5	2.0	wm	448	diff_vonmises	-0.053013773987114	-3.037465505522063	3.7170261498176855	0.5871885971970922	0.2400517443467974	1.5715160832420565	0.1202119203519155	-0.237289354510961	0.3575012748628766	64.73198686351253
6	3.0	ltm	448	diff_vonmises	0.0247995214671873	1.4209079140139174	1.495216676556124	143.68714588783882	1.476158245883023	144.27733920048027	0.2272587280243669	-0.2198768747614394	0.4471356027858064	71.459534078921
7	3.0	perception	448	diff_vonmises	-0.0445909980245945	-2.5548759910854577	4.3206790903043855	2.2807266519938345	0.4837950215985986	2.9106989528824583	1.1189874928860184	-0.4241812142453876	1.543168707131406	60.71310932507467
8	3.0	wm	448	diff_vonmises	-0.0916114099845209	-5.2489471473557	1.383429012869801	75.14723963557806	1.345402018595372	76.0116085971738	0.1627954211155611	-0.2624342329588263	0.4252296540743874	72.52082136083035
9	4.0	ltm	448	diff_vonmises	-0.1732490598268256	-9.92643993268661	1.2852816115867003	133.5880591756659	1.2631102199787512	134.51159050251243	0.1798835508226091	-0.2769228370637115	0.4568063878863206	75.31276103795335
10	4.0	perception	448	diff_vonmises	-0.0891353902165857	-5.10708166466205	2.714734904894636	2.2009356558791526	0.1759177387331749	3.320634194943764	0.7357491397085435	-0.458391625998312	1.1941407657068557	78.3162286112993
11	4.0	wm	448	diff_vonmises	-0.1890972534801246	-10.834474541926658	1.2255890418630528	302.02573521250326	1.214613438961306	303.2409967357185	0.1464468532865339	-0.3331572813946195	0.4796041346811535	75.63263087703783
12	5.0	ltm	448	diff_vonmises	0.0508018631893287	2.9107323521495534	1.5657134161620456	1.7326752988594585	0.3498586913485559	2.09334224383023	0.3117151687029674	-0.1992953459682582	0.5110105146712256	94.44957498107902
13	5.0	perception	448	diff_vonmises	-0.0236910715753398	-1.357398413409321	2.2928699255127905	1.923222065498124	0.0928298755505172	2.278599458528142	0.6798392193136448	-0.3190592638718781	0.9988984831855228	87.82299951319979
14	5.0	wm	448	diff_vonmises	-0.0395904448632651	-2.2683653997104822	0.8949247967712277	6.539687002853225	0.6002576428391985	7.009251309592725	0.2424850476231068	-0.2117391560868433	0.4542242037099501	103.44106968565856
15	6.0	ltm	448	diff_vonmises	-0.1961472649765324	-11.238410446189537	0.3969049695358324	35.63849290257841	0.3602106713572112	35.92284321746561	0.1759242877647491	-0.1937143977742836	0.3696386855390328	136.95738016787385
16	6.0	perception	448	diff_vonmises	0.0105403795248704	0.6039192612411828	1.2282364370109278	2.07891519052043	0.1593706553808111	2.536693761691506	0.3285043382034361	-0.2735691578566589	0.6020734960600951	111.70482976879518
17	6.0	wm	448	diff_vonmises	-0.124351815846993	-7.12483422282073	0.4463627740518054	101.37934446516486	0.4316826368580967	101.70059972434522	0.200038603038827	-0.2085215402058722	0.4085601432446992	130.95603267252116
18	7.0	ltm	448	diff_vonmises	0.0263291855027241	1.5085512073231278	1.0722918548153275	168.7327060208208	1.0571779955553204	169.30408786487538	0.2779338475577191	-0.225163182993354	0.5030970305510731	85.9972488470593
19	7.0	perception	448	diff_vonmises	-0.0357204581807947	-2.046631496033092	1.475789167324886	2.0286005400221367	0.0898447176239394	2.630186380544341	0.4130451424663942	-0.3363985841716332	0.7494437266380274	106.8860203164836
20	7.0	wm	448	diff_vonmises	0.1186151018226671	6.796144720953343	0.8912619354034167	40.3977114366449	0.8477136628696991	40.9624529489292	0.1588514860071832	-0.1857218065133477	0.3445732925205309	93.44173296550896
0	1.0	ltm	137	diff_vonmises	-0.1819917540441619	-10.42735941291341	1.26621804404855	0.5365485610940188	1.214582749913061e-13	1.949865868800733	-0.1003830899250295	-0.2936460799779099	0.1932629900528804	118.11731088767982
1	1.0	perception	137	diff_vonmises	-0.0451135499528161	-2.584816011148979	14.407628400453875	0.7367975081029654	3.0776934900654643e-24	2.321735609655071	0.7357860180174112	-0.3695156988287413	1.1053017168461523	35.70453960899505
2	1.0	wm	137	diff_vonmises	0.0194738373292382	1.1157686898896662	4.895147206467101	0.3160175446506599	5.023790605045335e-26	1.826418241765108	-0.0197372786717273	-0.2906683200955174	0.2709310414237901	61.72432058497222
3	2.0	ltm	137	diff_vonmises	-0.0574524440287901	-3.291782565561261	4.6545835397191775	0.3626485293122308	1.2412816826276129e-17	1.4171872601958513	0.0770830587398108	-0.2255249387047028	0.3026079974445136	63.34122192544277
4	2.0	perception	137	diff_vonmises	-0.0322309314146647	-1.8466963398359104	8.083211514106045	1.200251881620256	0.1684505672771329	2.2484958744357866	0.918417309584735	-0.3699640528254156	1.2883813624101506	46.79114519551112
5	2.0	wm	137	diff_vonmises	-0.0002845016945994	-0.0163007463648703	4.80078087743732	0.3542141350037631	0.0094504642608704	1.483450326588889	0.0622192794128373	-0.2348528281924913	0.2970721076053286	61.90925197927047
6	3.0	ltm	137	diff_vonmises	0.0404817747918239	2.3194348427706	1.781786117362248	1.589872277245035	0.747300078480825	2.0455877363255057	0.164099002193119	-0.1563219517718582	0.3204209539649773	78.59862349340668
7	3.0	perception	137	diff_vonmises	-0.0212028966564484	-1.2148364918665395	4.036800691111372	2.1215994581928945	0.3600096820607211	2.4573166757444422	1.0964928950068795	-0.3502013967730862	1.446694291779966	64.04278571681297
8	3.0	wm	137	diff_vonmises	-0.1327934442191204	-7.60850390076152	2.5930669270790303	1.0231383290452851	0.5671853153057171	1.5679565118506458	0.2093582112420693	-0.1848088177173991	0.3941670289594685	71.55760828514605
9	4.0	ltm	137	diff_vonmises	-0.076230432890202	-4.367682075063836	1.2868895206374462	73.22557378927753	1.2525625074799234	74.34609754544539	0.0235617729669819	-0.2790669654353586	0.3026287384023405	71.20406993217259
10	4.0	perception	137	diff_vonmises	-0.1122089283583328	-6.42909801861829	2.166032853144113	3.320835794744961	0.451141275886739	4.583187382612261	0.7081796849295088	-0.5002374985142146	1.2084171834437234	79.89170647168251
11	4.0	wm	137	diff_vonmises	-0.1471628197182186	-8.431808471098536	1.1611028208851153	235.94998461201092	1.1501001464336027	237.27024035652008	-0.005774418927956	-0.309507415041331	0.303732996113375	73.67813763475377
12	5.0	ltm	137	diff_vonmises	0.0658943572235956	3.775468562639417	2.1108329955144898	0.6748763888006978	7.031159080522097e-18	1.383602398644445	0.1394534944386137	-0.2149292657838534	0.3543827602224672	94.5379151819286
13	5.0	perception	137	diff_vonmises	-0.0317997938376877	-1.8219939762856316	2.633161810488616	1.9103309220149292	0.0389314170300514	2.4233570548859715	0.7597202206951472	-0.3648302473034192	1.1245504679985665	83.53706389943633
14	5.0	wm	137	diff_vonmises	0.0033741642345307	0.1933253700226027	0.6009634960158415	66.98182635105687	0.5763401502906328	67.79507837975352	0.099479807497957	-0.2389075996968106	0.3383874071947677	110.98683818261004
15	6.0	ltm	137	diff_vonmises	-0.2195079687845709	-12.576880180845333	0.368366438170184	73.30995428770484	0.3547533586304859	74.02119211843716	0.0250280979684021	-0.2031147764871823	0.2281428744555844	134.24796987409235
16	6.0	perception	137	diff_vonmises	-0.0869975942145891	-4.984594976287704	0.3887356802163722	118.9347912175826	0.3696232800263964	119.65634177665996	0.2544179980360326	-0.3601599894641296	0.6145779875001622	136.3112928329342
17	6.0	wm	137	diff_vonmises	-0.1303924049713634	-7.470934485419778	0.455176320041334	107.68183438945552	0.44234379111774	108.44468262387144	0.0759623804869633	-0.2371673788367196	0.313129759323683	125.6407489798899
18	7.0	ltm	137	diff_vonmises	0.1698425388315472	9.731260656834454	0.9497835940622368	85.53545978585397	0.9261427680429694	86.30723815855386	0.1313961382604453	-0.218701015856789	0.3500971541172344	88.02959926423469
19	7.0	perception	137	diff_vonmises	-0.0015342465068261	-0.0879058495738259	1.3083345389691552	3.530750201331005	0.4125496288089595	4.211443075006601	0.4378862042768818	-0.3290862760659382	0.7669724803428201	98.26670336043377
20	7.0	wm	137	diff_vonmises	0.0662144245168849	3.793807067705072	1.3730630310324765	1.3062385301723851	0.3677991363810613	2.0946663061820887	0.0707199949870028	-0.1999486992411067	0.2706686942281096	92.5320633488005
0	1.0	ltm	16	diff_vonmises	-0.1586671223636893	-9.090956458925197	3.550944926236354	0.4236643349136974	0.0241216122638875	1.2017671157422924	0.1091665722220561	-0.1874777210140764	0.2966442932361325	71.63997327988571
1	1.0	perception	16	diff_vonmises	-0.0794507017362945	-4.552189888842401	16.374106660424424	0.6848339190591571	9.289626019882635e-27	1.7581964913924328	0.816483762548782	-0.2798256625319261	1.0963094250807082	33.47825309273259
2	1.0	wm	16	diff_vonmises	0.0105508989590765	0.6045219804240607	4.545542947283695	0.4392138111929797	8.050349397401124e-20	1.319755795431485	0.1518284552868818	-0.2100048789011897	0.3618333341880715	64.11925755984862
3	2.0	ltm	16	diff_vonmises	-0.0704734537924174	-4.037831470015743	2.573890016076333	1.0691952939549327	0.7786162908423188	1.3837294900515908	0.2264819320233757	-0.1424809309084528	0.3689628629318285	70.09780208483022
4	2.0	perception	16	diff_vonmises	-0.0422321494586793	-2.419723923748031	7.12049068893448	1.130345427963246	0.4050337614499987	1.4176860230535395	0.8555635529897271	-0.2384203773434235	1.093983930333151	49.00476782154232
5	2.0	wm	16	diff_vonmises	-0.0135734913563132	-0.7777037679740547	4.314912738229722	0.5837499044079609	0.4843073037665623	0.9047356177484248	0.2470914439536226	-0.1350526972720104	0.3821441412256331	59.91613864236555
6	3.0	ltm	16	diff_vonmises	-0.0326203832490826	-1.8690102862716853	1.5827846723454173	109.9130840590041	1.5649516996185242	110.08023006485472	0.2632438344800647	-0.1273368778831951	0.3905807123632598	72.83619487859193
7	3.0	perception	16	diff_vonmises	-0.0439248179483208	-2.516706684319274	4.117080377374636	1.955186110055873	0.5481662275025209	2.0845456814197543	0.9936960369727336	-0.2884654694394681	1.2821615064122018	62.17650579225156
8	3.0	wm	16	diff_vonmises	-0.0956460641113004	-5.480115800615204	1.6930952584050676	133.95855326292812	1.6759021838216992	134.20664933336235	0.2719270499123283	-0.1525840370145612	0.4245110869268895	69.55048032995288
9	4.0	ltm	16	diff_vonmises	-0.1983588513529536	-11.365125011587104	1.6008214376361876	121.63325256618285	1.5805115174354416	121.9807425362501	0.2684469996902479	-0.1748196074003107	0.4432666070905586	70.86151095976487
10	4.0	perception	16	diff_vonmises	-0.1190413730964262	-6.820568265867409	2.791292405062816	2.172513942347521	0.2222552298839611	2.545710214325777	0.8654315007523523	-0.3387992406683796	1.2042307414207318	77.43513145590501
11	4.0	wm	16	diff_vonmises	-0.1756835400845837	-10.065925376764069	1.427677603911186	203.52117582966025	1.4140881705932649	204.0831073572304	0.2567494284463691	-0.2195348206335801	0.4762842490799492	73.71267044804657
12	5.0	ltm	16	diff_vonmises	0.0302613844221079	1.7338496096097205	0.7315186080099692	106.1763156352357	0.7148343096650954	106.2195945449376	0.325499307597866	-0.1644549318138768	0.4899542394117429	109.42284635070398
13	5.0	perception	16	diff_vonmises	-0.0135257287261586	-0.7749671708477494	2.080368866546891	2.065208247713271	0.2242262549003561	2.159105250693261	0.6663718172721756	-0.258301448820981	0.9246732660931568	88.80542057186602
14	5.0	wm	16	diff_vonmises	0.0005875510374239	0.0336641946929256	0.8279311249335835	107.38222038664787	0.8122949375876706	107.41555343306204	0.3103864199462336	-0.1414787632793377	0.4518651832255713	103.09040422479568
15	6.0	ltm	16	diff_vonmises	-0.1649058239379705	-9.448407728773134	0.3924600456746213	128.0475488339442	0.3814842658518385	128.07447345112843	0.2510251134643155	-0.1769957200288914	0.4280208334932069	137.72683806668428
16	6.0	perception	16	diff_vonmises	0.0007187958266476	0.0411839671985248	0.7212543043300526	187.5300817489837	0.7058513971126226	187.72721109785755	0.4945436707382455	-0.2796409624407712	0.7741846331790168	109.25275481964798
17	6.0	wm	16	diff_vonmises	-0.1946321211698665	-11.151599100712197	0.6127788637916872	29.6925910607324	0.5505735417364404	29.64761680369164	0.3604267018453537	-0.1896493174615856	0.5500760193069394	120.92376750221118
18	7.0	ltm	16	diff_vonmises	0.0925445602584774	5.302412719704885	0.9440757842303338	134.47823388202684	0.92711266742251	134.78293213019546	0.333693711880997	-0.1953981263457063	0.5290918382267034	94.2450151543
19	7.0	perception	16	diff_vonmises	-0.0518653647772746	-2.971666504644314	2.499304883122128	1.5035555231015345	1.3034214880758284e-14	1.8311589689970944	0.5945545172886783	-0.2854599220676541	0.8800144393563323	87.00470334858866
20	7.0	wm	16	diff_vonmises	0.2412341266118099	13.821697329381244	2.618934252558535	0.7691758718822568	3.42579785084828e-17	0.9581816955040344	0.3133189560082975	-0.1500250656070988	0.4633440216153964	84.95903846479493
0	1.0	ltm	356	diff_vonmises	-0.0215908857450443	-1.2370666291402108	4.720853866917144	0.2436846125256142	9.481341363492497e-19	2.348588277411065	-0.1688793998930529	-0.3737731737793813	0.2048937738863283	62.88390491287498
1	1.0	perception	356	diff_vonmises	-0.0234880147959703	-1.3457641169499337	13.76548642385614	0.681350666950808	0.036912745775175	2.9457646926925416	0.512480486875946	-0.476407080770132	0.988887567646078	36.31502082800208
2	1.0	wm	356	diff_vonmises	0.0085730527483198	0.4911997400217592	5.733899143461728	0.3021848058777454	5.9534385883943505e-25	2.592761904255488	-0.1309414521843509	-0.4126479249465482	0.2817064727621973	56.937459357031344
3	2.0	ltm	356	diff_vonmises	-0.0136172516738127	-0.7802110494769277	3.96248537535316	0.5011922502928913	0.1034740185966149	1.7881974322052845	0.0685724691297041	-0.2765511943569002	0.3451236634866043	65.10521753416819
4	2.0	perception	356	diff_vonmises	-0.020729606978939	-1.1877189908581471	7.556673266339535	1.2403696461295164	0.273801381839848	2.605772076575885	0.8009186816656287	-0.4399760531812621	1.2408947348468908	47.56445827184956
5	2.0	wm	356	diff_vonmises	0.0339773017251283	1.9467559880924223	4.184688661173621	0.5447030898954937	0.1365198185565298	2.028860327229721	0.0607985378355726	-0.3159131128594714	0.376711650695044	62.56064421705901
6	3.0	ltm	356	diff_vonmises	0.057712728589781	3.306695772378456	2.101749637295321	1.490508500239644	0.7018862090546538	2.2942646549349264	0.1385955775240498	-0.2281214096648049	0.3667169871888548	72.94128122133861
7	3.0	perception	356	diff_vonmises	-0.0150239805822699	-0.8608106788505708	4.601475345696206	1.945464279903146	0.3094463227338482	2.7497341696116835	1.031294264861468	-0.4154266110633302	1.4467208759247985	60.26976446157241
8	3.0	wm	356	diff_vonmises	-0.0430954455458869	-2.469187146015184	3.088753107263801	0.7906646931401214	0.3364277927820985	1.842456103662248	0.1273211041821452	-0.262203475241171	0.3895245794233162	68.27777269634527
9	4.0	ltm	356	diff_vonmises	-0.097873042195876	-5.607712245929515	0.9917346310773838	94.73398760383596	0.9634557340534468	96.29669249593836	-0.0154709293436283	-0.3487356265226395	0.3332646971790112	80.05468444234572
10	4.0	perception	356	diff_vonmises	-0.0739273446949866	-4.235724841631591	2.3301362165293367	2.640709731371412	0.2782832510474563	4.262215577801904	0.6140353904446377	-0.539923885511738	1.1539592759563757	80.49935503324531
11	4.0	wm	356	diff_vonmises	-0.1191346019255102	-6.825909884302866	1.0009895757900016	297.8055423308092	0.9905858330815668	299.61406732955334	-0.0284464733395566	-0.4020025740800719	0.3735561007405152	78.95101649042462
12	5.0	ltm	356	diff_vonmises	0.026890216656304	1.5406959245986076	2.007290833004306	0.9824993767580454	0.0735182044514856	1.881528343950027	0.1860766573748861	-0.2687396708394881	0.4548163282143742	92.54942621983716
13	5.0	perception	356	diff_vonmises	-0.0409328218794004	-2.3452779372504025	2.2995426415766964	2.245946770958532	0.1430236869479632	3.0560152398610616	0.7014955806406046	-0.4126132977883855	1.11410887842899	85.72451165225641
14	5.0	wm	356	diff_vonmises	0.0212758126816032	1.2190142723667807	1.3788026469557964	1.5138591651800533	0.1494600273082861	2.532168534457381	0.157861718074673	-0.3055881832137878	0.4634499012884608	104.44338818052351
15	6.0	ltm	356	diff_vonmises	-0.1309155920770561	-7.500910898471635	0.4721980931347877	99.2287574430001	0.4564656260769781	99.97916909784286	0.1109661779671142	-0.2534332334155067	0.364399411382621	124.91112851638364
16	6.0	perception	356	diff_vonmises	-0.0616973776970184	-3.534999349063734	1.0145389156646056	2.492535482294776	0.0883027983722909	3.318548731880574	0.28274967630644	-0.3697157937164245	0.6524654700228645	122.64547503950652
17	6.0	wm	356	diff_vonmises	-0.0711107066635989	-4.074343370017039	0.4821978247829015	157.0496358621768	0.4707731847138765	157.85513594258757	0.1397129578258997	-0.2823281029589957	0.4220410607848954	124.06427186905752
18	7.0	ltm	356	diff_vonmises	0.0552451429382001	3.165313528955835	0.9208374918961488	193.83523207671428	0.9070490262084284	195.0106076271728	0.1277728383493439	-0.3071073888230238	0.4348802271723677	87.75379570560514
19	7.0	perception	356	diff_vonmises	-0.0290534687450317	-1.6646411393055698	0.830096347449946	21.875966001983294	0.6615414919673988	22.946721551799374	0.4065744365327637	-0.4156301221448555	0.8222045586776192	102.33859940186116
20	7.0	wm	356	diff_vonmises	0.1125498483263825	6.448631293939272	1.0881585628536454	3.828932160489094	0.5819985899327307	5.001817739437058	0.0607127517325543	-0.2819480675779401	0.3426608193104944	90.88995856380588
0	1.0	ltm	402	diff_vonmises	0.0064213936167162	0.3679187528300874	3.981022144148897	0.3661263630552984	2.3753081982990275e-12	2.49125645390392	-0.115749990831371	-0.3963979400040044	0.2806479491726333	68.63108276610006
1	1.0	perception	402	diff_vonmises	-0.0339838575069819	-1.9471316067240456	12.790396715040195	0.6366397494724466	3.992001322844724e-18	2.93129831534478	0.4325894723255876	-0.4665306165570811	0.8991200888826687	37.89937113015978
2	1.0	wm	402	diff_vonmises	0.0252612058529578	1.4473604807856582	4.35728891982277	0.436180486446602	0.000582688475759	2.67418701928658	-0.07459443605745	-0.4253044444474998	0.3507100083900497	65.46800469631398
3	2.0	ltm	402	diff_vonmises	-0.0152767866028683	-0.8752953968663529	2.36014240956903	1.4060722089195832	0.5309858039395927	2.6518762440221617	0.1312885147343488	-0.3195698972045847	0.4508584119389335	71.86259655149087
4	2.0	perception	402	diff_vonmises	-0.0154662094648063	-0.886148527398692	6.181406133809903	1.274017895226201	0.2161959450388096	2.5048804371165114	0.7466910432457636	-0.4042073918521849	1.1508984350979483	52.74672077282571
5	2.0	wm	402	diff_vonmises	0.0437943967890966	2.509234102336524	4.1723360497678685	0.6518954163526102	0.178349240245361	1.961559162141185	0.1425878770124082	-0.3033888635622982	0.4459767405747065	62.42637409861001
6	3.0	ltm	402	diff_vonmises	0.0099716090696898	0.5713311146476033	2.3838784818709438	1.1850100643997794	0.3268339377362637	2.3063459226783087	0.1834044118513213	-0.296675330354067	0.4800797422053884	76.87170431869495
7	3.0	perception	402	diff_vonmises	-0.0197105297338541	-1.1293301657169623	4.427733842977655	1.8764603213724973	0.1413629862426686	2.989686351493793	0.9791274049381086	-0.4555316515071161	1.4346590564452246	62.87473106676407
8	3.0	wm	402	diff_vonmises	-0.0187681261517027	-1.0753344178616773	2.6782279146298054	1.096047599685341	0.2985782271981354	2.337178523886944	0.1820801506021581	-0.3180305284923549	0.5001106790945131	73.65685486353993
9	4.0	ltm	402	diff_vonmises	-0.1576224389381498	-9.031100507714516	2.5877993154309324	0.8372423777822422	0.1566544587580385	2.594204962520596	0.0235663577238529	-0.3751925018887013	0.3987588596125542	76.67453843121388
10	4.0	perception	402	diff_vonmises	-0.080165736791292	-4.593158379697663	1.8557538354117196	3.3204717916242443	0.2436401881033897	5.122702426981938	0.6119586244832869	-0.6103673775203249	1.2223260020036115	89.51717530049666
11	4.0	wm	402	diff_vonmises	-0.1011162118413776	-5.793532178861698	0.9644270142676432	345.80829011755094	0.953909214505579	347.785906161748	0.0317707608763981	-0.4556725149023677	0.4874432757787659	82.20839676014435
12	5.0	ltm	402	diff_vonmises	-0.0341821692272157	-1.9584940313214192	1.5969424971313728	1.2759056012276808	5.666187195988241e-23	2.003387206051785	0.2552294630585321	-0.2953047207376095	0.5505341837961416	107.52505370935016
13	5.0	perception	402	diff_vonmises	-0.0513761413206075	-2.9436360653384868	1.4921835051363843	4.173781654759551	0.4407534981201185	4.7664326166339785	0.6786311835627816	-0.3894974045239045	1.0681285880866862	94.0149437182158
14	5.0	wm	402	diff_vonmises	0.0269424532579454	1.5436888614087672	0.71751627671486	139.39477330789646	0.7001816132213828	140.11491436657812	0.2557589163346563	-0.2770894013225309	0.5328483176571872	104.69558481756836
15	6.0	ltm	402	diff_vonmises	-0.0759279838402246	-4.350353020982388	0.412749737917733	86.65821307853075	0.3950099502878589	87.19423508816861	0.1604208893899965	-0.2432559376888612	0.4036768270788577	133.33113731931593
16	6.0	perception	402	diff_vonmises	-0.0580592960402161	-3.326552624604996	0.8183750313977184	6.486747018095799	0.4093362396028851	7.0412562383869	0.3734446638537596	-0.3262415019137583	0.699686165767518	115.26939010768568
17	6.0	wm	402	diff_vonmises	-0.0227518259798271	-1.3035836048601936	0.5468545216071025	154.0787497627951	0.5345310030287986	154.58768365301876	0.2280891269013807	-0.2507756488817243	0.478864775783105	120.29744404075691
18	7.0	ltm	402	diff_vonmises	-0.0486411384079325	-2.786931941486225	0.8557955155694387	99.19710580704115	0.8232372865409033	100.67700134932502	0.1604913875193503	-0.3884015443427806	0.548892931862131	91.75042313082912
19	7.0	perception	402	diff_vonmises	0.0119895232664404	0.6869490815409437	0.8234152903210713	121.77607607350754	0.7832526172269035	123.15657023556886	0.5191655780017541	-0.5186636915730549	1.037829269574809	98.42166848221008
20	7.0	wm	402	diff_vonmises	0.0810530119044701	4.643995498949761	1.3925079189280816	1.97947342286342	0.3209668603520338	3.3780230793478143	0.0973906277753374	-0.3448349630132777	0.4422255907886152	93.38006251900792
0	1.0	ltm	477	diff_vonmises	0.0156644556568594	0.8975071975078751	7.179029961363931	0.2911747290309748	0.0514658852262576	3.462582077716726	-0.2743845675463985	-0.5580621655137696	0.2836775979673711	48.78559981813538
1	1.0	perception	477	diff_vonmises	0.0245143977872112	1.4045715305120468	10.876559409209351	0.8330307495286179	0.1027517241431148	4.079722764258297	0.364885130433188	-0.6773097804429072	1.0421949108760953	40.27717139579764
2	1.0	wm	477	diff_vonmises	0.0154357956167282	0.8844059422650663	5.089713135185494	0.4299710606202154	0.070119733767516	3.853864104834576	-0.2807175852163372	-0.6151719450234205	0.3344543598070833	56.88815507196912
3	2.0	ltm	477	diff_vonmises	0.0077809952416092	0.4458181877555869	2.866493630543952	0.8352197448572388	0.2975489129881014	2.266385291430054	0.0577899114067517	-0.3232159048291793	0.381005816235931	69.9596622611922
4	2.0	perception	477	diff_vonmises	-0.0140220590349311	-0.8034048027848366	7.142382662678237	1.361772382839539	0.3437375430908971	2.917219505586959	0.7887411958693956	-0.4984070660922569	1.2871482619616526	48.31768022355851
5	2.0	wm	477	diff_vonmises	0.0434547363181052	2.48977299088129	3.805199912028301	0.7224763874735568	0.1842388817775556	2.400874025977244	0.0848868533803246	-0.3683690876854331	0.4532559410657578	64.39481177099898
6	3.0	ltm	477	diff_vonmises	0.0758332298226268	4.344924015682129	3.321410812465837	0.5894192705341998	0.2533127257783453	1.427768403816337	0.1207781077526581	-0.2090564821796705	0.3298345899323286	67.99950212868097
7	3.0	perception	477	diff_vonmises	0.0046907144263278	0.2687581395297146	5.024040908823417	1.696536103001569	0.2787952832355288	2.55916021744344	0.9468574180092468	-0.3961010915723136	1.3429585095815604	58.02623527608336
8	3.0	wm	477	diff_vonmises	-0.0015882990295078	-0.0910028309955253	3.864176765781028	0.5776493518085569	0.1412351313047517	1.6643822773490318	0.1322499664030368	-0.2544483183851803	0.3866982847882171	65.51904976403785
9	4.0	ltm	477	diff_vonmises	-0.0827023992708348	-4.738498433824653	1.222788836785402	2.400480876481164	0.36180354805492	4.40856937800165	-0.0551337223566634	-0.4218575153482083	0.3667237929915448	91.53342228846655
10	4.0	perception	477	diff_vonmises	-0.030559978704618	-1.7509578017842895	2.4165938069359822	2.3994793279024886	0.1933047511522861	4.343070246803451	0.5552990023488165	-0.5869590845969439	1.1422580869457604	80.94842760760534
11	4.0	wm	477	diff_vonmises	-0.057395665816299	-3.2885294136172267	0.8219879553533287	298.4209568023125	0.8109876233434692	300.64501631872656	-0.0531891314327879	-0.4754462109334412	0.4222570795006533	86.99365726595497
12	5.0	ltm	477	diff_vonmises	-0.0293750753462792	-1.683067840220594	1.9599426214950757	1.0634141959768852	2.6652457244856844e-18	2.022566362514635	0.2200084752620871	-0.3111474696292048	0.531155944891292	97.95630992191082
13	5.0	perception	477	diff_vonmises	-0.0462248824136104	-2.648490670788379	2.1510338287258817	2.6473596617664694	0.1912775402271929	3.4752864694092147	0.7632797754282751	-0.4430390613735779	1.206318836801853	87.06893970718076
14	5.0	wm	477	diff_vonmises	0.0375293678012613	2.150274382806442	1.6406415333387945	1.4502353564041497	0.0544034027539589	2.440487740014558	0.2534895812767312	-0.3426493158117869	0.5961388970885182	103.03838289362773
15	6.0	ltm	477	diff_vonmises	-0.0426671917135293	-2.4446500088607883	1.1821736776958618	1.3187740830675658	1.5052107202578268e-17	1.8712232602958911	0.1978157447756044	-0.2512166058941538	0.4490323506697582	121.35651899729244
16	6.0	perception	477	diff_vonmises	-0.0586260279035507	-3.359023968489656	1.0303032548187074	2.320680296344697	5.113298037670761e-15	2.9118303029641384	0.3428376990090582	-0.3607280411710283	0.7035657401800866	127.30975361074805
17	6.0	wm	477	diff_vonmises	-0.0407726262316276	-2.336099402736656	0.5025866184488779	158.16127440385233	0.4895117304953818	158.70302484604304	0.2536464043736401	-0.2838501145192111	0.5374965188928513	124.76106622992732
18	7.0	ltm	477	diff_vonmises	0.0523589780824006	2.999948463739538	0.7752300643081151	173.96825074096563	0.7607112194083353	175.21068324157295	0.1143726763747849	-0.3215566961443308	0.4359293725191158	95.62196171255712
19	7.0	perception	477	diff_vonmises	-0.0156584124331114	-0.8971609462924584	0.799315934029801	291.8370606576598	0.7861215712270673	292.8471514321976	0.4313276578289304	-0.4035238822839382	0.8348515401128687	99.54604096897812
20	7.0	wm	477	diff_vonmises	0.1277689481231499	7.320621480282453	0.7851641233046385	146.93513384267706	0.7690773584869223	148.13328577858297	0.0946384785180285	-0.303159765902727	0.3977982444207555	94.58588703682742
0	1.0	ltm	166	diff_vonmises	-0.0393493366534313	-2.2545509168810502	3.18805533751223	0.3784767712140388	8.70355703874048e-19	2.8922568265457205	-0.2037416426871642	-0.4598803215666722	0.256138678879508	76.91085915418034
1	1.0	perception	166	diff_vonmises	-0.0200106246328448	-1.146524336882535	13.420851583117322	0.7243553549309575	0.0038523457292154	3.386027759380541	0.507411023700013	-0.5394582770397817	1.046869300739795	36.962061171576295
2	1.0	wm	166	diff_vonmises	0.0166418796056315	0.953509464567528	3.150938752730788	0.4790655373244291	3.8675849982095744e-21	3.128505166116317	-0.1752825237976424	-0.497325716400614	0.3220431926029716	77.37142720407957
3	2.0	ltm	166	diff_vonmises	0.0429226938722285	2.459289204210738	3.527410057167762	0.588537459716499	0.1254305545016538	1.9132106031285376	0.0783564530434131	-0.2910115464620636	0.3693679995054767	68.21721486365627
4	2.0	perception	166	diff_vonmises	-0.0179248752728322	-1.0270197014316966	6.695513488727034	1.3779388821923797	0.27932026849769	2.600336033489333	0.8570715947529342	-0.4296486918552477	1.286720286608182	50.4380987581379
5	2.0	wm	166	diff_vonmises	0.0190852704739108	1.093505449020737	3.80010702757602	0.7025334601248359	0.1521306921484977	2.157131715513928	0.1277624345767555	-0.329745472445955	0.4575079070227105	65.52629787264854
6	3.0	ltm	166	diff_vonmises	0.0360129821830125	2.0633918867664485	3.57622267301487	0.550530153235699	2.693278403403362e-16	1.4652316715466511	0.1647941888669529	-0.2328872544067226	0.3976814432736756	72.5114571680366
7	3.0	perception	166	diff_vonmises	-0.0064060038028741	-0.3670369814494413	4.248466819285272	2.0131987843484573	0.2085122518356172	2.793487461220105	1.0575303453638032	-0.4169899328058082	1.4745202781696114	63.598672054761096
8	3.0	wm	166	diff_vonmises	-0.0798994963498244	-4.577903926065869	3.5532798921469757	0.7631807840207357	0.1128268316191467	1.810740830873967	0.228122430881025	-0.2732181765939931	0.5013406074750182	69.31547360664717
9	4.0	ltm	166	diff_vonmises	-0.1274498221148929	-7.302336906876468	3.038333682103404	0.5783883878195183	0.0313529658598809	2.3907832450408795	-0.0109746637201211	-0.3704948725708449	0.3595202088507238	76.37156887033998
10	4.0	perception	166	diff_vonmises	-0.0555319372721885	-3.181745633881632	1.9779679973817728	3.4851348803372457	0.2969881428662971	5.188187609199611	0.6987541864846039	-0.6054238246955578	1.3041780111801615	85.9358732614894
11	4.0	wm	166	diff_vonmises	-0.059395873851277	-3.4031328921696216	0.8842279553660596	323.85031999846143	0.8736081900544812	325.90798684610905	0.001897767904623	-0.4595219232340639	0.4614196911386869	85.2584236541949
12	5.0	ltm	166	diff_vonmises	-0.0510417558612865	-2.9244771897888517	1.4843044646932972	1.1721213836110038	0.0130610691625485	2.0702084115327226	0.1706822991212378	-0.2992768324007407	0.4699591315219785	110.07975041911348
13	5.0	perception	166	diff_vonmises	-0.0084498693294407	-0.4841418500139923	1.5004709087374557	4.147208811694472	0.3971015992764721	4.871934489488858	0.6873967871198279	-0.4249651050819624	1.1123618922017902	94.74376666433264
14	5.0	wm	166	diff_vonmises	0.0350312819889587	2.0071446088999907	1.0475403375681192	2.5043421920022646	0.2157713251686076	3.470244186340362	0.2008286652350353	-0.3319029851463093	0.5327316503813446	112.9371193821906
15	6.0	ltm	166	diff_vonmises	-0.0955210089723434	-5.472950668946547	0.3871205007080913	160.27981386084477	0.3771571440416147	161.03221229737545	0.1232267727859479	-0.2779441036685384	0.4011708764544863	134.51506642793458
16	6.0	perception	166	diff_vonmises	-0.0162819637989732	-0.9328878078659584	0.5370189441505977	217.73570722128625	0.5223631115370103	218.4497394840071	0.4198556329049481	-0.4135824575470792	0.8334380904520273	122.04378041976244
17	6.0	wm	166	diff_vonmises	0.0012693857176628	0.0727304441962681	0.4338166989541591	202.148433836086	0.4228633429867863	202.97244527135527	0.2171067586334487	-0.3475973241792296	0.5647040828126784	130.4266437512648
18	7.0	ltm	166	diff_vonmises	0.0614206431990922	3.5191436302868886	0.82168968406624	151.4251215702321	0.8042080086497985	152.89454312843228	0.0580823160088996	-0.3477060630657966	0.4057883790746963	90.81859582447544
19	7.0	perception	166	diff_vonmises	0.110006960786946	6.302934570153154	1.2157549758425374	4.261067747326158	0.3326143566736367	5.638937599101869	0.4101930489721181	-0.4866643450993966	0.8968573940715148	101.85561609705964
20	7.0	wm	166	diff_vonmises	0.0470557879418454	2.6960980507303334	0.6372608564506714	144.51661446891617	0.6222207594807632	146.0589171332602	-0.0035909630663226	-0.3474991107868685	0.3439081477205459	101.4987685278146
0	1.0	ltm	287	diff_vonmises	0.0193533332651444	1.1088643156029163	5.546906353900656	0.4151411247699609	0.0461742361022144	3.680840169810103	-0.2328094636407325	-0.586462090941191	0.3536526273004584	55.65580963018172
1	1.0	perception	287	diff_vonmises	0.0093566655003708	0.5360974434869101	11.076303551739166	0.733447838873388	0.0616603344238122	3.977757359304185	0.2892902422036455	-0.6484968004452071	0.9377870426488526	40.17936394241824
2	1.0	wm	287	diff_vonmises	0.0495609528315632	2.8396334258955216	3.3419117342773057	0.7474508675693561	0.1324075576553648	4.1626593478336495	-0.2326724915957921	-0.6427104559088714	0.4100379643130792	66.94161452701977
3	2.0	ltm	287	diff_vonmises	-0.0709472427557155	-4.064977577992604	2.4208654003813725	1.249691827161135	0.3812178633595329	2.863948752958028	0.0789600834668924	-0.3757122468770913	0.4546723303439837	73.11947685846462
4	2.0	perception	287	diff_vonmises	-0.0248933953732769	-1.4262864926392604	6.615392763044109	1.1899772230840238	0.1893209588271873	2.8384802762519743	0.6548220648868504	-0.4623893902240313	1.1172114551108816	51.03440331185297
5	2.0	wm	287	diff_vonmises	0.0477485265361363	2.735789048489029	4.015358208432017	0.7742833414434384	0.1958577923119714	2.460791905596757	0.1246896412787628	-0.3798310396092324	0.5045206808879952	62.87330200406669
6	3.0	ltm	287	diff_vonmises	-0.0398725880833402	-2.2845310154390166	2.246418368076163	1.243705241034154	0.3220728709723447	2.4584599081874967	0.1617649565189148	-0.3113814170883877	0.4731463736073026	78.48479765863746
7	3.0	perception	287	diff_vonmises	-0.0165126150041477	-0.9461031484620666	4.037668079198288	1.835528039246152	0.1835244963970083	3.0028018956229423	0.8491132487479683	-0.4491556333209601	1.2982688820689283	65.0384829489218
8	3.0	wm	287	diff_vonmises	-0.0130591970278615	-0.7482368735262558	2.2731309598212106	1.3591444302149165	0.3815791590920118	2.655329886267213	0.1601447869818756	-0.3303793266361376	0.4905241136180133	76.46799987519799
9	4.0	ltm	287	diff_vonmises	-0.10031780675064	-5.747786936820671	1.7228661330229358	1.4639045717036323	0.222146585252631	3.454054017716358	0.0117130889151136	-0.4350548525293075	0.4467679414444211	87.97455197524101
10	4.0	perception	287	diff_vonmises	-0.0972466283437092	-5.571821375971828	1.714102344602652	4.3065432593428525	0.4169015093290091	6.091938716018717	0.6137501680639168	-0.6027463735563584	1.216496541620275	87.12428838401661
11	4.0	wm	287	diff_vonmises	-0.108662700630157	-6.225914136601551	0.8553765006169318	315.15217995515576	0.8444902358224354	317.2441614265975	0.001666171043297	-0.4659870967764377	0.4676532678197347	86.76239054419364
12	5.0	ltm	287	diff_vonmises	-0.0427850173373549	-2.451400919824492	1.035981222015519	2.9746400863157465	0.2200011061097296	4.3585101707677865	0.1826402104190464	-0.4194556868431243	0.6020958972621707	111.9865303522937
13	5.0	perception	287	diff_vonmises	-0.0561721587453413	-3.218427622246936	1.8039272118695535	3.392919200813214	0.3053039655283066	4.655852403448957	0.6615970540880792	-0.5118015141405525	1.173398568228632	89.55702851760194
14	5.0	wm	287	diff_vonmises	-0.0122949874424889	-0.7044508896209648	0.6962023649650573	284.14862266963104	0.6856550184921649	285.4367004592927	0.2079753740129462	-0.3819505837668586	0.5899259577798048	103.03882920479464
15	6.0	ltm	287	diff_vonmises	-0.0213707775616755	-1.22445535919689	0.8770999465170393	2.311111295981525	0.1064488441488561	3.4659910598301145	0.1239040565626014	-0.3672036531554579	0.4911077097180593	126.04454884842416
16	6.0	perception	287	diff_vonmises	-0.0902574703578456	-5.17137212103169	1.0562024011979505	2.531555540212026	4.197200004785636e-12	3.640810895325776	0.3124471965254115	-0.4715795834043623	0.7840267799297738	126.2220591770284
17	6.0	wm	287	diff_vonmises	-0.1313917736468301	-7.528194092701601	0.5866938107993049	218.18760917429904	0.5749422894076597	219.24414325348852	0.2087523223565242	-0.3560600316439952	0.5648123540005194	113.59192765417195
18	7.0	ltm	287	diff_vonmises	0.0143695181245814	0.8233127421752574	0.5906948564726531	158.7112699929551	0.5722671663855179	160.46508987294848	0.0959577713220767	-0.4535127742659011	0.5494705455879778	109.21628780046238
19	7.0	perception	287	diff_vonmises	-0.0267907649392673	-1.53499776094708	0.9217488164729724	394.2974563178363	0.9079371777626648	395.77142980831536	0.5584421211059691	-0.5356908507707487	1.094132971876718	92.10162935482604
20	7.0	wm	287	diff_vonmises	0.149614544675417	8.572281963672896	2.0388420354752714	1.49535687939581	0.2347911563915149	3.0696116782404093	0.1709993173415034	-0.3941133444703086	0.5651126618118121	84.02296932293629
0	1.0	ltm	45	diff_vonmises	-0.091493784402253	-5.242207697928978	4.938985300362081	0.3836324501142901	4.698171665940048e-11	1.900613926883715	0.0279836223405751	-0.3024751490141366	0.3304587713547117	61.44529756776223
1	1.0	perception	45	diff_vonmises	-0.0634296074440847	-3.634248802717644	14.97152417010946	0.7371219931947991	2.46289655511496e-11	2.46227685268787	0.7358160325941427	-0.3918835323568619	1.1276995649510049	35.016053452592814
2	1.0	wm	45	diff_vonmises	-0.0306436672024721	-1.7557527995051188	7.127966324713652	0.3842709189272909	5.836609984666054e-19	2.0611383658688323	0.0735177053090994	-0.3280401007820073	0.4015578060911067	50.95996828427644
3	2.0	ltm	45	diff_vonmises	-0.1389604173260888	-7.961845432161492	2.4164655203631717	1.3524002509071744	0.5970940113376505	2.161650232745573	0.2084040902755151	-0.246197352667453	0.4546014429429681	72.0523496577359
4	2.0	perception	45	diff_vonmises	-0.0592354615518862	-3.3939419444325387	7.420022586514944	1.1022878098753757	0.1836673680119892	1.9774965465353835	0.8010544842178722	-0.3234360863302462	1.1244905705481183	48.712676370644346
5	2.0	wm	45	diff_vonmises	-0.0341033294828469	-1.9539768467111995	4.037910261512876	0.644324421551855	0.2424118659045706	1.4961253886703356	0.198922730873845	-0.2273284808496573	0.4262512117235024	63.06863913206078
6	3.0	ltm	45	diff_vonmises	-0.0641297711031319	-3.6743652253494847	1.214106035022568	110.18230669501764	1.1932559695257374	110.60321819325794	0.2650516583980788	-0.1854849330431527	0.4505365914412316	81.47555210334869
7	3.0	perception	45	diff_vonmises	-0.0450545832035052	-2.581437465281861	3.9230205633750335	2.042227776304053	0.4310148571150339	2.4306615973351944	0.9848564672838342	-0.3403917347752641	1.3252482020590983	64.08447797737179
8	3.0	wm	45	diff_vonmises	-0.1044266793345097	-5.98320799443342	1.4240992310967884	138.01053535556372	1.404886640859906	138.48834041642698	0.2729867170003643	-0.2039675546676047	0.4769542716679691	74.56733996998054
9	4.0	ltm	45	diff_vonmises	-0.1909925121710228	-10.943064866000617	1.276456197907038	113.74522899912525	1.251082010882549	114.47353851739872	0.2448685672800081	-0.2506063125146855	0.4954748797946937	77.42881511598992
10	4.0	perception	45	diff_vonmises	-0.1268173151918008	-7.2660969296704865	2.4248444421493773	2.627578528726537	0.30052866979059	3.487611444969561	0.7879497297540988	-0.4310367102018612	1.21898643995596	80.07551904924782
11	4.0	wm	45	diff_vonmises	-0.2065597220430339	-11.835000290461243	1.2467406122777758	329.5514041537348	1.2379130915756988	330.4519822725191	0.1861519987225506	-0.2718615841255669	0.4580135828481175	76.52208244014741
12	5.0	ltm	45	diff_vonmises	-0.002186219239875	-0.1252611355351419	0.9832088920655542	3.189690346826698	0.3341747604292607	3.480628359904895	0.3272049648823253	-0.2346228392146148	0.5618278040969401	113.24415720337596
13	5.0	perception	45	diff_vonmises	-0.0422540739773513	-2.4209801061357905	2.4667217158123367	1.9293097266554065	0.0577049875033233	2.1305144722419964	0.7691344753386573	-0.3116782707789571	1.0808127461176145	85.92983171273335
14	5.0	wm	45	diff_vonmises	-0.0554915253057342	-3.1794301987619784	0.8328596787308858	146.14086227876783	0.8192039477418255	146.41576434596155	0.2965194812231218	-0.184529181330582	0.4810486625537038	100.2430232134304
15	6.0	ltm	45	diff_vonmises	-0.0971577456824756	-5.566728774611252	0.5190730731021256	3.5981232471237585	0.192366584269486	3.775372179134274	0.1789999608482071	-0.1722370169758822	0.3512369778240894	140.3954562511272
16	6.0	perception	45	diff_vonmises	-0.0492413304396074	-2.821320411798576	0.978131240474633	2.107984466302505	2.9146742859071618e-21	2.367190255719956	0.3348382399317388	-0.2761405488196214	0.6109787887513602	129.48432653775507
17	6.0	wm	45	diff_vonmises	-0.2262175359305043	-12.961310060666955	0.60808899114979	99.60676542047044	0.5931976269870253	99.712784675875	0.2527413452523639	-0.1611807082192564	0.4139220534716203	117.96270714510646
18	7.0	ltm	45	diff_vonmises	0.1128975867479977	6.468555237872363	0.8307128118432257	54.039085861926544	0.7922086815347299	54.35578573560822	0.3015890367451455	-0.1971763097654575	0.498765346510603	100.83555668530806
19	7.0	perception	45	diff_vonmises	-0.0548419445550663	-3.1422119632957664	1.003317438590494	172.7470053281591	0.9843933020527172	172.92465986395493	0.558562025417146	-0.2504682247770109	0.8090302501941569	93.17673677841576
20	7.0	wm	45	diff_vonmises	0.1560977275036062	8.943740977539829	2.1420278387817047	0.8810986609973603	0.1450427195765968	1.1049064987509143	0.2714914371029094	-0.1457559483417597	0.4172473854446691	88.82992977279503
0	1.0	ltm	454	diff_vonmises	-0.0327528820508548	-1.876601908403768	5.7927808446540245	0.3139685534323666	0.0140212680035488	2.625631907065612	-0.1294282626299099	-0.4169711101234011	0.2875428474934912	55.870542952774144
1	1.0	perception	454	diff_vonmises	-0.0280124771983576	-1.6049967171723485	13.629674454991031	0.6963690071067687	0.0488546080837399	3.1267279564918145	0.4933324939471488	-0.508711739095647	1.002044233042796	36.4270907278551
2	1.0	wm	454	diff_vonmises	0.0214846483845512	1.2309796767573506	5.219276061778267	0.4082459368590661	0.0320290834296138	2.908250599086144	-0.1156372293286742	-0.4609581145696227	0.3453208852409484	58.16226003837573
3	2.0	ltm	454	diff_vonmises	-0.081019011598705	-4.642047424927264	3.130074279256016	0.7286652840066967	0.223393348988446	1.9790682623645388	0.099909247550717	-0.2897303785971336	0.3896396261478506	69.72871136065817
4	2.0	perception	454	diff_vonmises	-0.0347290723768707	-1.9898292735990653	7.486637005156605	1.131005371261857	0.2278488759244145	2.4447122203488427	0.7301635622616172	-0.4071814471557367	1.1373450094173538	48.01747212453583
5	2.0	wm	454	diff_vonmises	0.0214243251912147	1.227523412372418	4.132147090936637	0.6543815226296018	0.2019895254533937	2.033537463671346	0.1200166590829415	-0.3149752804579081	0.4349919395408496	62.07641082228665
6	3.0	ltm	454	diff_vonmises	-0.02355847513026	-1.3498011967278123	1.282131031789264	17.394612609575162	1.1358839519411157	18.198317415938725	0.1740109038611095	-0.2437212573405762	0.4177321612016857	77.81074985591468
7	3.0	perception	454	diff_vonmises	-0.0284649855524753	-1.630923536057704	4.133180660483819	1.9485781755693703	0.3310662161746879	2.7330641479313624	0.9355970321570304	-0.4006325577534411	1.3362295899104717	63.043160692031535
8	3.0	wm	454	diff_vonmises	-0.0538647152195721	-3.0862208467555745	1.9813627971837229	1.9035442268366296	0.6991315403694155	2.8662044160571534	0.1613380244364782	-0.2708855881663019	0.4322236126027802	74.45220938519762
9	4.0	ltm	454	diff_vonmises	-0.1332421209789858	-7.634211185467411	1.0362354622179883	136.05396564442376	1.0149552433388342	137.37164733457067	0.0924174098485082	-0.3291761479586768	0.421593557807185	81.4624973009451
10	4.0	perception	454	diff_vonmises	-0.1047055037304029	-5.999183455543383	2.182981256348599	3.0218528776009075	0.3672813965451679	4.299079450281712	0.6878798657630162	-0.4965363047190105	1.1844161704820269	81.33650649813791
11	4.0	wm	454	diff_vonmises	-0.1562562514110387	-8.952823728387635	1.0541220836145804	332.79318619698205	1.0446672266396924	334.2786748832963	0.0723146540195642	-0.3623593137436955	0.4346739677632598	79.74757858109712
12	5.0	ltm	454	diff_vonmises	0.0128098726491959	0.733951638898997	0.996073313082006	3.9376821523050496	0.4153083204373275	4.953185531336966	0.1983068260368365	-0.3183691039753823	0.5166759300122189	104.03548467849056
13	5.0	perception	454	diff_vonmises	-0.0410986046520064	-2.354776590436702	2.236231412872655	2.3253619476972083	0.1721626050046339	3.276899860458308	0.6678719684052572	-0.4310508584227382	1.0989228268279954	85.76903109567263
14	5.0	wm	454	diff_vonmises	-0.0275582188100571	-1.578969628714312	0.701937578713576	211.3319020054856	0.6901479568054828	212.35765999901656	0.1848227685711307	-0.3124458863328065	0.4972686549039373	103.05998489804396
15	6.0	ltm	454	diff_vonmises	-0.1037545341902267	-5.944696914445792	0.446397515667534	138.9775074022754	0.4335191463827862	139.86182400290818	0.1237834397635779	-0.299563957147555	0.423347396911133	127.52599366206184
16	6.0	perception	454	diff_vonmises	-0.0587526386740811	-3.366278231281945	1.0209368533585763	2.668033895930728	0.0724894116557952	3.620981666531319	0.3034235514911008	-0.4155999132878863	0.7190234647789872	123.25982972677338
17	6.0	wm	454	diff_vonmises	-0.1865064506800572	-10.68603247593212	0.5627433290945533	151.36380398753855	0.5484169352918432	152.21898095557674	0.189656041375855	-0.3057480998275999	0.4954041412034549	116.51694605305131
18	7.0	ltm	454	diff_vonmises	0.0729692809165776	4.180831830624397	0.7624785006394044	184.57272326097495	0.7481586532800911	185.6734566247296	0.1812699254231304	-0.3198536043881326	0.5011235298112631	98.43596315069922
19	7.0	perception	454	diff_vonmises	-0.0574935793505311	-3.294139445885936	1.3669636676536614	4.394956680574725	0.4759468674906251	5.3523112922441305	0.503393184993427	-0.4037210493733124	0.9071142343667392	94.16620449789374
20	7.0	wm	454	diff_vonmises	0.1757501335788616	10.069740902929222	2.076466547906098	1.19085472449079	0.2497141999851895	2.1881637732906007	0.1882564587777657	-0.2761047184325992	0.4643611772103649	83.93927790991253
0	1.0	ltm	385	diff_vonmises	-0.0495304071854183	-2.837883289288918	3.498858982446953	0.2511105558668492	4.316796680348656e-17	2.5685794833231417	-0.2294608164120529	-0.4086382051762006	0.1791773887641476	73.33041840758176
1	1.0	perception	385	diff_vonmises	-0.0184675680718831	-1.0581137083894545	14.568695489924067	0.6867915831166584	0.0460622939986732	3.126893739729064	0.5156761351328013	-0.5086908962370943	1.0243670313698956	35.24901930806041
2	1.0	wm	385	diff_vonmises	0.036018752685302	2.0637225121933107	4.206087687401423	0.3179194260506185	8.7905404505932e-20	2.818695016334241	-0.1974000188455741	-0.4485534394829402	0.251153420637366	66.7180930434252
3	2.0	ltm	385	diff_vonmises	0.0300263002159943	1.72038027676923	4.131604926020916	0.3724900809561456	1.6421414158035824e-24	1.7441396395596167	0.0138846300218115	-0.2775132871610709	0.2913979171828824	67.33388537456474
4	2.0	perception	385	diff_vonmises	-0.0196690214331976	-1.1269519152745815	7.936038937223802	1.2397930293571828	0.291260210409261	2.652743485017381	0.8168098344567489	-0.4538493211772793	1.2706591556340283	46.36854426343768
5	2.0	wm	385	diff_vonmises	0.0362458648827482	2.0767350825829163	4.115252426176925	0.5418585837987681	0.1288300156612533	2.161994816086604	0.0333248279486481	-0.3366979015545117	0.3700227295031598	62.991009307283775
6	3.0	ltm	385	diff_vonmises	0.0448999615429354	2.572578296709903	2.605319355177292	0.899973420272499	0.5220241842744128	1.695891759108192	0.1179149792074686	-0.2138688142008653	0.3317837934083339	70.02743552371254
7	3.0	perception	385	diff_vonmises	-0.0133976555801112	-0.7676291201102695	4.284047579123736	2.084336460755768	0.3473274392440867	2.8356494907749177	1.0435055920888936	-0.4183150944769715	1.4618206865658652	61.9796353013798
8	3.0	wm	385	diff_vonmises	-0.0718901264994828	-4.119000837081964	3.377533934639237	0.6981319999070499	0.283913429838274	1.7794641981158836	0.1201618207975311	-0.2621996255918866	0.3823614463894178	66.56881078807587
9	4.0	ltm	385	diff_vonmises	-0.0490662235881673	-2.8112875282472376	0.98239932451264	150.6311809086148	0.96524345373538	152.2125253187014	-0.0400436228598266	-0.3455328219674456	0.3054891991076189	79.27770756503125
10	4.0	perception	385	diff_vonmises	-0.076558386581849	-4.386472437470945	2.216282699075226	3.1549930634958185	0.399889654683172	4.637790782010022	0.6729013769487886	-0.5338353012686717	1.2067366782174602	79.76709873570977
11	4.0	wm	385	diff_vonmises	-0.0920092011541658	-5.271738902503927	0.9649616859833996	272.84459459747643	0.95399799698719	274.6993288265851	-0.049914770330659	-0.4032187961676712	0.3533040258370121	79.78465261717525
12	5.0	ltm	385	diff_vonmises	0.0486686860032069	2.788510302431182	1.3797105433278605	1.7827420790009387	0.3295592711173742	3.076623485679548	0.0715353678840982	-0.3116353752582752	0.3831707431423734	92.89102147742452
13	5.0	perception	385	diff_vonmises	-0.0123702459669579	-0.7087628854454179	2.200143544420364	2.3629423700459493	0.1680345374325172	3.61983573316184	0.6142125307122567	-0.4790248911944229	1.0932374219066796	86.04826325959021
14	5.0	wm	385	diff_vonmises	0.0143333256320982	0.8212390651059116	0.6016073596178596	11.299393138946773	0.4218814134458843	12.841584789177254	0.0217937538249808	-0.380737616955306	0.4025313707802869	115.08339210882744
15	6.0	ltm	385	diff_vonmises	-0.2036863607088127	-11.67036881299429	0.4481289073195828	173.47510808582624	0.4376309139805727	174.87830515920805	0.0070788444139253	-0.35317349750472	0.3602523419186454	122.69069056927684
16	6.0	perception	385	diff_vonmises	-0.0340074183879198	-1.948481545763396	0.5068854666139053	224.19842673081328	0.4924153395586708	225.658321327574	0.2481714290245378	-0.4997635749391236	0.7479350039636614	121.50393169912267
17	6.0	wm	385	diff_vonmises	-0.0838129765583562	-4.802129825222718	0.4114489004728024	175.31539188468875	0.399276108766422	176.90332276596507	0.0297902691954732	-0.4235900151518272	0.4533802843473005	128.32203469560716
18	7.0	ltm	385	diff_vonmises	0.0855177338927845	4.899805225579432	0.8866604689511668	201.03343479497056	0.8734069467984212	202.5570097550402	0.0239306531294545	-0.3478523401070958	0.3717829932365504	85.9878248302951
19	7.0	perception	385	diff_vonmises	0.0152099622525807	0.8714666436261727	1.779540519761341	1.7452424299122982	7.75594072330171e-13	3.21212532149674	0.3275126602618123	-0.4873507481304484	0.8148634083922608	102.44988925397216
20	7.0	wm	385	diff_vonmises	0.1600297053803168	9.16902671501416	0.797307975201616	92.63842278116476	0.7724681074258847	94.25760811960936	-0.0436989837932451	-0.3436846179168267	0.2999856341235816	88.58350690914094
0	1.0	ltm	264	diff_vonmises	-0.2640297355377418	-15.12778951226789	0.9222596760334318	1.3257286014689964	0.2054146794119609	2.0698244153922025	0.03315086331111	-0.1969139764666282	0.2300648397777382	115.43743609704217
1	1.0	perception	264	diff_vonmises	-0.0694811042932848	-3.980974031913525	14.935334113616848	0.7381712012339761	5.95622567007077e-19	1.698306179274236	0.8579638087098862	-0.270293823314885	1.1282576320247713	35.05407100171985
2	1.0	wm	264	diff_vonmises	0.0289188014804551	1.6569252734067548	2.302616243331729	0.5140082266703198	2.6559484385588078e-49	1.323347467957683	0.0779302256215382	-0.2077317573389388	0.285661982960477	90.61864743201562
3	2.0	ltm	264	diff_vonmises	-0.0359156074394189	-2.057812724927369	4.909695217271766	0.3567170131025461	0.0205649592891462	0.8480735510811326	0.168563330863286	-0.1336143450720198	0.3021776759353058	61.13514115463156
4	2.0	perception	264	diff_vonmises	-0.03405508231431	-1.9512124875805776	7.5262275825068095	1.186798259869109	0.2167828755447129	1.5981002137733236	0.9636024184668808	-0.2617996079984115	1.2254020264652925	48.47433769583336
5	2.0	wm	264	diff_vonmises	-0.0122086007562024	-0.6995012970906235	5.136920288369566	0.3468108448950328	0.0681530521267699	0.8322222932789375	0.1634386897774113	-0.1305063588905648	0.2939450486679762	58.97192457021436
6	3.0	ltm	264	diff_vonmises	0.0119870841057948	0.6868093279303961	1.3540161644584623	65.20184982596675	1.3291446690321924	65.39840331220749	0.213437882651057	-0.1166975569264225	0.3301354395774796	78.40190532886237
7	3.0	perception	264	diff_vonmises	-0.0307856599602728	-1.7638883852485217	3.983766276160333	2.073645938769213	0.4189664725611851	2.1269064305809358	1.0979498921709427	-0.2948757571736097	1.3928256493445526	64.2966291869567
8	3.0	wm	264	diff_vonmises	-0.146351494761713	-8.385322975277136	1.56725357487886	93.34432316261712	1.5447005573325183	93.56094635724035	0.2683829399658535	-0.1410749889022859	0.4094579288681395	72.81185007958439
9	4.0	ltm	264	diff_vonmises	-0.1393465843946917	-7.9839711753793745	1.6174702840340915	92.90049018931664	1.5912286082890608	93.51464484407131	0.1412827530836011	-0.2060606484739544	0.3473434015575556	67.04952181724903
10	4.0	perception	264	diff_vonmises	-0.1243620430582951	-7.125420198864526	2.420002557657437	2.7821064714511645	0.3727915034377979	3.5016636505102103	0.8268552884219813	-0.4124596253664572	1.2393149137884385	79.04645140477155
11	4.0	wm	264	diff_vonmises	-0.1542809692808182	-8.839648398978388	1.3680245723875268	202.0098899824688	1.355267251739905	202.83575974012493	0.1267916522625398	-0.2420480287571607	0.3688396810197005	72.00304176779974
12	5.0	ltm	264	diff_vonmises	0.0536156948507397	3.071953030608688	1.619803445245644	0.855802200954921	0.0389011349985312	1.175284099099259	0.1940026187152583	-0.1646300757408311	0.3586326944560895	104.96628367984944
13	5.0	perception	264	diff_vonmises	-0.0183280896313322	-1.0501221824128255	2.349329909071873	1.9030285211687343	0.1000086314637216	2.0320660054941952	0.7246230094017186	-0.2823835587574835	1.0070065681592022	86.89238861239181
14	5.0	wm	264	diff_vonmises	0.0297884335013226	1.7067515179318955	0.663475583697891	65.34924711252695	0.6417133744993647	65.69781955091669	0.175013629283093	-0.1656107329284566	0.3406243622115497	110.44988043683308
15	6.0	ltm	264	diff_vonmises	-0.2396459538766382	-13.730701734518158	0.3494982633207749	79.286171094707	0.3371955504534165	79.68881047676716	0.0892893204787519	-0.169516344758934	0.258805665237686	139.05803891068734
16	6.0	perception	264	diff_vonmises	-0.047220680042759	-2.7055456721877307	0.5452548229430496	213.7702152252266	0.5333584593759644	214.1836366377041	0.3733997547670284	-0.3129522077544351	0.6863519625214636	122.0457148760086
17	6.0	wm	264	diff_vonmises	-0.1344759456350651	-7.704904130919936	0.486892537315696	53.404278865159206	0.4598423180846105	53.82209036531084	0.1688546591875557	-0.2065738509233039	0.3754285101108596	126.6137664921781
18	7.0	ltm	264	diff_vonmises	0.1557921317238573	8.926231629123208	1.01152578062891	96.7507200836093	0.990291842262401	97.30251617683192	0.2010649689490122	-0.1945405005905751	0.3956054695395874	87.78180828579065
19	7.0	perception	264	diff_vonmises	0.0001641473796881	0.0094049520742639	2.2279359169678763	1.5347423111534175	1.9179290825214684e-13	2.0401256303794906	0.520126534512545	-0.3148875241716608	0.8350140586842059	92.09474184571238
20	7.0	wm	264	diff_vonmises	0.1028997628519373	5.895722124313063	1.5803258992827474	0.8909079790720338	0.1761254746935081	1.4069011171657742	0.1333318254786475	-0.1698905372307223	0.3032223627093698	98.0813524962085
0	1.0	ltm	241	diff_vonmises	-0.1766685150714135	-10.12236028643537	2.3357583787831944	0.4120173872715694	2.5972226336762176e-18	1.1236256403263976	0.0544431995435803	-0.1766475604811293	0.2310907600247096	89.95727640253385
1	1.0	perception	241	diff_vonmises	-0.0578225967348348	-3.312990753392969	13.28443850848124	0.7334537423006618	1.127447174909777e-21	1.6868416931753984	0.7874100604624885	-0.2684691936793115	1.0558792541418	37.18906390540499
2	1.0	wm	241	diff_vonmises	0.0317283142267269	1.8178984962563391	4.568948872193252	0.3977654832849806	4.506262529836793e-28	1.1670757514144967	0.1429128853820424	-0.1857105380433126	0.3286234234253551	63.945371837337206
3	2.0	ltm	241	diff_vonmises	-0.0192053106637433	-1.100383245270086	2.2015485043187257	2.2147171372195635	1.2528983738484156	2.5459762374393327	0.2204186999771955	-0.1553859746312649	0.3758046746084605	67.7825796635442
4	2.0	perception	241	diff_vonmises	-0.0188769957165132	-1.0815721844427408	6.799330555392481	1.2745214823220177	0.3971725484601577	1.4684846215172511	0.9651908203476351	-0.2426497784128886	1.207840598760524	50.23168447671944
5	2.0	wm	241	diff_vonmises	0.0355440097282243	2.036521744399194	4.929521019899269	0.4285069252763612	0.2739428227264487	0.765969021791467	0.2114109540937506	-0.1192440655988089	0.3306550196925596	58.16024345082411
6	3.0	ltm	241	diff_vonmises	0.0519084261297435	2.974133738400908	1.523053478833572	50.91623457771837	1.4926836764551947	51.05560532750865	0.2098710316968386	-0.1025545079631644	0.3124255396600031	74.41208822452333
7	3.0	perception	241	diff_vonmises	-0.018790143384989	-1.0765959124055344	4.750987217238721	1.6330123119116051	0.3602087738721918	1.686570858318379	1.005272190912312	-0.2503447154361576	1.2556169063484697	59.76459938361344
8	3.0	wm	241	diff_vonmises	-0.0735560863736198	-4.214453306708159	1.6525108084443962	72.41030485117167	1.6263714028522325	72.5864411314249	0.241104388544187	-0.1231873464209964	0.3642917349651835	71.02084959605276
9	4.0	ltm	241	diff_vonmises	-0.1982548563527026	-11.359166536982256	1.6357652628808426	111.53306399486648	1.6146149418059368	112.04244137883276	0.1708988736867027	-0.1879638943563666	0.3588627680430694	67.68430323694184
10	4.0	perception	241	diff_vonmises	-0.1057575217899047	-6.059459650324383	2.779918180639803	2.033717369653609	0.150626114018603	2.742352991696115	0.7704830948828736	-0.3829161590144169	1.1533992538972906	78.4544575569175
11	4.0	wm	241	diff_vonmises	-0.1405349622833569	-8.05206021286656	1.419445286163033	194.1314491149205	1.405651408632629	194.85260858837756	0.1764260579892607	-0.2336607848245329	0.4100868428137936	71.97828557920045
12	5.0	ltm	241	diff_vonmises	0.009300403817752	0.5328738865245507	1.578304855543016	0.9847475791704868	1.4701040479899218e-13	1.012690975985824	0.278726666868829	-0.1424462844838064	0.4211729513526354	108.0818024554406
13	5.0	perception	241	diff_vonmises	-0.0430688948228286	-2.467665901640922	2.2886682830842244	1.92915995478692	0.1502874106184695	1.712000390413048	0.7641442698266645	-0.222808963239038	0.9869532330657024	87.36228496116092
14	5.0	wm	241	diff_vonmises	0.081827429318658	4.68836634836416	0.8356915389396005	56.39838863692615	0.8095193244884008	56.35632300753507	0.2946577763398323	-0.1192022212643761	0.4138599976042085	103.9164432292869
15	6.0	ltm	241	diff_vonmises	-0.1131173635846005	-6.481147523044439	0.4502144093405669	93.68309448151614	0.4393183429374855	93.6529960286108	0.1960571315134096	-0.1177487823461493	0.313805913859559	132.81686657560346
16	6.0	perception	241	diff_vonmises	-0.0605249139047686	-3.4678221221359147	0.6597232527127509	129.7883871239696	0.6422607086170707	129.74094175358334	0.4437420252822406	-0.2185651487989002	0.6623071740811408	115.56503358233464
17	6.0	wm	241	diff_vonmises	-0.0877284269407815	-5.026468607028568	0.981601191632575	1.7597658782022758	0.1725938025584148	1.6348236811360592	0.2882847819495531	-0.1337523039025565	0.4220370858521096	122.34442222286232
18	7.0	ltm	241	diff_vonmises	0.1142189567121879	6.544264159995817	1.0264664509069112	79.24604399236998	0.9994865685289288	79.64117555351952	0.2689800035805518	-0.1851530726747832	0.454133076255335	89.29874875346903
19	7.0	perception	241	diff_vonmises	-0.0425911838177669	-2.440295077223932	2.331190347535205	1.7067910934150357	0.0863871833950847	1.989861942780663	0.6205309072049947	-0.2809725408909398	0.9015034480959344	87.36499970200569
20	7.0	wm	241	diff_vonmises	0.1576351977257055	9.031831532393165	1.9652080802431973	0.7417007390008655	1.830650718881521e-17	1.0379600732881953	0.2133956993687809	-0.1577626254718079	0.3711583248405888	97.78443902937336
0	1.0	ltm	120	diff_vonmises	-0.0227400949121612	-1.3029114641937565	3.410844158036566	0.3229521308193945	8.609719156128281e-20	2.645404407063252	-0.1936381908934197	-0.4207813354913396	0.2271431445979199	74.29677335094652
1	1.0	perception	120	diff_vonmises	-0.0272096129636839	-1.558995985003542	14.733126234699906	0.6348154521301738	0.0041162479170678	3.1055273532646583	0.4668576255102931	-0.4949328405213333	0.9617904660316264	35.272703352492414
2	1.0	wm	120	diff_vonmises	0.0264772182188987	1.517032857189788	3.414049903959634	0.417012966744783	1.3864810162828499e-17	2.8992460046259185	-0.1676775770807139	-0.461111147837371	0.2934335707566571	74.26548120401864
3	2.0	ltm	120	diff_vonmises	0.0482519577165552	2.764633530402323	4.120074633051799	0.4601913009943241	0.0460706784090754	1.771127233926845	0.0645401738952869	-0.276645764871313	0.3411859387665999	65.49486016244998
4	2.0	perception	120	diff_vonmises	-0.0145568680516369	-0.8340471022876248	6.979631315475937	1.2846277811781446	0.2861200892368546	2.575734368520379	0.7931021172050238	-0.4303017199480315	1.2234038371530551	49.33609196388261
5	2.0	wm	120	diff_vonmises	0.0364597770745344	2.08899134835866	3.972403750280403	0.6399938240268913	0.1649246496542789	2.141233074657817	0.0910311734279573	-0.330389348933061	0.4214205223610183	63.66529683409456
6	3.0	ltm	120	diff_vonmises	0.03173681842265	1.818385750790889	3.073705316083024	0.7764058520430746	0.2884477516856534	1.7894649735687618	0.1433318071196073	-0.2552459703814915	0.3985777775010988	69.59459035978009
7	3.0	perception	120	diff_vonmises	-0.0145282179017805	-0.8324055696184354	4.332535428204973	2.0478591978947365	0.2469359927049476	3.001384503320873	1.042026621868379	-0.4495106700826569	1.491537291951036	62.48074995136378
8	3.0	wm	120	diff_vonmises	-0.0505084402401324	-2.893920455548322	3.4652821755457937	0.7495488456369557	0.1956590693907881	2.010520365192402	0.1470223078522079	-0.3003442632639406	0.4473665711161486	67.64307495263941
9	4.0	ltm	120	diff_vonmises	-0.1012110226432887	-5.798964437663456	2.041573369425304	1.0734047157571072	0.2885738870835432	2.824543398394542	-0.0269533876896341	-0.368464524115821	0.3415111364261868	78.7771109969135
10	4.0	perception	120	diff_vonmises	-0.0658563097147094	-3.773288600959252	2.063169358734169	3.2423245091184065	0.3066207971544462	4.881899417332385	0.6729409186041198	-0.5766987405168854	1.249639659121005	84.17996894863631
11	4.0	wm	120	diff_vonmises	-0.0753836030696809	-4.319162300382152	0.929420627165743	309.2337862912731	0.9183552202773112	311.2713936231286	-0.0138318422116014	-0.452481822921527	0.4386499807099255	82.62426507757752
12	5.0	ltm	120	diff_vonmises	-0.0049037510349286	-0.2809642380843234	1.291402435145499	1.8940012391397505	0.2610758603142142	2.975590791346765	0.1453112996830816	-0.3045689002030859	0.4498801998861676	100.54085624259974
13	5.0	perception	120	diff_vonmises	-0.0127229859649306	-0.7289733985947061	1.551856982960398	3.8413388692622825	0.3812804910708953	4.853454978481365	0.6075410167391306	-0.4510035346393808	1.0585445513785114	93.0267785735212
14	5.0	wm	120	diff_vonmises	0.032740415218547	1.8758876115286385	0.9999792868295498	2.6772860158327028	0.2387889505040887	3.9162593516291455	0.1346060803341697	-0.3601532658708633	0.4947593462050331	111.74057799261108
15	6.0	ltm	120	diff_vonmises	-0.1531292859042936	-8.773661802168151	0.4280053827865845	194.9222440118035	0.4184595796776757	195.9959093099125	0.0943595005582409	-0.3316392542578192	0.4259987548160602	128.30302245036805
16	6.0	perception	120	diff_vonmises	-0.0172933259710514	-0.990834591885225	0.6051049208704915	279.2241745728002	0.5927473767803145	280.3446843172661	0.3569953696644603	-0.4460911784119972	0.8030865480764575	113.65154475622056
17	6.0	wm	120	diff_vonmises	-0.01199364136675	-0.687185031308295	0.444163336829985	214.4044561097589	0.4333780422928696	215.6080716939908	0.1455356952824331	-0.3933413099449439	0.538877005227377	127.34601303184334
18	7.0	ltm	120	diff_vonmises	-0.0055024942939182	-0.3152696998363323	0.8922328475035387	191.38762961334112	0.8762424764361582	193.11247485354556	0.034428851499058	-0.3964314967082849	0.430860348207343	85.98805483905133
19	7.0	perception	120	diff_vonmises	0.064020357439608	3.668096284208502	1.7497752324608469	1.9722665398621064	9.275659889495593e-16	3.68089449764028	0.3523055051402628	-0.5574888375372723	0.9097943426775352	103.229293155079
20	7.0	wm	120	diff_vonmises	0.1114348946831686	6.384749155830379	0.710822581748334	135.6535496040169	0.693201392020218	137.45240477888422	-0.0539118699710172	-0.3796775994813668	0.3257657295103495	93.714779980351
0	1.0	ltm	339	diff_vonmises	0.0817770312473847	4.6854787515846015	5.509212608654967	0.2706911232431275	0.0240696114311145	3.572281997878283	-0.3352033501495512	-0.5682422878138196	0.2330389376642683	56.25561428407164
1	1.0	perception	339	diff_vonmises	0.0555392513326184	3.182164698675368	9.765577959331306	0.7883175771487222	0.0957098946350903	4.103650598046599	0.2524522986184911	-0.6762463121613861	0.9286986107798773	42.4104580969003
2	1.0	wm	339	diff_vonmises	0.1109848027589189	6.358960788177952	3.767310174998907	0.468877007837135	0.0352847628231942	3.8608213459134	-0.2875137529539002	-0.6065849353396218	0.3190711823857215	67.30794240330454
3	2.0	ltm	339	diff_vonmises	0.0683282698916122	3.914921486220198	3.3035138380905256	0.6383893304788879	0.2139268843799482	2.0905187729488066	0.0341323183045585	-0.3134900176925222	0.3476223359970808	67.42877698722714
4	2.0	perception	339	diff_vonmises	0.0111769157654422	0.6403901013330755	6.5555724764983525	1.4126723413682405	0.3473152391218597	2.886129248220884	0.7821109602362498	-0.4845746444294769	1.2666856046657269	50.29410596925268
5	2.0	wm	339	diff_vonmises	0.0980298106191761	5.616694414945535	4.019741688687721	0.700818014914551	0.1950666759903185	2.3471134960193094	0.0905050252798125	-0.3632986777143141	0.4538037029941267	62.64775913274536
6	3.0	ltm	339	diff_vonmises	0.0711727172601672	4.07789631548549	3.8785069435925377	0.4605265068043062	0.1455075984694965	1.4035250954224137	0.0911514803522809	-0.2150879824703901	0.3062394628226711	65.12979015667031
7	3.0	perception	339	diff_vonmises	0.0182525360506872	1.0457932811147614	5.007766831586793	1.5630065013579613	0.1489622429884045	2.5396652990641617	0.889924748798809	-0.3933277887220362	1.2832525375208452	59.18847457039894
8	3.0	wm	339	diff_vonmises	0.0348986421003881	1.9995449030898127	4.328427158982066	0.4967388350636795	0.0513316020088654	1.692034309359233	0.1153574146150824	-0.2643377009987458	0.3796951156138283	63.978708000550256
9	4.0	ltm	339	diff_vonmises	0.0524464483055813	3.004960138360861	0.6016457116681518	99.12282791978448	0.5794783182032119	101.34047573208618	-0.1648157499198461	-0.4310272734478513	0.2662115235280051	97.4452302865291
10	4.0	perception	339	diff_vonmises	-0.0352743170449395	-2.0210694918814163	1.93853470788338	3.290682590412999	0.3094778712125887	5.253446134666175	0.5532634943606045	-0.6110997500692679	1.1643632444298724	85.4464000749729
11	4.0	wm	339	diff_vonmises	0.048744230103149	2.792838660524977	0.7733987829670502	192.13747294511	0.7563250548963188	194.61706658826608	-0.1058461088940987	-0.5121175881811446	0.4062714792870459	88.47549360712475
12	5.0	ltm	339	diff_vonmises	-0.0506841745780226	-2.903989291424955	1.884454606366266	0.9638109389990648	5.1457268089311004e-18	2.351565417007328	0.1053446288944305	-0.3631951838726553	0.4685398127670859	99.7728983120447
13	5.0	perception	339	diff_vonmises	-0.0404787021233723	-2.319258791836479	1.4901009459155736	4.95498766773463	0.4658818728726905	6.266780320638517	0.6312362214253573	-0.5203525983104695	1.1515888197358268	91.3429249417676
14	5.0	wm	339	diff_vonmises	0.108162539120254	6.197256993009217	1.0719114025170975	2.836063812174425	0.2272040262772513	4.322041704415854	0.1552510254809119	-0.4229719265964833	0.5782229520773953	109.4927372440851
15	6.0	ltm	339	diff_vonmises	-0.0501070258235858	-2.870921103644499	0.5209932183791366	245.05717841587517	0.5110581576695684	246.34716936552024	0.1351852871160588	-0.3862261219210801	0.5214114090371389	118.18907480394148
16	6.0	perception	339	diff_vonmises	-0.0809369818428241	-4.6373474661208	0.5850130242960875	247.9370515176176	0.5697631501888676	249.18050725126568	0.39083386545812	-0.5010271327492113	0.8918609982073313	115.64953156715691
17	6.0	wm	339	diff_vonmises	0.0192888577161918	1.1051701387661448	0.5319256351151946	237.03273262235376	0.5194276493663195	238.3775881193617	0.2190720571721556	-0.4457557140562933	0.6648277712284489	118.57989889377896
18	7.0	ltm	339	diff_vonmises	0.007028797953244	0.4027204577710732	0.690259713222233	209.62168209964625	0.6761199739964575	211.99338740014852	-0.0996295713311141	-0.4897604255661463	0.3901308542350321	93.97626534522286
19	7.0	perception	339	diff_vonmises	0.0184630325911469	1.0578538444852092	1.4600523020713116	4.040929997125232	0.315019014941078	6.199539112337104	0.4028702775101322	-0.6304498475016115	1.033320125011744	94.36744978748057
20	7.0	wm	339	diff_vonmises	0.1791191149300021	10.262769315607857	1.1836132998480349	2.921375944160562	0.373599421784102	5.267256917916812	-0.0778711334075132	-0.4882539519866314	0.4103828185791182	91.62671921205026
0	1.0	ltm	97	diff_vonmises	-0.0511277093855127	-2.9294019639612863	1.8104998876737175	0.409484430448992	4.913306902898258e-16	2.561636543586183	-0.2088283516719695	-0.4023761882293051	0.1935478365573355	101.63996050334552
1	1.0	perception	97	diff_vonmises	-0.0212586880274163	-1.2180331019562511	13.441046491368812	0.7167625389978153	0.0127662556414344	2.984382933676907	0.5570809615159118	-0.4770869348212241	1.034167896337136	36.881731495472565
2	1.0	wm	97	diff_vonmises	0.0428505378437534	2.455154968312685	5.110729771269543	0.3210853044952528	4.53531100485016e-19	2.575301338633221	-0.1282254987767812	-0.4098616880656687	0.2816361892888875	60.38599079835839
3	2.0	ltm	97	diff_vonmises	-0.062347540758965	-3.572250948508572	4.321619564246606	0.4180802600860656	1.0461510287258868e-20	1.971752343893964	0.0213843771578918	-0.3137550173651752	0.335139394523067	65.80272499220027
4	2.0	perception	97	diff_vonmises	-0.0267974793857988	-1.5353824703950996	7.825977481174647	1.2061444536911556	0.133131495718028	2.809736126447031	0.8142481195283797	-0.4582713398904188	1.2725194594187983	47.56319762490327
5	2.0	wm	97	diff_vonmises	0.038937752564476	2.2309688856691734	4.559905070873604	0.4550297290668308	0.0413096614015713	2.1235645443250144	0.0234889570675151	-0.3340068774760066	0.3574958345435217	62.27219033337033
6	3.0	ltm	97	diff_vonmises	0.0240674568920953	1.3789637035301108	2.1508427855152483	1.023956255206386	0.3883107479644115	1.8358750131510744	0.1368355750532519	-0.2190569058872405	0.3558924809404924	78.68804718380312
7	3.0	perception	97	diff_vonmises	-0.0152788102748054	-0.8754113447274702	3.902997920354524	2.1337975415279624	0.2606505014197693	2.9051000225690444	1.0287200747533718	-0.4220284003188918	1.4507484750722637	65.56867419072174
8	3.0	wm	97	diff_vonmises	-0.0986983941776991	-5.655001431100739	2.777719052346307	0.8924845748903125	0.3212666529324419	1.8287340144715485	0.1680922529029081	-0.2489723018441675	0.4170645547470757	72.39036591415072
9	4.0	ltm	97	diff_vonmises	-0.0352987231147357	-2.0224678566752443	1.6622455894135668	1.7512563929352	0.5426329344876958	3.45068692227832	-0.0715890984440992	-0.3585903435276247	0.2870012450835255	75.72239955255895
10	4.0	perception	97	diff_vonmises	-0.1085802385716601	-6.221189408679718	1.721638807946807	5.029698932390593	0.5645476716310843	6.758537783197229	0.6194989926093226	-0.588627907285123	1.2081268998944457	83.3796392839709
11	4.0	wm	97	diff_vonmises	-0.1198685780813804	-6.867963620297469	0.9499797512857964	252.6510219477363	0.9393022572297572	254.520875840658	-0.1049386025122345	-0.3900690769090076	0.2851304743967731	78.20932129984132
12	5.0	ltm	97	diff_vonmises	0.03426377808276	1.9631698743150048	1.996434774002076	0.7664818792263567	5.168533525250373e-16	1.929205205363354	0.0879478669991601	-0.299756267298404	0.3877041342975642	97.09942137905298
13	5.0	perception	97	diff_vonmises	-0.0438575467852836	-2.512852330594306	2.46086030722441	2.2191989742547187	0.1016370164120708	3.259473506052172	0.7229338965807107	-0.4621346188212381	1.185068515401949	84.0328747072742
14	5.0	wm	97	diff_vonmises	-0.0090892523351656	-0.5207757977344222	0.57756421603993	144.10324010407658	0.5632879158363107	145.40510977421854	0.0514557990215962	-0.3280462919500024	0.3795020909715987	109.60644773695994
15	6.0	ltm	97	diff_vonmises	-0.1548683613318594	-8.873303484422582	0.4049698674229442	99.86134432654234	0.3921139927183817	101.03148222429292	-0.0298992485866911	-0.2787670765685526	0.2488678279818614	126.63535037610794
16	6.0	perception	97	diff_vonmises	-0.1187128248616483	-6.801743838648162	0.5802128377846121	4.646146523953566	0.107109114723682	5.780009294354812	0.1954369026873663	-0.4429413857385603	0.6383782884259266	140.69884941531308
17	6.0	wm	97	diff_vonmises	-0.1189700176189706	-6.816479898164061	0.4830927332830298	168.053517481174	0.4730796582049094	169.26683629460368	0.0201126867436158	-0.3072833102800114	0.3273959970236273	118.98706761173936
18	7.0	ltm	97	diff_vonmises	0.1480578027825727	8.483087223421716	0.821084122793364	62.02199108555599	0.7835057483685642	63.30754883917601	0.0587424772075735	-0.307402589495795	0.3661450667033685	91.72852014597376
19	7.0	perception	97	diff_vonmises	0.0013371569107457	0.07661344753248	0.819630921304417	227.3537161621124	0.801634763713788	228.4983655994897	0.4333618411915694	-0.4299601007206419	0.8633219419122113	97.98618765580238
20	7.0	wm	97	diff_vonmises	0.0564745498690319	3.235753357396628	1.7127426380566153	1.1840336728450576	0.3127028807915728	2.488119540964988	0.0275483493478616	-0.2920787072725819	0.3196270566204436	85.0188628850268
0	1.0	ltm	195	diff_vonmises	-0.0037425706667678	-0.2144335037352588	5.971868894929956	0.3718530960551586	0.0212520203919339	2.8354300439232536	-0.1066918895394798	-0.4505405799425045	0.3438486904030246	54.82019308448884
1	1.0	perception	195	diff_vonmises	-0.0205457132329314	-1.1771826553330589	12.30339838067914	0.7384911411157902	0.0322449771454737	3.381908118902916	0.4666875634086463	-0.5448208794256985	1.0115084428343448	38.40694872846555
2	1.0	wm	195	diff_vonmises	0.0007098249333303	0.0406699728729861	4.709703168348629	0.47200063461527	0.0158949273068057	3.1162318852049635	-0.1074684666660214	-0.4929917604903642	0.3855232938243428	61.95202402227778
3	2.0	ltm	195	diff_vonmises	-0.000318033457313	-0.018221974847989	2.141071747652482	1.7156644463141797	0.6616897601077352	2.7890156963684505	0.1488962838655886	-0.2920698421325421	0.4409661259981308	72.63013761555834
4	2.0	perception	195	diff_vonmises	-0.0212426373131249	-1.2171134637691838	6.384070820149162	1.3303770869775802	0.34350494166684	2.34346262863294	0.8018090024903354	-0.3878236702375548	1.1896326727278903	51.24050385202764
5	2.0	wm	195	diff_vonmises	0.0200765570532001	1.150301986301972	3.767485476873388	0.7809046224455602	0.2545318503826534	1.9486690952278185	0.1873757260154341	-0.2935397486788698	0.4809154746943039	64.40989216717509
6	3.0	ltm	195	diff_vonmises	0.0174409686174664	0.9992938924009456	3.092043306169048	0.73505308510498	0.1571808173928965	1.572172377351995	0.1987647787200424	-0.2290046583278101	0.4277694370478525	73.00326990358468
7	3.0	perception	195	diff_vonmises	-0.0109850365992321	-0.6293962349327429	4.678124154062781	1.7564917464535712	0.2326156216097159	2.510121969732993	0.9723632837227169	-0.3816850982332	1.3540483819559168	60.51365378543463
8	3.0	wm	195	diff_vonmises	-0.0314241578837427	-1.8004716214912109	3.212959414734152	0.8827718388474239	0.2499883865490582	1.8370125819857488	0.2314762261141407	-0.2637390162706038	0.4952152423847445	69.81171174506431
9	4.0	ltm	195	diff_vonmises	-0.186984447730817	-10.713419689560356	2.4855106453243856	0.9526472964615884	0.1187498008241922	2.4549442721509727	0.1210876171184984	-0.3540457088194502	0.4751333259379486	80.70689991271007
10	4.0	perception	195	diff_vonmises	-0.053602755865719	-3.071211681375821	2.344784775218461	2.4679463896737803	0.1128076930520336	3.969513455351119	0.6955284138066454	-0.5560146113000274	1.2515430251066728	85.2274815265749
11	4.0	wm	195	diff_vonmises	-0.1013757072210722	-5.808400168921343	0.980425562271404	338.6422669926531	0.969305353826868	340.363078033417	0.1358318854745164	-0.4325829126608838	0.5684147981354002	83.95104756655334
12	5.0	ltm	195	diff_vonmises	-0.0550302140106835	-3.152999008513856	1.4765489309430444	1.452716137585107	1.5001061510937096e-19	1.9867002298529128	0.3070776291308551	-0.2836719111707014	0.5907495403015566	111.1861813083442
13	5.0	perception	195	diff_vonmises	-0.0304562024948833	-1.745011862952623	1.560349973805548	3.7635412643862	0.4075415929540276	4.117217122791429	0.7243523752693585	-0.3553370616838934	1.079689436953252	94.21064880145966
14	5.0	wm	195	diff_vonmises	0.0280805683980827	1.608898055538574	0.9346490276266908	6.0906416270989405	0.5390154155939386	6.549348768679728	0.3418509675289258	-0.2579384212315412	0.5997893887604671	105.49832314013682
15	6.0	ltm	195	diff_vonmises	-0.0475803479984313	-2.72615312807385	0.4262326770174842	64.6996554524658	0.4016694125715589	64.91472898737071	0.2432685053740542	-0.2147467387932593	0.4580152441673135	134.350104225554
16	6.0	perception	195	diff_vonmises	-0.0141727644368369	-0.8120395862638625	1.3457220886607937	2.0781890260343805	7.361740478825186e-17	2.280856366736536	0.480194758183187	-0.3058538373837429	0.7860485955669299	115.49486905932535
17	6.0	wm	195	diff_vonmises	-0.0396426845680673	-2.2713585143186577	0.5076034238088273	145.4079230725544	0.493498371938863	145.51929585127388	0.356016936297415	-0.241392632717357	0.597409569014772	126.97603309846636
18	7.0	ltm	195	diff_vonmises	0.0001629633565112	0.0093371125433781	0.7751503834414334	139.21626160809242	0.7556680032318785	140.25351009796805	0.2117208634201901	-0.3180784777123371	0.5297993411325272	98.56155567024584
19	7.0	perception	195	diff_vonmises	0.0250028533128787	1.4325579706126392	0.8424098986462668	219.0437940213999	0.8232985933259083	219.92636255603367	0.5271531785298293	-0.4096283232107929	0.9367815017406222	98.20532152546588
20	7.0	wm	195	diff_vonmises	0.1275550038227845	7.308363374820637	0.7405719901686748	106.36891941602173	0.7182958586308453	107.32414870322395	0.1769498329590924	-0.2889368375728427	0.4658866705319351	100.68467291890488
0	1.0	ltm	74	diff_vonmises	-0.0150887023149552	-0.864518960976213	5.70566487991001	0.3312027716633697	3.721864031024085e-14	3.413477814820238	-0.2352536527764278	-0.5432684576903181	0.3080148049138902	57.07603408096534
1	1.0	perception	74	diff_vonmises	-0.0276496315359595	-1.5842071921023084	14.394727729426624	0.6969799605484414	0.0249836981366863	3.817607753125872	0.4222272966845722	-0.6143967079727413	1.0366240046573134	35.54662374859564
2	1.0	wm	74	diff_vonmises	-0.0267032827824367	-1.529985402577982	5.015610270832737	0.440279604690496	0.0477693497708806	3.799393660572832	-0.2515635224942572	-0.6033261111996945	0.3517625887054372	58.293055178413056
3	2.0	ltm	74	diff_vonmises	-0.0966491448286486	-5.537588092230215	3.0247220481874577	0.8015348672307807	0.1310824683112508	2.668631808853138	0.0452410550687685	-0.3984880826304902	0.4437291376992588	72.56352523288348
4	2.0	perception	74	diff_vonmises	-0.0496711909105937	-2.845949602565597	7.469261922804351	1.162792032398024	0.1370429119706269	3.1700239457326336	0.6691561500078265	-0.5171329129895588	1.1862890629973852	48.450659138559246
5	2.0	wm	74	diff_vonmises	-0.020656102010985	-1.1835074664211351	3.5402767192212274	0.8108635305439639	0.1426817163679679	2.8979175274202413	0.0536556157215706	-0.4420438159103582	0.4956994316319288	67.21172736928492
6	3.0	ltm	74	diff_vonmises	-0.0417641595018459	-2.3929100743669696	2.059398001679913	1.523564835403773	0.3255810684988121	2.918095098313281	0.1735136717675292	-0.3562644127412747	0.5297780845088039	81.07866235282884
7	3.0	perception	74	diff_vonmises	-0.0341839315474139	-1.9585950048309289	3.752636924962188	2.3918277693448022	0.2679049692130373	3.745037428455788	1.0103679329686728	-0.5438374074121749	1.5542053403808476	66.1862995856323
8	3.0	wm	74	diff_vonmises	-0.080746686701909	-4.626444357684518	2.5006649766637814	1.3121877209324408	0.2929931709897416	2.898648338302213	0.1681093156820662	-0.3891844447789045	0.5572937604609707	75.40442742876212
9	4.0	ltm	74	diff_vonmises	-0.1086653369949973	-6.226065189180158	2.03145018640483	1.1686622630008867	0.1195261912111558	3.380791281867882	0.0043711624253969	-0.4761566840414818	0.4805278464668788	86.8855613573401
10	4.0	perception	74	diff_vonmises	-0.0895433464584918	-5.130455835549292	1.719662491054451	4.602118974136699	0.4253762490640438	6.7101484018079	0.6034547222233984	-0.6675001153598858	1.2709548375832842	86.27275979815127
11	4.0	wm	74	diff_vonmises	-0.1649240962241641	-9.449454653654085	0.7871130425527385	313.8847383794794	0.776385495222601	316.2626217552545	-0.0682986644163747	-0.5032045121726441	0.4349058477562693	88.63817263245136
12	5.0	ltm	74	diff_vonmises	-0.0160373075473891	-0.9188700372186996	1.6288845388455189	1.416446851310353	0.0358632625605926	2.689885517035271	0.2014392443362778	-0.3880771679705099	0.5895164123067878	104.18615015046916
13	5.0	perception	74	diff_vonmises	-0.0392992818504236	-2.2516829879243536	2.0746050741306585	2.698377525233897	0.1577410064353786	3.888087050737216	0.7030792876080201	-0.5088482922906581	1.2119275798986782	88.97171125331536
14	5.0	wm	74	diff_vonmises	-0.0823273789253361	-4.71701135079604	0.662297943563642	276.1272504894223	0.6521044957313312	277.47784981253113	0.1632090073553058	-0.380467885303414	0.5436768926587199	104.70049730645404
15	6.0	ltm	74	diff_vonmises	-0.0902140862215904	-5.168886393126441	0.8729298698248374	1.433124124278445	1.1480087162189127e-14	2.436245669899534	0.0673663256763704	-0.3083261095143019	0.3756924351906723	133.99166295674476
16	6.0	perception	74	diff_vonmises	-0.0558301481918339	-3.1988318609820308	0.7611872537416126	2.73195893227151	3.800723865900009e-11	3.735983760965095	0.2146914287810094	-0.418016740096788	0.6327081688777975	139.1547934130387
17	6.0	wm	74	diff_vonmises	-0.1305840299286129	-7.481913786719551	0.4594337184987584	233.07615268782789	0.4515110389332723	234.0923989157942	0.1009591319352836	-0.3143020140146326	0.4152611459499162	124.85789909421364
18	7.0	ltm	74	diff_vonmises	0.0305771970688411	1.7519443413843894	0.7521320433265297	164.57400893944754	0.7356252616944222	165.90840181071198	0.1297464853015384	-0.3501690160271202	0.4799155013286587	97.40784826259043
19	7.0	perception	74	diff_vonmises	0.0212414297201737	1.217044273789708	0.7533847289657012	303.4873742224351	0.7404056350772676	304.63580650937485	0.4162553757250862	-0.4362078998342369	0.8524632755593231	102.0098311532773
20	7.0	wm	74	diff_vonmises	0.0413598228961272	2.3697432933566382	0.9030628581482258	118.9222529818004	0.8799994742215428	120.25424995608655	0.0977717497900911	-0.3311875552145498	0.4289593050046409	87.8083088248847
0	1.0	ltm	172	diff_vonmises	-0.0298359373074369	-1.709473285533057	6.098899868016265	0.5584015059073376	0.0984200958112896	2.888769548963116	0.0317369051902874	-0.4648685642482834	0.4966054694385708	52.860552041969896
1	1.0	perception	172	diff_vonmises	-0.0741940107627543	-4.25100368185403	16.49829606526266	0.6507180748743397	0.0111475147053846	3.1489885896375767	0.5392805170784062	-0.5036965310384949	1.0429770481169012	33.28185583816423
2	1.0	wm	172	diff_vonmises	-0.0477629952995696	-2.736618047568532	4.887786894181464	0.6905370719713864	0.1570393431514027	3.334859132147375	-0.0256479689712632	-0.5336900657971572	0.508042096825894	57.20515069648903
3	2.0	ltm	172	diff_vonmises	-0.1285150344246332	-7.3633690765099695	1.2819218633703433	109.7757323854953	1.249173042117612	110.86845656779784	0.2330697345164054	-0.3334263844019336	0.5664961189183391	75.87925451691342
4	2.0	perception	172	diff_vonmises	-0.0756694442579482	-4.335539794080876	6.80895986976428	1.0207904527139435	0.183156330155191	2.2284447865369748	0.6190883791798552	-0.3627822919685881	0.9818706711484432	50.51948361971603
5	2.0	wm	172	diff_vonmises	-0.0433407609262088	-2.483242681957276	3.423206804237086	0.996882378471222	0.3533600642340227	2.18407193045192	0.2234384601563578	-0.3170569049360803	0.5404953650924382	65.73500300870876
6	3.0	ltm	172	diff_vonmises	-0.109062064019731	-6.24879597331618	1.1659459840011417	207.98607724091667	1.1474543923904672	208.9986410679755	0.3407880599148001	-0.3454554168579555	0.6862434767727557	81.1344978422114
7	3.0	perception	172	diff_vonmises	-0.0661716161787592	-3.7913543306025006	3.9024540238137	2.187467783327256	0.3635154786945559	3.235532644135987	0.9424415087390752	-0.4673218306961976	1.4097633394352729	64.0787127457516
8	3.0	wm	172	diff_vonmises	-0.0640879597170419	-3.6719696093909375	1.2496562360905767	189.01800701516683	1.2292212139843577	190.16855568540456	0.2667522373648694	-0.3562724209350563	0.6230246582999257	76.99225606542157
9	4.0	ltm	172	diff_vonmises	-0.2105676930737988	-12.064640114934774	1.6981837967555424	2.95811888324203	0.5258690926050337	4.032154086535901	0.3672852437198868	-0.3603342969099815	0.7276195406298683	84.57891919713227
10	4.0	perception	172	diff_vonmises	-0.1175374053761469	-6.734397262971495	2.324545481883812	2.5910806289453268	0.1612493794915679	3.751935449100533	0.7657043784565595	-0.5031431349085319	1.2688475133650914	84.4954382283087
11	4.0	wm	172	diff_vonmises	-0.2152521737572189	-12.3330410873053	1.1068720044569451	291.4542843074171	1.0934964859848009	292.7218627292439	0.2743597253949303	-0.3801691380716292	0.6545288634665596	81.75787684300248
12	5.0	ltm	172	diff_vonmises	-0.0255250232485612	-1.462476104115863	0.6608430611013778	183.59768085194477	0.6441143497287928	183.93863175705823	0.4904157190973564	-0.3263717664746579	0.8167874855720143	113.16197049420386
13	5.0	perception	172	diff_vonmises	-0.0459466957004423	-2.6325517462072345	1.955630298104833	2.462432175193932	0.1968564862604405	2.890137724866534	0.6984881347540592	-0.3521511182119397	1.050639252965999	91.26914662394331
14	5.0	wm	172	diff_vonmises	-0.0895969944916135	-5.133529641426343	0.8860358499805863	230.01880178440837	0.8742680702207352	230.35452408832688	0.4092830530347697	-0.2379817437083069	0.6472647967430767	97.40402760980967
15	6.0	ltm	172	diff_vonmises	-0.0636586168741731	-3.647370076530408	0.7145415424681393	2.293461453386051	4.9016065221152274e-14	2.3891733267278474	0.2787241026490674	-0.222401728689242	0.5011258313383095	141.36196788700153
16	6.0	perception	172	diff_vonmises	0.002269325201694	0.1300227563997418	1.281837842256245	1.6713911822350975	2.127006020798229e-13	1.9483633669960825	0.348699366027239	-0.2593505069408837	0.6080498729681227	117.71813476540054
17	6.0	wm	172	diff_vonmises	-0.2076301482110043	-11.89633119216631	0.5951490385195585	118.23969794205664	0.580515502607464	118.24554989224248	0.3255542620707459	-0.1806829270858099	0.5062371891565558	120.02769265918892
18	7.0	ltm	172	diff_vonmises	-0.030513892769875	-1.7483172722285971	0.7276993511989721	180.42407523019347	0.711671918364957	180.80890327630195	0.4412201404349929	-0.2916148657624422	0.7328350061974351	107.462522149978
19	7.0	perception	172	diff_vonmises	-0.064214507179194	-3.679220244880344	0.927230358437454	203.31588802646849	0.9090766048800538	203.64011634916884	0.5970863297176976	-0.3062763260023615	0.9033626557200592	96.16142290638788
20	7.0	wm	172	diff_vonmises	0.1549567299744001	8.878366634681466	2.032302907996392	1.427741348607364	0.2737840567353743	1.7051997545743247	0.3934448135781442	-0.1972885501338767	0.5907333637120209	87.56825647662689
0	1.0	ltm	293	diff_vonmises	-0.0393493396252668	-2.254551087154684	3.1880553343911964	0.3784767712580805	8.706708111693296e-19	2.8922568267071824	-0.2037416428355509	-0.4598803215898162	0.2561386787542652	76.91085919399691
1	1.0	perception	293	diff_vonmises	-0.0200106246097047	-1.1465243355567036	13.42085164841048	0.724355353731646	0.0038523455411441	3.3860277588457013	0.5074110247535791	-0.5394582769264333	1.0468693016800126	36.96206108251556
2	1.0	wm	293	diff_vonmises	0.0166418791528907	0.9535094386273908	3.1509386882464514	0.4790655422316264	3.867293004359202e-21	3.128505171023764	-0.1752825250075969	-0.4973257171061783	0.3220431920985814	77.37142801160851
3	2.0	ltm	293	diff_vonmises	0.0429226935236269	2.4592891842373383	3.5274101605400032	0.5885374423254274	0.1254305425260621	1.9132105861232935	0.0783564543590813	-0.2910115454529962	0.3693679998120775	68.21721427128938
4	2.0	perception	293	diff_vonmises	-0.0179248752728322	-1.0270197014316966	6.695513488727034	1.3779388821923797	0.27932026849769	2.600336033489333	0.8570715947529342	-0.4296486918552477	1.286720286608182	50.4380987581379
5	2.0	wm	293	diff_vonmises	0.0190852701770586	1.0935054320123574	3.800107126830275	0.702533441145848	0.1521306808992353	2.1571316963147797	0.1277624355976084	-0.3297454710041019	0.4575079066017103	65.52629733990221
6	3.0	ltm	293	diff_vonmises	0.036012984219014	2.0633920034207427	3.5762226993860304	0.5505301512262651	2.693685256747641e-16	1.4652316691710574	0.1647941894160888	-0.2328872540449311	0.3976814434610199	72.5114568929958
7	3.0	perception	293	diff_vonmises	-0.0064060037764679	-0.3670369799364776	4.248466802832458	2.0131987913483456	0.208512254904217	2.7934874686301274	1.0575303446425957	-0.4169899334225668	1.4745202780651625	63.59867213782286
8	3.0	wm	293	diff_vonmises	-0.0798994982519924	-4.577904035052067	3.5532798260184544	0.7631807996390906	0.1128268429776948	1.8107408465330823	0.2281224302539417	-0.2732181775628426	0.5013406078167844	69.31547395417607
9	4.0	ltm	293	diff_vonmises	-0.1274498206054724	-7.302336820393044	3.03833385085845	0.578388356807805	0.0313529512493196	2.3907832140788434	-0.0109746613863259	-0.3704948716741114	0.3595202102877854	76.37156769565871
10	4.0	perception	293	diff_vonmises	-0.0555319363796691	-3.181745582744038	1.9779678510990155	3.485135316948456	0.2969882048309356	5.18818804539451	0.6987541814484004	-0.6054238285172484	1.3041780099656488	85.93587415897895
11	4.0	wm	293	diff_vonmises	-0.0593961566815083	-3.403149097148196	0.8838336736852809	349.80062298176784	0.8739994479553067	351.8582898455068	0.0018977267808821	-0.4595220220490716	0.4614197488299538	85.25845212088336
12	5.0	ltm	293	diff_vonmises	-0.0510417553961241	-2.9244771631370114	1.4843052259232274	1.172120429432218	0.0130607441817817	2.070207456939739	0.1706823067245065	-0.2992768413346719	0.4699591480591785	110.07974792653616
13	5.0	perception	293	diff_vonmises	-0.0084498698835882	-0.4841418817643071	1.5004704800564084	4.1472114714683626	0.3971018737419973	4.871937149194616	0.6873967777247549	-0.4249651087574039	1.1123618864821587	94.74376863275796
14	5.0	wm	293	diff_vonmises	0.0350312819889587	2.0071446088999907	1.0475403375681192	2.5043421920022646	0.2157713251686076	3.470244186340362	0.2008286652350353	-0.3319029851463093	0.5327316503813446	112.9371193821906
15	6.0	ltm	293	diff_vonmises	-0.0955210089723434	-5.472950668946547	0.3871205007080913	160.27981386084477	0.3771571440416147	161.03221229737545	0.1232267727859479	-0.2779441036685384	0.4011708764544863	134.51506642793458
16	6.0	perception	293	diff_vonmises	-0.0162819035885077	-0.9328843580604016	0.5375764718560277	202.35771618949732	0.5218088220959668	203.07174845107605	0.4198558248842658	-0.4135826507157922	0.8334384756000581	122.04375288081276
17	6.0	wm	293	diff_vonmises	0.0012693698895428	0.0727295373117936	0.4339034237689191	199.0060484080992	0.4227774649367917	199.83005983748387	0.2171067623330316	-0.3475972806151191	0.5647040429481507	130.42662042917266
18	7.0	ltm	293	diff_vonmises	0.0614205527046498	3.5191384453372674	0.8222079958161449	142.96342761188671	0.8036968595916901	144.4328491460046	0.0580822964862761	-0.3477058591140505	0.4057881556003266	90.81851152602488
19	7.0	perception	293	diff_vonmises	0.1100069657593938	6.302934855053423	1.2157541917461392	4.261074397945318	0.3326148492212671	5.638944248951263	0.4101930366652002	-0.4866643433486492	0.8968573800138495	101.8556189516944
20	7.0	wm	293	diff_vonmises	0.0470557785546515	2.6960975128837434	0.6369637398265603	150.45794433886843	0.6225145471118796	152.00024700076355	-0.0035910273443491	-0.3474991196168311	0.343908092272482	101.49878624422844
0	1.0	ltm	460	diff_vonmises	0.0813817228511382	4.66282924887359	3.576567792555927	0.2412160744745208	3.153562269560626e-20	3.112030537612952	-0.32091454527183	-0.4951585897048655	0.1742440444330354	72.51013521217072
1	1.0	perception	460	diff_vonmises	0.0148247529760792	0.8493957778533504	12.042026470199447	0.7217085787435757	0.0595781049903292	3.645050213422216	0.373106987278245	-0.5948004253639348	0.9679074126421798	38.60659702269325
2	1.0	wm	460	diff_vonmises	0.059799433163933	3.426255137568008	5.583659764023068	0.2883369777902623	1.9005488809455767e-20	3.304708506542998	-0.2608874009102063	-0.5259569480598307	0.2650695471496244	57.71526054824227
3	2.0	ltm	460	diff_vonmises	-0.0007378003090967	-0.0422728438346931	4.53141187785512	0.4089738560835166	1.1317600910832953e-13	2.243304825053141	-0.0206020366410361	-0.3569940609148656	0.3363920242738294	64.21465589404428
4	2.0	perception	460	diff_vonmises	-0.0098674215417332	-0.5653616090177896	7.592649354091801	1.2865905275978682	0.2046948334518061	3.2665901263513906	0.7577917309393698	-0.5437871208672861	1.301578851806656	47.65731009267472
5	2.0	wm	460	diff_vonmises	0.0760176553370827	4.35549081929498	4.223539355909812	0.55690401573686	0.0842742574946865	2.6433774349635613	-0.015884274928666	-0.4137672214113401	0.3978829464826741	63.06232014631317
6	3.0	ltm	460	diff_vonmises	0.066419974173004	3.8055841954810634	2.7605351817502988	0.7582093815620353	0.292042984345236	1.8432055548443351	0.0888260020789898	-0.2572530069665726	0.3460790090455625	71.97618757837515
7	3.0	perception	460	diff_vonmises	0.0002054099606965	0.0117691238178625	4.43296912824395	1.9562608845236416	0.2022913490191416	3.100799597198664	0.9923150784892232	-0.4699057183992901	1.4622207968885133	62.1311164406394
8	3.0	wm	460	diff_vonmises	-0.0278512858162636	-1.5957611312844795	3.4605927381712998	0.6306088443947558	0.1328278552881246	1.9905166161283347	0.0873840840289819	-0.3014951195558371	0.388879203584819	68.67535199870693
9	4.0	ltm	460	diff_vonmises	0.0688866941694374	3.9469168405172192	0.7212656482569882	106.14640613128782	0.6982849857311604	108.48821496535524	-0.2004907628037848	-0.4478178460012607	0.2473270831974758	86.78665292691363
10	4.0	perception	460	diff_vonmises	-0.0680951859208465	-3.9015667584231735	1.727793465228732	4.487550243680968	0.4681724012210203	6.719038337337575	0.5002847736839238	-0.6568265218427969	1.1571112955267209	84.27585886919877
11	4.0	wm	460	diff_vonmises	-0.0145957974469253	-0.8362775923366474	0.7361465016659362	202.15321110438475	0.7228047155817829	204.72509446791685	-0.2284133286725733	-0.4907716468203951	0.2623583181478217	85.0802884163864
12	5.0	ltm	460	diff_vonmises	0.0113862793198281	0.6523857493832409	2.2812447962225195	0.7668904131627793	0.0068465466567735	2.2397658468843544	0.0692101099734114	-0.3495651471801001	0.4187752571535115	90.47992135020286
13	5.0	perception	460	diff_vonmises	-0.0506921042720557	-2.904443629425886	2.2481092875086275	2.6130145082616023	0.1711348599165164	4.07417200741513	0.6822809474201137	-0.5415309342810665	1.22381188170118	85.05130234869392
14	5.0	wm	460	diff_vonmises	0.0310181934865253	1.7772115748980832	1.1936599582316934	1.788610492436647	0.1461040202460053	3.512709872290487	0.0324511688225678	-0.4183915819778711	0.4508427508004389	108.11237043755342
15	6.0	ltm	460	diff_vonmises	-0.1012144002258051	-5.799157958886602	0.492453825366066	122.49544302961164	0.4776810909904256	123.94407961894518	-0.0139916356720846	-0.3419321400663531	0.3279405043942685	116.32397711608527
16	6.0	perception	460	diff_vonmises	-0.1215022114248876	-6.961563916152274	0.8054644411388865	2.930790567848474	0.0327984439298042	4.362106025557615	0.1757709173250402	-0.4933398081426644	0.6691107254677047	134.59042417505538
17	6.0	wm	460	diff_vonmises	-0.0269654659153682	-1.545007389554476	0.4903038449486787	209.4645698641692	0.4804345490488033	211.02365426269307	0.0064693743852615	-0.3811243544020115	0.387593728787273	117.3136019348089
18	7.0	ltm	460	diff_vonmises	0.0599106545854475	3.432627655612238	0.8067574860883001	150.5533664788676	0.7882777487886505	152.44260870691176	-0.0381372331334475	-0.4057859090029154	0.3676486758694679	88.34738886170283
19	7.0	perception	460	diff_vonmises	0.0027892614226313	0.1598129074754305	0.7378998191276123	319.1009426056712	0.7239352316191509	320.8165759643232	0.3542600268497722	-0.5350378008199073	0.8892978276696795	100.9908616365351
20	7.0	wm	460	diff_vonmises	0.0497847307818848	2.852454957997036	1.3733160063438847	2.16615308928994	0.4302683941207746	4.1171590549670825	-0.0728687299968167	-0.4034603246862884	0.3305915946894717	84.54985732854857
0	1.0	ltm	149	diff_vonmises	-0.0117395651585865	-0.6726275369058388	8.388535233131591	0.16646889064116	0.0344499543830818	3.2220080020651785	-0.3413324579414858	-0.5187959449951017	0.1774634870536159	45.29580864254606
1	1.0	perception	149	diff_vonmises	0.0189988852993469	1.0885559431057257	12.715733015928382	0.7783970173093563	0.1216602616098504	3.893516751057952	0.3987727985845816	-0.6573603892679496	1.0561331878525313	37.23447664998332
2	1.0	wm	149	diff_vonmises	0.0451418215636283	2.5864358551285536	6.347176480046983	0.2465444457424807	0.0337709140490445	3.630046307616701	-0.3549515927200468	-0.5806150881231702	0.2256634954031233	51.994709640710965
3	2.0	ltm	149	diff_vonmises	0.0318459330659899	1.8246375593373392	4.467520268901868	0.3421478314447608	2.564587184503116e-18	1.8917002624680623	-0.0217646120811585	-0.3010366631885469	0.2792720511073883	64.6862455854343
4	2.0	perception	149	diff_vonmises	-0.014985758072319	-0.8586206903479873	8.210575103599027	1.332826225524426	0.384813444363958	3.1299443311607567	0.7933455156804154	-0.5575101765925451	1.3508556922729604	44.96566738568151
5	2.0	wm	149	diff_vonmises	0.0499759689315983	2.863412096857512	3.817540887905184	0.6090266167439419	0.1446435144649836	2.6429465372911483	-0.027137541850655	-0.4099119447428235	0.3827744028921684	64.2405103131687
6	3.0	ltm	149	diff_vonmises	0.100245929408914	5.743668668497154	2.75293056443245	0.7852111140928875	0.6214672052396198	1.5381116952379343	0.0747956070086315	-0.1982261904591611	0.2730217974677926	66.17927941836962
7	3.0	perception	149	diff_vonmises	0.0020885914302956	0.119667474083133	4.897021933030008	1.922857144538369	0.4119228317970008	2.7740822873390703	1.009798218336766	-0.427459870490795	1.437258088827561	57.67138832227752
8	3.0	wm	149	diff_vonmises	-0.01748861947274	-1.0020240852983142	4.378883442292071	0.4592986414151918	0.1847494652417759	1.666044386133156	0.0546594982765467	-0.2616465812754119	0.3163060795519586	60.34428375246313
9	4.0	ltm	149	diff_vonmises	0.0156133053443978	0.8945765004830502	0.8353711379090234	213.7708275587385	0.8233796691049325	215.70958537470025	-0.1079772631791939	-0.3952666441964254	0.2872893810172314	83.63225553008468
10	4.0	perception	149	diff_vonmises	-0.0335987160917244	-1.9250646291140947	2.5925620586136158	2.420687492575518	0.3107718076791924	4.233451734390249	0.5598187127177764	-0.553932538007926	1.1137512507257024	75.79734381978864
11	4.0	wm	149	diff_vonmises	-0.0523423143292829	-2.9989937010150447	0.8174437838772635	236.78467099615372	0.8054294478661	239.0409166974392	-0.1442103038112208	-0.4530831897297105	0.3088728859184897	83.73587477507351
12	5.0	ltm	149	diff_vonmises	0.0468969322431079	2.686996289641073	2.0056078086483864	1.1810763841692191	0.2329801885881398	2.638147641451221	0.0874046068010425	-0.3412677212422898	0.4286723280433324	83.72755034483947
13	5.0	perception	149	diff_vonmises	-0.027511901171994	-1.5763158235362826	2.616098469086796	2.163364660919212	0.1012648022946685	3.650189491427396	0.6680340692905246	-0.5254201371409489	1.1934542064314737	81.243634639578
14	5.0	wm	149	diff_vonmises	0.0379773652490185	2.1759427457955614	1.6286313626816329	1.0889137871240209	6.526943983033526e-16	2.8955111631935244	0.0349967321084803	-0.4417482655247895	0.4767449976332699	106.5991449079856
15	6.0	ltm	149	diff_vonmises	-0.122007050582512	-6.990489069217091	0.5558975272116958	118.96073954854708	0.5373313798975172	120.29823960620884	0.0761603554219725	-0.3548822620788776	0.4310426175008501	112.98899056462103
16	6.0	perception	149	diff_vonmises	-0.0441266905697715	-2.5282731335276405	1.0309459492290485	2.31547181472986	5.269506103902813e-16	3.765765451885652	0.2053890058003646	-0.496960962585347	0.7023499683857117	127.29592153511226
17	6.0	wm	149	diff_vonmises	-0.0681313868118234	-3.90364091669076	0.4137038502899595	184.179447949056	0.4017454934408331	185.72604603550485	0.0512870604647588	-0.4267217023321947	0.4780087627969536	128.62041898614257
18	7.0	ltm	149	diff_vonmises	0.0992553313934392	5.686911583016414	0.8784444546412661	230.23673516917847	0.8674066453860597	231.70002553753324	0.0214115501842684	-0.3333936744001882	0.3548052245844566	86.30303550609719
19	7.0	perception	149	diff_vonmises	-0.0402693229000685	-2.3072622460234444	0.6486163627927838	129.49578422370445	0.623408616756533	130.79750733687615	0.2683055275186135	-0.4270247479606759	0.6953302754792894	108.53472185089836
20	7.0	wm	149	diff_vonmises	0.1572105434387498	9.00750063399846	0.8179102275547931	170.64885588646212	0.804216451155032	172.22699590942133	-0.0342383771546721	-0.3384165991034606	0.3041782219487885	87.45725218314038
0	1.0	ltm	270	diff_vonmises	-0.2552865420690923	-14.626841427047928	2.3139896717226303	0.2844899223636508	4.2226737732746463e-13	0.9001705631036198	0.016904076624087	-0.1417008544365651	0.1586049310606521	90.34934914386484
1	1.0	perception	270	diff_vonmises	-0.07536732314389	-4.318229529343548	17.910443432354704	0.6236490661431665	1.8802276724676e-16	1.4667709962003352	0.8116673341690837	-0.2334438544291066	1.0451111885981903	31.996268293199137
2	1.0	wm	270	diff_vonmises	-0.4140268906488944	-23.7219934391061	0.0002916741259853	2134.439328835291	4.104570457475254e-25	2135.173774956781	-0.0178010561783139	-0.2159659557783584	0.1981648996000444	175.1427459168503
3	2.0	ltm	270	diff_vonmises	-0.0037249415672425	-0.2134234307358431	7.365648440160061	0.2615982727074259	5.132514161023917e-22	0.6553131676354635	0.1737805587579032	-0.1042962186041423	0.2780767773620455	50.11659203929608
4	2.0	perception	270	diff_vonmises	-0.0282726982245487	-1.6199062837136564	8.002230089865519	1.2110282203101084	0.5571350914781746	1.6161558441544146	0.927647720912702	-0.2904823619962958	1.2181300829089978	45.72245660073969
5	2.0	wm	270	diff_vonmises	-0.0262241363443798	-1.502532333908596	4.875839636684104	0.2992549003901553	0.2410877244750195	0.7859718963877383	0.0990831416805221	-0.1243436125902056	0.2234267542707278	57.75467491758266
6	3.0	ltm	270	diff_vonmises	0.1069072802167939	6.125335955644732	2.104769223886583	93.23689642359938	2.0840178904330067	93.42230299612125	0.1968133187684415	-0.1208005302873473	0.3176138490557889	61.76840362301874
7	3.0	perception	270	diff_vonmises	-0.0336820229304447	-1.929837759377344	4.646259936775061	2.160508726198348	0.7174088631918675	2.2770307917620998	1.145841302859972	-0.3276317007908161	1.4734730036507884	57.87724033283965
8	3.0	wm	270	diff_vonmises	-0.0658980388451587	-3.775679504016747	1.845588409199837	88.25412039434408	1.8218892215049447	88.65442863481361	0.1441951847929843	-0.1590668675117523	0.3032620523047367	63.596039060222125
9	4.0	ltm	270	diff_vonmises	-0.1564379440814036	-8.963233951568002	1.7622201302549088	135.89333644957378	1.74477965987354	136.40060579663324	0.1510010213067829	-0.1877386126999241	0.338739634006707	64.62000696318924
10	4.0	perception	270	diff_vonmises	-0.0872261677879894	-4.997691277351768	3.212630257832185	1.8006362683429162	0.1975584364538802	2.52442032020048	0.7412267779340319	-0.3566313691153853	1.097858147049417	72.44717656299858
11	4.0	wm	270	diff_vonmises	-0.1704860712889802	-9.768132350625043	1.4823366270135885	273.9105231504037	1.4726025730758696	274.6906909244254	0.1344079865765621	-0.2399405650294355	0.3743485516059976	69.24990934475053
12	5.0	ltm	270	diff_vonmises	0.1236716607643312	7.085864207169839	1.7721624263143692	1.5528479816994738	0.6809900288166411	1.7174927212905762	0.2618877919014377	-0.124782108131096	0.3866699000325337	83.56192704312863
13	5.0	perception	270	diff_vonmises	-0.0213097446266439	-1.2209584296082825	2.7871285606963103	1.5194307065256256	0.0068974106576653	1.654834065283548	0.6888110952573366	-0.2579416409433768	0.9467527362007134	82.18185982196329
14	5.0	wm	270	diff_vonmises	0.0585642412412576	3.355483853510058	1.9251827936335943	0.6828711865135008	3.051870627728001e-15	0.943899234007979	0.1940063722502867	-0.1429031846743181	0.3369095569246049	98.7772486470154
15	6.0	ltm	270	diff_vonmises	-0.2832935935336922	-16.231527272575196	0.4507279785440729	72.70762979445595	0.4349810914451638	72.8912418873495	0.168799498237437	-0.15363904979883	0.322438548036267	130.72512837197797
16	6.0	perception	270	diff_vonmises	-0.0072250896806498	-0.4139671453047605	0.7214671042076635	125.0779140876593	0.7024176374604443	125.47827355426082	0.3402284671952671	-0.2482928205664034	0.5885212877616706	107.30672089795152
17	6.0	wm	270	diff_vonmises	-0.1225539569252087	-7.021824494442551	0.4505874408962683	29.770044240604207	0.4070523931740585	30.019177073250084	0.1820128438431609	-0.1806111072807841	0.3626239511239451	132.2378286193105
18	7.0	ltm	270	diff_vonmises	0.0793321888360911	4.545399599842889	1.2610179800124846	139.51088269924432	1.2452634304064008	139.90721304805965	0.249066748833961	-0.1745022440381376	0.4235689928720987	79.777898937304
19	7.0	perception	270	diff_vonmises	-0.083636186922832	-4.792000525245522	1.7553359783281728	1.4729072911432235	1.0981389713580165e-17	1.9261416322878504	0.3954224211218108	-0.2855816165279335	0.6810040376497444	103.07938319705973
20	7.0	wm	270	diff_vonmises	0.2074650347892659	11.886870889959734	2.1700649590197183	0.6073338661062825	0.2059808692327376	0.9906056260627236	0.1374087051073362	-0.1280569381911834	0.2654656432985197	84.92126195668027
0	1.0	ltm	5	diff_vonmises	-0.1064416433615716	-6.098656929054753	2.020138467703247	0.4725013701840503	1.7256986941862251e-16	1.8762348460499412	-0.0533762287485093	-0.2942976886646094	0.2409214599161001	96.54358128467396
1	1.0	perception	5	diff_vonmises	-0.056790834429189	-3.253875127818778	14.088514671101365	0.6357180180300664	1.9823807108882858e-17	2.2622783029587907	0.5830210141563357	-0.3600527745648894	0.943073788721225	36.102641893336
2	1.0	wm	5	diff_vonmises	0.0488332062672654	2.797936619206112	3.1710576941374544	0.4683558188151073	2.777678079052739e-18	1.9511971902094467	0.0060099062670405	-0.3099853415398769	0.3159952478069174	77.12055034332076
3	2.0	ltm	5	diff_vonmises	0.008396215928069	0.4810677365588748	3.3375955371817563	0.6832613056143587	0.2973067330106772	1.5799751246275526	0.1440845393154797	-0.2298629627130592	0.3739475020285389	67.17787575797323
4	2.0	perception	5	diff_vonmises	-0.0154581756457666	-0.8856882234743438	6.491900054955852	1.2431302908259971	0.2373412703231377	2.070605648309371	0.8252495979400012	-0.3357930418261427	1.161042639766144	51.64495178293055
5	2.0	wm	5	diff_vonmises	0.0425829227543558	2.4398217531561905	4.5777054450402135	0.5113521696417113	0.1675224826209799	1.450139759165998	0.1519171578388652	-0.2263798455493266	0.3782970033881918	60.30395608706999
6	3.0	ltm	5	diff_vonmises	0.0165579283933036	0.9486994144161334	2.0502600379398377	1.5255723953982043	0.6196141931166201	2.257670929410446	0.1909753981389373	-0.2244405214645817	0.4154159196035191	76.23660640824656
7	3.0	perception	5	diff_vonmises	-0.0254870528058981	-1.460300558005024	4.269867200481796	1.9522424467377584	0.2094074391592371	2.6714787695431874	1.0365028874066502	-0.3988366361228946	1.435339523529545	63.47306145489031
8	3.0	wm	5	diff_vonmises	-0.0661385073991738	-3.789457337267429	2.312874622999169	1.3679306338926478	0.5656347643079647	2.206166295327612	0.1984294339429188	-0.2485093855078285	0.4469388194507473	73.61575905605557
9	4.0	ltm	5	diff_vonmises	-0.1629173389444982	-9.33447593102207	2.297277187319124	1.2150427783677504	0.5374152859851248	2.4240024615766576	0.0660588276000855	-0.2930969510996652	0.3591557786997507	71.36386261089234
10	4.0	perception	5	diff_vonmises	-0.1002327387113249	-5.742912897196464	2.0726081531375664	3.060641273301559	0.2799414606083623	4.339854256359324	0.7170555197278972	-0.517303686097458	1.2343592058253552	85.33635288064261
11	4.0	wm	5	diff_vonmises	-0.1137135222619562	-6.515304899177022	1.1495616617031992	305.1907476488291	1.1386539873909407	306.642498264764	0.0858508829808926	-0.3652896001391781	0.4511404831200707	76.56302979214794
12	5.0	ltm	5	diff_vonmises	0.0006683725506824	0.0382949262964972	1.2206135305196428	1.8136478086018817	0.2477186740340421	2.417407507879323	0.2090984568126527	-0.2353067574421727	0.4444052142548255	106.15813005151378
13	5.0	perception	5	diff_vonmises	-0.0312666854163889	-1.7914491137223267	1.5800456907986458	3.458368998262548	0.405358893030934	3.946889804606697	0.6414011039544157	-0.3495508899987446	0.9909519939531604	93.22725587252776
14	5.0	wm	5	diff_vonmises	0.0501432576994987	2.872997037218148	0.6732355248550332	108.38114761764358	0.6547819658083217	109.02440417003028	0.2029716218413106	-0.2423050748893249	0.4452766967306356	107.7925849296348
15	6.0	ltm	5	diff_vonmises	-0.1580772949646099	-9.057161838316771	0.4068700976375323	145.05987505647622	0.3969160646439296	145.6690236770461	0.1263387890374971	-0.2395240578261361	0.3658628468636333	132.64666532269823
16	6.0	perception	5	diff_vonmises	-0.0443392363736708	-2.540451111044284	0.6692807169780098	292.3951990721299	0.6588800210025425	293.0366597241028	0.4009948709637143	-0.3418247603303506	0.7428196312940649	110.19767986324771
17	6.0	wm	5	diff_vonmises	-0.0323449442757599	-1.8532287955868767	0.5136141935981144	98.36222539099158	0.4944817691169104	98.99291410619271	0.1969864030077346	-0.2691337949272139	0.4661201979349485	122.893301904278
18	7.0	ltm	5	diff_vonmises	-0.0055866785665507	-0.3200931033595534	0.9776283000423042	135.2198385095781	0.9550022588879024	136.49677799254198	0.1548679930938163	-0.3393802085760509	0.4942482016698672	85.5554289196082
19	7.0	perception	5	diff_vonmises	0.0171044503277704	0.9800128146724062	2.1274728760314114	1.900576850430701	4.0267122157972756e-16	3.199726497980894	0.5084261525764707	-0.494807498910722	1.003233651487193	94.18459237265571
20	7.0	wm	5	diff_vonmises	0.0992270370070981	5.685290434095155	1.6461036367116235	1.0863603471792644	0.1687286737268424	2.323585977973545	0.063202958399954	-0.2961334731655642	0.3593364315655182	93.80494852384382
0	1.0	ltm	437	diff_vonmises	0.0721269929397498	4.132572284417551	7.05702475861233	0.1779788739431486	0.0073863248396691	3.439737506818352	-0.3664748227465325	-0.547604027099855	0.1811292043533224	50.58652070178215
1	1.0	perception	437	diff_vonmises	0.0575497059932576	3.297355265632401	9.944165221351524	0.8823492792579793	0.1147584262374004	4.212926864047776	0.3456652102895707	-0.7002030251376596	1.0458682354272304	41.96108741431448
2	1.0	wm	437	diff_vonmises	0.0798683944101634	4.57612191618862	5.343655733397019	0.3007169087455194	1.1170691004637258e-18	3.705488178975358	-0.3196445441981474	-0.5897405912525647	0.2700960470544173	59.02263932356047
3	2.0	ltm	437	diff_vonmises	0.1004845379579959	5.75733993131529	3.503932061968222	0.5552362369773458	0.1823789745700504	1.997618306961683	0.0184730854602349	-0.3041597899742621	0.3226328754344971	66.27214277523385
4	2.0	perception	437	diff_vonmises	0.008767807187418	0.5023583474235245	6.926800852242117	1.5412756250927573	0.4093443510168499	3.043833921967748	0.8865994458461077	-0.5236616134323402	1.410261059278448	48.731273577270514
5	2.0	wm	437	diff_vonmises	0.0910956985923854	5.219399061139518	3.976272315388304	0.6462778491568653	0.153738148903919	2.364742866696018	0.0589454532532587	-0.3661449393877384	0.4250903926409971	63.57929468056551
6	3.0	ltm	437	diff_vonmises	0.1415338712624836	8.109293481488239	4.792248020535639	0.2985643380502592	0.1057754399449935	0.9726496495368993	0.0814983497230968	-0.1526221576304784	0.2341205073535753	59.84067859445551
7	3.0	perception	437	diff_vonmises	0.0268024700153944	1.5356684124080386	5.399643735656414	1.5669464527125625	0.2174125730866386	2.3217360482975224	0.9613014371462466	-0.3629390557301932	1.3242404928764395	56.658816430080975
8	3.0	wm	437	diff_vonmises	0.0166116576393829	0.951777873452897	5.156849385858386	0.376434180762594	0.0004585853434793	1.3529703866746066	0.1164005648635798	-0.215224634274039	0.3316251991376188	60.07714303849238
9	4.0	ltm	437	diff_vonmises	0.1010983210038403	5.792507109378856	0.5618599795038999	139.60876882979093	0.5477356973333993	141.86026546128792	-0.2043237398072506	-0.4229248997782804	0.2186011599710298	97.75979088285148
10	4.0	perception	437	diff_vonmises	-0.0028017013441177	-0.1605256624740774	2.2657844919418126	2.63791674863605	0.2375511658024823	4.750284334584213	0.5213705778454922	-0.617223496293743	1.138594074139235	81.73677800733981
11	4.0	wm	437	diff_vonmises	0.0993448507648936	5.6920406651854165	0.7335035431301146	200.5574386545672	0.7184934192570865	203.10493406937735	-0.159559831599239	-0.5071839039992163	0.3476240723999773	88.85208444154674
12	5.0	ltm	437	diff_vonmises	-0.0437707579400693	-2.507879696054711	2.148356533845889	0.7765169236533646	8.602299712639857e-16	1.865091335162035	0.1213660417705279	-0.2911444876970683	0.4125105294675962	93.74672944087428
13	5.0	perception	437	diff_vonmises	-0.0365391396037603	-2.0935384863347863	1.95954246375551	3.083946333672208	0.265807948373588	4.082082425672322	0.7386825477177676	-0.476163401123494	1.2148459488412615	88.2668578554619
14	5.0	wm	437	diff_vonmises	0.1171266442561317	6.7108623844065525	1.5513669008321112	1.3451272473994929	2.4211472055667568e-17	2.6101671391491523	0.1792351396238107	-0.3887042973170411	0.5679394369408519	108.83167584514172
15	6.0	ltm	437	diff_vonmises	-0.0498959073958931	-2.858824908760265	0.5402978090983543	149.35413039100445	0.5272398504840069	150.1979243086834	0.1537991653501151	-0.2874892281834977	0.4412883935336129	118.10759429754869
16	6.0	perception	437	diff_vonmises	-0.0719622123705919	-4.1231310532590415	0.8749343081342552	4.0927782893023785	0.1643758602390667	4.92253766927677	0.3840724108241407	-0.4340675403136397	0.8181399511377805	124.52421418194945
17	6.0	wm	437	diff_vonmises	0.0526588671162495	3.0171308397013346	0.4865394610297274	180.91019679752708	0.4729836480686608	181.85152955180527	0.2293447462790965	-0.3698326429235266	0.5991773892026231	124.6894863082299
18	7.0	ltm	437	diff_vonmises	0.1031672739543311	5.911049381453117	0.8008640143619193	191.85064710206785	0.7873285114924812	193.5918485700692	-0.0285770388454267	-0.3762458330037326	0.3476687941583058	88.80985959555895
19	7.0	perception	437	diff_vonmises	0.0390349537708378	2.2365381045572867	0.7452279342099456	236.46990246221267	0.7271402744799748	238.01723135327063	0.3679397300423233	-0.5032840434965529	0.8712237735388761	101.15921226318024
20	7.0	wm	437	diff_vonmises	0.1200686107808274	6.879424649740387	0.6536102563795261	157.2585467428859	0.6390075051787978	159.07860026488362	-0.0604423320493978	-0.3836009461386496	0.3231586140892517	97.6394025975472
0	1.0	ltm	247	diff_vonmises	0.0374013047256617	2.14293690906312	5.1209583918969175	0.2944742045723933	5.480087428278173e-19	3.912613498765028	-0.3640953024119829	-0.6227025601977249	0.2586072577857419	60.31642643623434
1	1.0	perception	247	diff_vonmises	0.0341610852025984	1.9572860056956989	10.69530585820724	0.872460335113771	0.0684768264096854	4.501527560247531	0.3580536209754472	-0.7352090572719886	1.0932626782474355	40.82833997765277
2	1.0	wm	247	diff_vonmises	0.0528262525981746	3.026721321367405	3.964080122409983	0.4290613610871754	7.994028233949594e-15	4.16256914980863	-0.3342280578793234	-0.6623751331366377	0.3281470752573142	68.77866280826245
3	2.0	ltm	247	diff_vonmises	0.0452714827436715	2.5938648935117143	3.3247654916318674	0.639372847969397	0.1321219001221215	2.321041731606879	0.0240280396297378	-0.3518909901976986	0.3759190298274364	69.30130997062653
4	2.0	perception	247	diff_vonmises	-0.0094142578897172	-0.5393972443285325	6.693117310937044	1.4729748294227378	0.2774660818869982	3.0980737081725174	0.8508963758506972	-0.5140399979973249	1.364936373848022	50.27780272736996
5	2.0	wm	247	diff_vonmises	0.044952104753847	2.5755658826254018	3.74081215630588	0.7784984882191952	0.1399936751333802	2.6280834982009185	0.0981333233550596	-0.4026607708609236	0.5007940942159832	65.9492159237912
6	3.0	ltm	247	diff_vonmises	0.049510824935918	2.836761309039181	3.290616380334953	0.5033377411383038	1.4216685177822035e-20	1.4517166337803638	0.1163152966679945	-0.2305663715691789	0.3468816682371735	75.67214386894713
7	3.0	perception	247	diff_vonmises	0.0147869360284879	0.8472290263623001	4.394021512082504	1.8368601883199336	0.1526942836885405	2.7126396385956224	0.9861192323632127	-0.4112248210993189	1.397344053462532	63.09695138780555
8	3.0	wm	247	diff_vonmises	-0.0547266742982858	-3.135607464078854	3.9298045449859016	0.6242340988631505	5.65092622160862e-13	1.727036974537289	0.2004536330230464	-0.2746829820396248	0.4751366150626712	69.08646932816981
9	4.0	ltm	247	diff_vonmises	-0.0235470857903017	-1.349148635616762	1.8565275582591805	0.7105031862638808	1.27446054347986e-16	3.1185189033488245	-0.145972407911989	-0.487777439549903	0.341805031637914	100.47504548864408
10	4.0	perception	247	diff_vonmises	-0.0314232703787021	-1.8004207711980875	1.7163626404132333	4.490181033494536	0.3899659829912893	6.641572146223035	0.6074728577867765	-0.6801589473420829	1.287631805128859	87.30179010312278
11	4.0	wm	247	diff_vonmises	0.0317671791906363	1.820125294659277	0.6884251807661276	257.3138827012322	0.6759131258804969	259.9248748516066	-0.1178815292160351	-0.5359697130677361	0.418088183851701	93.73615032054089
12	5.0	ltm	247	diff_vonmises	-0.0852712618899346	-4.885683420047993	1.4254084096996658	1.1893837108400958	9.33167722401854e-15	2.4044618924235275	0.1168626253302572	-0.3538096055064133	0.4706722308366706	112.80963658120372
13	5.0	perception	247	diff_vonmises	-0.0194925218517229	-1.116839234170255	1.614001343547618	4.109843969150882	0.3476877694899184	5.163611005904869	0.732026645311864	-0.5066773460537441	1.2387039913656082	92.96066279374398
14	5.0	wm	247	diff_vonmises	0.050932339380223	2.918208087214738	1.063711195539705	2.588477521527657	0.183628198189578	3.8811842114897055	0.1796103181310551	-0.4006894623286822	0.5802997804597373	113.3259736357262
15	6.0	ltm	247	diff_vonmises	-0.0297913153276806	-1.7069166344194997	0.4243022215438175	123.8062637751342	0.4098133221323412	124.78623139069522	0.1048698994185812	-0.3163119143308339	0.4211818137494152	129.5851551634704
16	6.0	perception	247	diff_vonmises	-0.0488306427771432	-2.7977897420412834	0.4250779097609389	99.58628972673128	0.3926640389532372	100.4735805334401	0.3920103474271066	-0.4848780974949545	0.8768884449220611	133.56380571941264
17	6.0	wm	247	diff_vonmises	0.0129650132407907	0.7428405400285369	0.4565061403079005	236.09837675940608	0.4458972631653674	237.1657135564853	0.2116592846399783	-0.3981101852563036	0.6097694698962819	127.2221689270982
18	7.0	ltm	247	diff_vonmises	0.1145727610871232	6.564535657452869	0.6747353231712956	106.58478828968202	0.6520649382443626	108.35145911879842	-0.0269618271043405	-0.3850709769112512	0.3581091498069106	97.78443149437922
19	7.0	perception	247	diff_vonmises	0.1135858042077283	6.507987193702141	0.7917373021058967	345.6338188659143	0.7783624327780139	347.1858487502011	0.4179122799863677	-0.5160445355120977	0.9339568154984654	98.33275503617396
20	7.0	wm	247	diff_vonmises	0.0633701370470601	3.63084139996217	0.6622026857115443	199.54765255242685	0.6496165709113507	201.4007353070306	-0.0320111803747096	-0.4027704291716532	0.3707592487969435	98.22040418148865
0	1.0	ltm	368	diff_vonmises	-0.0049841364603195	-0.2855699836935863	7.111248837913731	0.2751571153649821	0.0431725663396845	3.2762584554819587	-0.2570060620906145	-0.526327400665709	0.2693213385750945	49.26210889342138
1	1.0	perception	368	diff_vonmises	-0.01217881422878	-0.697794654782969	14.466795108708704	0.6580480604688053	0.0753625240468579	3.702043856792466	0.3549878321244478	-0.6125447773885399	0.9675326095129876	35.169496357304155
2	1.0	wm	368	diff_vonmises	-0.0050706912366611	-0.2905292070746565	4.41665842731872	0.4335960608480351	0.0859832785493033	3.792363031603407	-0.3047820111483945	-0.602763154261225	0.2979811431128304	59.83413950419893
3	2.0	ltm	368	diff_vonmises	-0.0307110291939288	-1.7596123573151807	3.958207930229064	0.4776774949975449	0.0332680877351285	2.059770615147764	0.0263336629444053	-0.3224288058811608	0.3487624688255661	67.08719722491293
4	2.0	perception	368	diff_vonmises	-0.0291496151745786	-1.6701499239338595	7.90776847447228	1.1649849962023526	0.2863771668325742	2.9678177695909675	0.668512520243082	-0.5100374601022564	1.1785499803453383	46.20717318015432
5	2.0	wm	368	diff_vonmises	0.0163989864730945	0.9395927132004468	3.6633231997327274	0.7483618922280224	0.1935362626086846	2.7340718312595187	0.0251157072137171	-0.4194515084615617	0.4445672156752789	64.70288926928933
6	3.0	ltm	368	diff_vonmises	0.0195580447861297	1.12059342177308	1.944102583965031	2.3340165936981383	0.7896405337835741	3.53703307956312	0.1165998456115682	-0.318690296715664	0.4352901423272323	71.9801059804621
7	3.0	perception	368	diff_vonmises	-0.0225655353018968	-1.2929099352521556	4.432552507553143	2.128949222083502	0.3569519145315806	3.36995104941746	0.9879620165163118	-0.5084742695203294	1.4964362860366411	60.46292770212728
8	3.0	wm	368	diff_vonmises	-0.0171276273928142	-0.9813407626809132	3.11463199246876	0.8444554028048923	0.2872520669204017	2.4828081535669675	0.0490511149054425	-0.3642537838859325	0.413304898791375	67.56908091461986
9	4.0	ltm	368	diff_vonmises	-0.0709324683831725	-4.064131068800935	0.8374987642762857	197.9713213173392	0.8218995059737462	199.92960182897824	-0.0132595191732036	-0.4305348017113424	0.4172752825381387	87.41171037620236
10	4.0	perception	368	diff_vonmises	-0.0611741954964139	-3.505023217052728	2.310351422754591	2.756438890829299	0.2996096239484326	4.553830649925666	0.594039808843944	-0.5712712103006158	1.1653110191445597	80.01089461149473
11	4.0	wm	368	diff_vonmises	-0.130031089477124	-7.450232632527177	0.8541437106154746	297.7854257414698	0.8428271367350361	300.0207632154149	-0.0539939396168449	-0.4791793968769369	0.4251854572600919	85.2473983872581
12	5.0	ltm	368	diff_vonmises	0.030598384873684	1.7531583131790345	1.400266645002425	2.524970276900877	0.3671411863264457	3.981844226505782	0.1643988456303015	-0.3818318136558838	0.5462306592861853	92.46373460748234
13	5.0	perception	368	diff_vonmises	-0.0318293114497052	-1.8236852108755408	2.1949971180002845	2.466719252857588	0.1702550175054003	3.9437216070123817	0.6069927910658578	-0.5226308377641211	1.1296236288299788	85.81398087977328
14	5.0	wm	368	diff_vonmises	-0.0445646315921874	-2.5533653057877155	0.632071413173165	140.74586993097049	0.6114894688384772	142.42430100781672	0.0999760381255683	-0.4296002763964655	0.5295763145220338	105.6062499233355
15	6.0	ltm	368	diff_vonmises	-0.1315173248998146	-7.535387649610191	0.9932941007535168	2.017724661980326	0.0959389880781255	3.320124885439078	0.1066114066733281	-0.384750944439912	0.4913623511132401	121.39017255620708
16	6.0	perception	368	diff_vonmises	-0.0183648033793428	-1.052225725223937	1.265880467700784	1.9476755447412304	2.8773994595539917e-21	3.373986305222413	0.2250314699618881	-0.4763917194628651	0.7014231894247533	118.28730424020182
17	6.0	wm	368	diff_vonmises	-0.125548527094659	-7.193400726607824	0.4558691205919449	185.57486406098224	0.4433883336278205	186.99456505593136	0.0938398401026106	-0.4108948054543155	0.5047346455569262	124.59135555380568
18	7.0	ltm	368	diff_vonmises	-0.0130015955978894	-0.7449365546949358	0.8393156283125319	276.028351443956	0.8282521578488007	277.6149385002204	0.0926175825079553	-0.3862950222642141	0.4789126047721694	90.39252313230564
19	7.0	perception	368	diff_vonmises	-0.0537510310755508	-3.079707225105599	0.6587100577138131	210.46020800940883	0.6409037355315279	211.91894476582655	0.313559758996611	-0.480773752323433	0.794333511320044	107.49501890385072
20	7.0	wm	368	diff_vonmises	0.1447145235813572	8.291531435458198	0.8984143632366857	147.23833040375703	0.8787491571856606	148.8474834437381	0.0389461178505996	-0.3722801168988496	0.4112262347494493	85.97037953230253
0	1.0	ltm	414	diff_vonmises	-0.1425310793054053	-8.166429293644152	1.5183982773026503	0.3210376835266206	3.6366394882754064e-18	1.57648655567153	-0.1108168310334594	-0.2441829086694198	0.1333660776359604	109.82514273831904
1	1.0	perception	414	diff_vonmises	-0.0443977233068325	-2.5438021654711145	15.740993387214706	0.6306023256817067	0.0091333935659611	2.0861544751482013	0.654399788772297	-0.3332111618730952	0.9876109506453922	34.11121787830663
2	1.0	wm	414	diff_vonmises	0.0164083725578907	0.9401304962454198	5.402380504164381	0.2420016001428965	4.761434290973633e-20	1.636716949860595	-0.0418331603519966	-0.2604871536490901	0.2186539932970934	58.69002297451601
3	2.0	ltm	414	diff_vonmises	0.0147643561023698	0.8459352918940131	6.467308617842983	0.2691058745222637	3.3871552034249065e-29	1.2160722370038792	0.0737549312097233	-0.1935432626391906	0.2672981938489139	53.54295410850358
4	2.0	perception	414	diff_vonmises	-0.0172462155680284	-0.9881353646208448	8.277502998214585	1.2151575430128063	0.3445204048588142	2.211324067005981	0.89009732926783	-0.3847267608770522	1.2748240901448822	45.42935551575008
5	2.0	wm	414	diff_vonmises	0.0444335493898901	2.5458548488267976	5.106462737540088	0.2950497995483172	0.0760357710908811	1.4188339177420837	0.0153924221339723	-0.2247032901203703	0.2400957122543426	58.02293696538382
6	3.0	ltm	414	diff_vonmises	0.1118937228929603	6.411038075772987	1.6362293002953086	92.54297912340488	1.6140043874417356	93.0205729324788	0.1338931026052421	-0.1682934476540438	0.302186550259286	67.15835951702374
7	3.0	perception	414	diff_vonmises	-0.0191806599366055	-1.098970862643161	4.702788574123456	2.021105273554642	0.4495018952745936	2.463686719504381	1.111349403103116	-0.3687034717233122	1.4800528748264283	58.94009046120456
8	3.0	wm	414	diff_vonmises	-0.0641818544998019	-3.6773493841613822	2.958311343356976	0.7845707006210619	0.6165517903947021	1.5264426045809376	0.0996113971807801	-0.202884760375006	0.3024961575557862	64.9989913690728
9	4.0	ltm	414	diff_vonmises	-0.0667669783780754	-3.825466071904946	1.370194978055993	163.91138211974672	1.3552653161363697	164.98525582703152	0.0022866943215262	-0.2701062179353073	0.2723929122568336	67.93005154079881
10	4.0	perception	414	diff_vonmises	-0.0856505164288746	-4.907413104490439	2.6373246104469925	2.324300231099768	0.3243177538317	3.555362336536966	0.6509347199066349	-0.4571023437096382	1.108037063616273	75.9394784789437
11	4.0	wm	414	diff_vonmises	-0.1293981188727712	-7.413966088341918	1.2274474817290624	261.8955403607084	1.2171187898091071	263.24852414494484	-0.0192683864686813	-0.3199859079619003	0.3007175214932189	71.11468812839632
12	5.0	ltm	414	diff_vonmises	0.1161030772058703	6.652216312377922	2.0691213638855914	0.9794172405160508	0.3377018974277819	1.7233181045942876	0.141991811709696	-0.2062237393249494	0.3482155510346454	81.52407349051629
13	5.0	perception	414	diff_vonmises	-0.0319348892163669	-1.8297343713156724	2.75504492344539	1.7499825288050437	0.0584083592915344	2.4329306653346103	0.6812941830393454	-0.3615613211148192	1.0428555041541645	80.97375155206998
14	5.0	wm	414	diff_vonmises	0.074025383046922	4.241342025427908	1.7480763455767034	0.6914390341817328	2.0682271240532445e-17	1.651888423130623	0.0657972258535014	-0.2529416534218475	0.3187388792753489	103.2703586220594
15	6.0	ltm	414	diff_vonmises	-0.2772931138350723	-15.887725110790342	0.4689033467978873	87.24176635651274	0.4538090711877918	88.04144456569449	0.0541062257956781	-0.2303800889265232	0.2844863147222014	123.05175688815343
16	6.0	perception	414	diff_vonmises	-0.0641640256798748	-3.6763278680258606	0.5645619307460461	138.6443057126427	0.5460992092866601	139.58156602728602	0.2427400058563265	-0.3550420097584545	0.5977820156147811	117.1302242647548
17	6.0	wm	414	diff_vonmises	-0.0862756472898505	-4.943230464467735	0.4356091437087248	73.13105408010259	0.4155700915256479	74.06945192603175	0.0534577461859164	-0.2704915660810272	0.3239493122669437	127.22789249146795
18	7.0	ltm	414	diff_vonmises	0.0759410132460925	4.351099550948184	1.1234615724259605	173.79178732202644	1.1089751968424166	174.73757950070686	0.1278246039018427	-0.2589261153068882	0.3867507192087309	79.61689532299965
19	7.0	perception	414	diff_vonmises	-0.0561956488093718	-3.2197735037763757	1.7797656685298993	1.608863520584753	1.161690305734773e-18	2.5547104675542798	0.3666546183524736	-0.3845936098672848	0.7512482282197586	102.4400403516872
20	7.0	wm	414	diff_vonmises	0.161355928518485	9.24501370352379	1.667015541077777	0.9689269723438124	0.3422065603569171	1.9608620378242356	0.0206567223586746	-0.2226119005747974	0.2432686229334721	84.82228679243116
0	1.0	ltm	103	diff_vonmises	-0.001337864568625	-0.0766539933423069	7.355585086648939	0.2422369849607268	0.0106434789824669	3.617222729927084	-0.3245181117789806	-0.5762025654152301	0.2516844536362494	49.50820209302958
1	1.0	perception	103	diff_vonmises	0.0066350428648923	0.3801599530467212	13.186041804352296	0.7606989196716986	0.0794042536531041	4.1580134223079686	0.3755256260999138	-0.687576292363056	1.0631019184629698	36.78455423827344
2	1.0	wm	103	diff_vonmises	0.007845018111687	0.449486428003358	4.797508688027586	0.343754753620958	0.0163595767215137	4.006310165395561	-0.35656746910001	-0.6351869656781672	0.2786194965781572	60.80006864682792
3	2.0	ltm	103	diff_vonmises	0.013187493006123	0.75558769160914	4.022562056921743	0.4374184970520767	8.981731035241434e-16	2.0783378298226234	0.0065562150854456	-0.3306695610585595	0.3372257761440051	68.26447654034206
4	2.0	perception	103	diff_vonmises	-0.0234467898083567	-1.3434020991491968	7.642312499331431	1.297065549046905	0.3006936748260188	3.0528171686251664	0.7635970755915591	-0.5228938119938835	1.2864908875854426	46.97094717787422
5	2.0	wm	103	diff_vonmises	0.0195283521408926	1.1188921585184144	3.580227174156733	0.7783587908226605	0.168039379809223	2.7820794170810577	0.0429176656162546	-0.4247240261332108	0.4676416917494655	66.14059239776941
6	3.0	ltm	103	diff_vonmises	0.0364217624065062	2.0868132683210527	3.301898984641972	0.6455370603185955	0.2250206913796825	1.6782803593507043	0.1160428013404719	-0.2473992119879179	0.3634420133283899	68.44229355253503
7	3.0	perception	103	diff_vonmises	-0.0063945214726961	-0.3663790923912676	4.376533761440731	2.0604480180202494	0.3122721811170904	3.0681795536215546	1.012024488074338	-0.4594685221234069	1.471493010197745	61.46826363008327
8	3.0	wm	103	diff_vonmises	-0.0507130958529133	-2.905646358414335	3.787284940963215	0.6631682736689184	0.1356157903502256	2.0353654817045346	0.1255529040975007	-0.3112443520940273	0.4367972561915281	66.03428772243751
9	4.0	ltm	103	diff_vonmises	-0.0517998165718447	-2.967910869118527	1.1268812401693789	3.1107001882546976	0.4135026126875802	5.226703354325252	-0.0686103809798051	-0.4416463446117276	0.3730359636319225	91.4847342738354
10	4.0	perception	103	diff_vonmises	-0.0461004249415184	-2.641359782908641	2.1764800746694606	3.1686261239248923	0.3318632676282304	5.053874308141702	0.6292662841612224	-0.6071618451666628	1.2364281293278854	81.25451425531813
11	4.0	wm	103	diff_vonmises	-0.0691089507341532	-3.9596512036445137	0.7689732261815592	323.32786810422283	0.7589408960337999	325.7133551139645	-0.086267390070077	-0.4980903967307526	0.4118230066606756	89.10179565654806
12	5.0	ltm	103	diff_vonmises	-0.0086236045647938	-0.4940961457524384	1.6194510010299346	1.4091686450159282	0.1431130843901507	2.8526261092413985	0.1182326071117015	-0.3681826210152959	0.4864152281269975	96.60455362619484
13	5.0	perception	103	diff_vonmises	-0.013041508460778	-0.7472233932867358	2.010189408055264	2.819946840145591	0.1996418212377783	4.217141554880068	0.647835650231174	-0.5310011439869413	1.1788367942181153	88.48811725857718
14	5.0	wm	103	diff_vonmises	-0.0071525249321485	-0.4098094914742101	1.1023497392761052	2.405323554742102	0.1738618630320824	4.057968111839989	0.1055301629373103	-0.4429429734081941	0.5484731363455044	110.92245161048834
15	6.0	ltm	103	diff_vonmises	-0.1058106668672275	-6.062504638956872	0.4593772564895875	122.84185949132215	0.4421591448348493	124.13107108975994	0.0877913325643149	-0.3744753054736893	0.4622666380380043	124.53776496796225
16	6.0	perception	103	diff_vonmises	-0.0133644165624445	-0.765724664682808	1.0423027159508005	2.619085356117637	1.6563812001619098e-18	3.950865856203591	0.2870801052617338	-0.5149025179034863	0.8019826231652201	126.84222362963482
17	6.0	wm	103	diff_vonmises	-0.0626507806591408	-3.5896253149686146	0.4142588501287433	223.13587542434783	0.403269787007076	224.580591730177	0.1201124968246318	-0.446194407129223	0.5663069039538549	130.01821005736235
18	7.0	ltm	103	diff_vonmises	0.0670078421162283	3.83926654753885	0.7735401668613605	252.0213316618533	0.7630364900711109	253.65356498152164	0.0213798132604523	-0.3706390016343377	0.39201881489479	92.22322333378855
19	7.0	perception	103	diff_vonmises	0.0412592042280235	2.36397826833407	0.6738165109894763	183.16456289622644	0.6532976985889888	184.6335829554226	0.3099680240701161	-0.477233693268781	0.7872017173388972	106.26679436378213
20	7.0	wm	103	diff_vonmises	0.1189742900492214	6.816724690385699	0.7763719064483937	218.5382695015664	0.7644550077401064	220.27183125312504	-0.0173158444529235	-0.3784692959435816	0.361153451490658	90.68033692138172
0	1.0	ltm	322	diff_vonmises	-0.0060866536125269	-0.3487395633558477	2.671288754228715	0.3137650594566181	4.278930496244235e-15	2.537161833635399	-0.2115882317363155	-0.4028822975701115	0.191294065833796	84.14927969924975
1	1.0	perception	322	diff_vonmises	-0.0071815519813534	-0.4114726188853646	12.602526935551056	0.7046969688143506	0.0417253213146373	3.0239988697913307	0.4858558094497229	-0.4894151887933795	0.9752709982431024	37.91842034994187
2	1.0	wm	322	diff_vonmises	0.0884143468076102	5.065768920482029	4.716739371663133	0.3458598043747298	9.039476459757928e-15	2.649731432771784	-0.1310155583371458	-0.4216945989428275	0.2906790406056816	62.91094942888796
3	2.0	ltm	322	diff_vonmises	-0.0353534094885571	-2.0256011550920845	4.658039509791975	0.3881302980308808	0.0040032516028158	1.8183879216178471	0.0334836138412135	-0.2885308210144746	0.3220144348556882	63.075746045267294
4	2.0	perception	322	diff_vonmises	-0.0150251637269	-0.8608784680444274	7.635951433280666	1.1955301876527813	0.1859717910460163	2.6461039931958728	0.7920382443716345	-0.4367242857312957	1.22876253010293	47.815381526303895
5	2.0	wm	322	diff_vonmises	0.0758999049696765	4.348744220206486	4.668238212199934	0.4915082861287531	0.1051896869935195	2.0263769915219045	0.053514029522469	-0.3189721497005624	0.3724861792230314	60.06062139531176
6	3.0	ltm	322	diff_vonmises	0.021863480863952	1.2526851789694895	2.0459197421819995	1.206885710058834	0.5675031969149477	1.966691396815812	0.1210075918356928	-0.2076716196808199	0.3286792115165128	76.01838525700654
7	3.0	perception	322	diff_vonmises	-0.0103582717844124	-0.5934852562962754	4.090656151933911	1.9009284483669084	0.2505598154329096	2.6484147013359025	0.946229254415267	-0.3902296480794127	1.3364589024946798	64.23962687354205
8	3.0	wm	322	diff_vonmises	-0.0573224761667696	-3.284335955595149	2.6037173207430486	0.9201355176419772	0.4117503887998355	1.8213732324673824	0.1357516763018306	-0.2369943230548815	0.3727459993567122	72.14305619526314
9	4.0	ltm	322	diff_vonmises	-0.0406811575952892	-2.330858635916648	1.0169442861566715	128.18083781182943	0.9974163191886628	129.7294193953435	-0.0551994592207023	-0.3365145730497545	0.2813151138290521	77.2397680186092
10	4.0	perception	322	diff_vonmises	-0.1099968986908898	-6.302358054516079	1.7996622237431912	4.513411765642465	0.561517126810763	6.009206403337642	0.6318381279262051	-0.5392967208272839	1.171134848753489	82.5820103121406
11	4.0	wm	322	diff_vonmises	-0.0966057295957818	-5.535100582620368	0.9995212109978028	236.37224564232253	0.98786777703104	238.09243809773585	-0.0625174132070185	-0.3722745956120477	0.3097571824050291	77.73168239651767
12	5.0	ltm	322	diff_vonmises	0.0385950175465151	2.211331615648678	1.590262718206361	1.087991300565924	0.1251289158095672	2.424575384696116	0.0526653504577915	-0.3198740378272103	0.3725393882850019	97.5864575524176
13	5.0	perception	322	diff_vonmises	-0.0463263310091992	-2.6543032471531465	2.341227704221921	2.3374769242202773	0.1693611268404623	3.583606338216737	0.6544242624513854	-0.4808036299959669	1.1352278924473522	83.71088117950947
14	5.0	wm	322	diff_vonmises	0.0362152940445522	2.0749835025781063	0.5826941464770783	160.43284793437263	0.569156416140817	161.87924792736055	0.0343787642067994	-0.3513017975381416	0.385680561744941	108.18071756632418
15	6.0	ltm	322	diff_vonmises	-0.1364207215055495	-7.816331580397576	0.4741998956409354	164.66264898081235	0.4639821254471646	166.13616616188202	-0.040817821343829	-0.3347211350115948	0.2939033136677658	116.82862237402937
16	6.0	perception	322	diff_vonmises	-0.1243669715947562	-7.125702583202923	0.4477988607976342	106.0336340558918	0.4199519514873965	107.45661069510572	0.2155355215355712	-0.4947544122715079	0.7102899338070792	128.39295383515474
17	6.0	wm	322	diff_vonmises	-0.1448191523841619	-8.29752622427441	0.5459726642410264	168.0647842454241	0.5330917074739242	169.56948042407998	0.026313518576849	-0.3672676044893652	0.3935811230662143	111.67137497704609
18	7.0	ltm	322	diff_vonmises	0.1449242114840052	8.303545667294879	0.748404311575135	133.87150555362365	0.7295614878014344	135.45449312936927	0.022048220083441	-0.3608104234445406	0.3828586435279817	94.19078021929629
19	7.0	perception	322	diff_vonmises	-0.0370284658155172	-2.1215748130735808	1.810354610265945	2.640373857849467	0.2380570249072514	4.071438430688568	0.4716174742211311	-0.4831011576333909	0.954718631854522	90.58492368792233
20	7.0	wm	322	diff_vonmises	0.1524425326000001	8.734313736265472	2.165607738309353	0.9682404388309132	0.2188367087184752	2.507564395135421	0.0331717152554837	-0.3385082243534071	0.3716799396088909	80.63192953095097
0	1.0	ltm	489	diff_vonmises	-0.121556664403011	-6.964683841980664	2.6239759406119454	0.3134091463981914	7.978972754773842e-20	1.888796618189308	-0.1105932711573949	-0.2996121497660028	0.1890188786086079	84.90093168627956
1	1.0	perception	489	diff_vonmises	-0.0264417467015481	-1.5150004889526734	13.54056617987431	0.7265777205962181	0.0338931272785722	2.499399439813041	0.6445301402312825	-0.4032767207869745	1.0478068610182572	36.67017465811335
2	1.0	wm	489	diff_vonmises	0.0683637756795467	3.91695581801713	3.679914970795156	0.3830214151130376	3.574890646463891e-22	2.054067888631404	-0.0456059456674906	-0.3267360576767101	0.2811301120092195	71.45528133167875
3	2.0	ltm	489	diff_vonmises	0.0366724812601628	2.1011784004799323	5.219952691380774	0.331845368180542	0.0118817686512207	1.1962458510965348	0.1017633629217843	-0.1893850687431206	0.291148431664905	59.331271253478576
4	2.0	perception	489	diff_vonmises	-0.0133020782105277	-0.7621529402161769	7.433940777082904	1.2904009957886782	0.3814340128927039	2.0398314079231668	0.9196881756589376	-0.3490777546861916	1.2687659303451293	47.77749374509244
5	2.0	wm	489	diff_vonmises	0.0522216695192669	2.9920812625809683	4.567694090084221	0.4763678609465486	0.1748872442471593	1.420949855749175	0.1262325001360942	-0.2223208680267286	0.3485533681628229	60.08256336873566
6	3.0	ltm	489	diff_vonmises	0.0587565821294874	3.366504174633426	2.619809793740822	0.7484450436231632	0.6281604120953299	1.156673284076109	0.1400028352422758	-0.1351270405727644	0.2751298758150402	70.05598308004934
7	3.0	perception	489	diff_vonmises	-0.0082097206328331	-0.4703823432428118	4.535457072059794	1.7770721877051106	0.3656546048807855	2.069649095242689	1.0030187099328691	-0.3059183453826373	1.3089370553155064	60.709522133614485
8	3.0	wm	489	diff_vonmises	-0.0713413184621857	-4.087556452781981	3.081885674609306	0.7438168834998812	0.5043174517377942	1.2810035647213096	0.1775793634137461	-0.1706097708086608	0.348189134222407	67.37321282370681
9	4.0	ltm	489	diff_vonmises	-0.116194383489353	-6.657447777064504	1.245705187241786	104.07870395483116	1.2233204117262375	105.07603718109254	0.0456621805126147	-0.2526167257819356	0.2982789062945503	73.13275442639468
10	4.0	perception	489	diff_vonmises	-0.0869709735675093	-4.983069725562127	2.523757964349477	2.508040756604577	0.3170246155776516	3.5015758340148064	0.7400591155859116	-0.4387314250272955	1.178790540613207	78.08578425746123
11	4.0	wm	489	diff_vonmises	-0.0937325081924246	-5.370477122601344	1.18328780327313	251.15666457020583	1.1720164453916435	252.37669310798012	0.0683661543613425	-0.3081877655719758	0.3765539199333183	75.30529933483899
12	5.0	ltm	489	diff_vonmises	0.0335045501315969	1.9196693170249923	1.3443066557239904	1.4295513584508	0.2671462555458569	2.176682397201352	0.1351143325868063	-0.2233969783537731	0.3585113109405794	99.46867596727148
13	5.0	perception	489	diff_vonmises	-0.0165977415954884	-0.9509805428702228	2.1922784089392477	2.2420409875140543	0.1965612870707646	2.846516401868648	0.676161878885634	-0.3621579592845833	1.0383198381702172	86.39155544142065
14	5.0	wm	489	diff_vonmises	0.0927363942020221	5.313403995037348	0.6105622019545763	59.57310810932911	0.5792222529611092	60.36710823181925	0.1454466596774377	-0.2584134870859076	0.4038601467633453	111.90477072629756
15	6.0	ltm	489	diff_vonmises	-0.1627822981827866	-9.326738665313764	0.4765983304540452	150.9629411798555	0.4662101009820949	151.7011640888165	0.1142333915642552	-0.2511606792001437	0.365394070764399	124.2182689783487
16	6.0	perception	489	diff_vonmises	-0.046806557883799	-2.6818182202764724	0.587127042283031	243.0593745502975	0.5740959064609032	243.8233465306853	0.3991403723326812	-0.3952741625419627	0.7944145348746439	116.98168294596184
17	6.0	wm	489	diff_vonmises	-0.0805004615990628	-4.612336698481253	0.4928872894076445	37.64791986094848	0.4391162582444302	38.42785036985114	0.1925904067563699	-0.3114008382214446	0.5039912449778146	126.1990875826882
18	7.0	ltm	489	diff_vonmises	0.1459540201758377	8.362549359042768	0.9093754601008698	150.0548013857098	0.8936079911736606	151.104871854709	0.1129680925910889	-0.2740299985672312	0.3869980911583202	88.35869159495923
19	7.0	perception	489	diff_vonmises	-0.0110678647781393	-0.6341419400088795	2.2418259648244363	1.5858333210209956	3.149747568911069e-14	2.5705873739551253	0.4670305155033384	-0.3992271847054738	0.8662577002088123	91.82041228182368
20	7.0	wm	489	diff_vonmises	0.2022481761827738	11.587966909491238	1.644791120454315	1.102301542801138	0.2440870860597631	2.1340048971985306	0.0777917759793846	-0.2533730108537759	0.3311647868331605	90.79188249434024
0	1.0	ltm	178	diff_vonmises	-0.0781017409831901	-4.474900130960727	5.320914449509629	0.3226510472964775	0.0129960012443053	1.8928248575531204	-0.0160419018293096	-0.3000233570678467	0.2839814552385371	58.53142978031619
1	1.0	perception	178	diff_vonmises	-0.0540868773520529	-3.0989497993143544	15.52339477613374	0.6758262678063822	0.0325090597972123	2.473148608728858	0.646928416177857	-0.3996435321144081	1.046571948292265	34.24075978700097
2	1.0	wm	178	diff_vonmises	0.005298462105993	0.3035795165833979	5.176110864175111	0.3803172195499651	1.1261507518286342e-16	2.1206500121052114	-0.0016164312907611	-0.3375012080507941	0.335884776760033	59.99077926557612
3	2.0	ltm	178	diff_vonmises	-0.0513816380062813	-2.943951002228906	3.350022173326606	0.6184007602178414	0.2580653526427681	1.3802548304626152	0.1514025247719205	-0.2010178858819791	0.3524204106538997	68.08964176405433
4	2.0	perception	178	diff_vonmises	-0.0362102456328905	-2.0746942498966483	7.449663805680826	1.1426449106994212	0.3647945553478742	1.9059279920107812	0.7991672402244423	-0.325857603198167	1.125024843422609	47.724818289919085
5	2.0	wm	178	diff_vonmises	0.0008852934830054	0.0507235802066496	4.10242999446417	0.632395708001098	0.3114913153946972	1.4884441552071537	0.1772062916442549	-0.2275987006085535	0.4048049922528085	61.47322652409324
6	3.0	ltm	178	diff_vonmises	-0.0129798416471903	-0.7436901451321424	1.455463370392052	114.79270854517353	1.4355146220486426	115.26505957384497	0.2058332777139	-0.1821238414577912	0.3879571191716913	72.89776623445158
7	3.0	perception	178	diff_vonmises	-0.0343346904950873	-1.9672328562564487	4.2408824000275605	1.9593668193206384	0.4765187391072224	2.384900629862188	0.9771619302776562	-0.3432187260098063	1.3203806562874625	61.44829951535007
8	3.0	wm	178	diff_vonmises	-0.0732473177571195	-4.196762168136599	1.4448754597442468	79.77967344441144	1.4124797877464197	80.41452239173834	0.1935259225199885	-0.2181121862443049	0.4116381087642935	72.23131217456924
9	4.0	ltm	178	diff_vonmises	-0.1695781744507964	-9.716113693563845	1.2868278281473748	143.32937921414756	1.2681054247952928	144.09862182335385	0.1883647007813707	-0.2428049994307173	0.431169700212088	75.94437853047327
10	4.0	perception	178	diff_vonmises	-0.1005482935421615	-5.760992857208366	2.654939010980705	2.312176261616919	0.2627903890802039	3.074939086052466	0.7858058064499891	-0.3998443250154634	1.1856501314654526	77.82021439167613
11	4.0	wm	178	diff_vonmises	-0.1618246687650226	-9.271870541338314	1.2402153773379687	286.87920699358085	1.229563143804557	287.8629041101096	0.1831557977475313	-0.2902806640629194	0.4734364618104507	76.43507820125421
12	5.0	ltm	178	diff_vonmises	0.0318310426428324	1.8237844009352489	0.7560681281390687	135.91403128840366	0.7399314600891378	136.4589932393542	0.259439669757306	-0.2350195621483948	0.4944592319057008	102.91180523441636
13	5.0	perception	178	diff_vonmises	-0.0168977011957087	-0.9681669619872744	2.1426334775338933	2.176940982663461	0.19801833551004	2.728347048056416	0.646471690984474	-0.3439580846957051	0.9904297756801792	87.29304836925954
14	5.0	wm	178	diff_vonmises	-0.0084616406599401	-0.4848162975708633	0.733032015060386	145.39119502267482	0.7184576180442207	145.9489989465283	0.2435541919975108	-0.233644807094377	0.4771989990918879	104.19839854923885
15	6.0	ltm	178	diff_vonmises	-0.1530167207373785	-8.767212293183729	0.4333084900810671	153.36657664758005	0.4221837375571635	153.81479554573465	0.2107060729236707	-0.2493504102892298	0.4600564832129006	131.5575384881742
16	6.0	perception	178	diff_vonmises	-0.0040839693344657	-0.233994206525737	0.6561557214093614	129.92411798799264	0.6323401823698084	130.54692571888214	0.418629354429413	-0.3530815707115522	0.7717109251409653	112.09005199404746
17	6.0	wm	178	diff_vonmises	-0.1820947547847891	-10.433260920638068	0.5457826699491551	73.97952960472126	0.5171302089770531	74.40538638598994	0.2915343053326182	-0.2703250235012282	0.5618593288338465	122.11592732829374
18	7.0	ltm	178	diff_vonmises	0.0764460739199857	4.380037395960298	0.8805120190405276	185.56403257935048	0.8670487533105852	186.26798203375316	0.2535722802266278	-0.2534055133252728	0.5069777935519006	94.11675905894928
19	7.0	perception	178	diff_vonmises	-0.0532050126376716	-3.0484226730787936	2.264369520592978	1.5610570822879115	6.114651007036278e-13	2.2451141795743603	0.5103444960645386	-0.3479551809997377	0.8582996770642763	91.36546883712585
20	7.0	wm	178	diff_vonmises	0.2322501661815115	13.306954313412612	2.370061443199158	0.8956263237735049	0.1328223547632351	1.5083146604324322	0.2385193263695484	-0.20919109222446	0.4477104185940085	83.94751618610448
0	1.0	ltm	299	diff_vonmises	0.0186536938772325	1.068777931494448	6.701170355358441	0.2918581950187201	0.0269242539041504	3.759797998191136	-0.3192695643552317	-0.6004367896457751	0.2811672252905433	51.162390253159714
1	1.0	perception	299	diff_vonmises	0.0302543884167768	1.7334487680307953	11.02076992465593	0.8152513647291586	0.0924703504730335	4.283135778694392	0.3206690359929971	-0.7083838802049424	1.0290529161979394	40.04677447567244
2	1.0	wm	299	diff_vonmises	0.0589861275603096	3.379656159026049	4.1749524057782486	0.462086483444479	0.0424255348952281	4.113872735145003	-0.3191875565286614	-0.6489525933486856	0.3297650368200242	63.5787409809104
3	2.0	ltm	299	diff_vonmises	0.0122819465611743	0.7037037021605024	3.2431309021158143	0.6382029983707805	0.1579438717246891	2.1793799071332214	0.0331546339075951	-0.3276525956112558	0.360807229518851	69.43454356933017
4	2.0	perception	299	diff_vonmises	-0.0123655595947506	-0.708494376096713	7.04973669135299	1.3318547767790336	0.3034844656151716	2.914285069817928	0.7696981075734974	-0.4917811414039763	1.2614792489774738	48.84068801731482
5	2.0	wm	299	diff_vonmises	0.0536115657578257	3.0717164510115	3.837554709675047	0.7625137859893022	0.1854008068801153	2.525442318407841	0.0934274698118906	-0.3878997158668265	0.4813271856787171	64.1452892603723
6	3.0	ltm	299	diff_vonmises	0.0338254088829842	1.938053169299324	3.459236076737431	0.5342065142599012	0.1334360371890419	1.454624066921932	0.1157351898800639	-0.2189977336603569	0.3347329235404209	69.20605017486875
7	3.0	perception	299	diff_vonmises	0.004278476242962	0.2451386314687134	4.533574588107501	1.7540652024342884	0.2298551408208987	2.659545847046125	0.9175503513706604	-0.4032256222643263	1.3207759736349869	61.293313572636976
8	3.0	wm	299	diff_vonmises	-0.0225106052653366	-1.289762675988756	3.610331817564465	0.6454800571727418	0.1348968053842447	1.785370183596397	0.1453623454488727	-0.2703691196359543	0.4157314650848271	67.81824097091706
9	4.0	ltm	299	diff_vonmises	-0.0547679488456634	-3.137972321444904	1.406792210409617	1.6291926976479465	0.2584457071174676	3.689185967964271	-0.0689046383197063	-0.4260391621464499	0.3571345238267435	91.37226113268088
10	4.0	perception	299	diff_vonmises	-0.0512331602921312	-2.9354438558563576	2.0558891589394808	3.2670439968024296	0.3303542632995322	5.087122138945885	0.6172325722180327	-0.595343118666224	1.2125756908842569	83.26035969988561
11	4.0	wm	299	diff_vonmises	-0.0385497030830253	-2.20873528813981	0.7944486423841314	277.7903747696641	0.7826477220579756	280.05548118704934	-0.0542417608347562	-0.4833025584077646	0.4290607975730083	88.59470494471265
12	5.0	ltm	299	diff_vonmises	-0.0419917926879894	-2.4059524952101032	1.6189610495000544	1.2398341424134185	0.0399161877750313	2.6143065730230988	0.1296407209360275	-0.3775628046837083	0.5072035256197359	103.8847355601616
13	5.0	perception	299	diff_vonmises	-0.0293639095600335	-1.6824280877937716	1.8316985689050465	3.331151173416868	0.2904457605296592	4.598757779735866	0.6709767983365831	-0.5156447374815329	1.186621535818116	89.45915143884099
14	5.0	wm	299	diff_vonmises	0.0372189558943937	2.1324890906323186	0.6148032870520391	104.5986748095839	0.5874840477883587	106.0287079132994	0.1645344099249825	-0.4111674251055461	0.5757018350305287	109.54869446576068
15	6.0	ltm	299	diff_vonmises	-0.0488858701939157	-2.800954039935762	0.4835294425974346	174.0817745386969	0.4708112472185573	175.2475974833586	0.1309648827136271	-0.3643997023460628	0.4953645850596899	122.7527952134112
16	6.0	perception	299	diff_vonmises	-0.0520460899910131	-2.9820212966431296	0.8738179489141674	4.081175245216704	0.130349612649481	5.2194916556555535	0.3543678856957638	-0.5002278408073938	0.8545957265031576	125.98995710096813
17	6.0	wm	299	diff_vonmises	-0.0536037517563518	-3.071268741705932	0.4897790345284292	231.8933401828061	0.4781931819070643	233.09594490810468	0.2090289578205713	-0.4194036112693489	0.6284325690899202	123.26193339578695
18	7.0	ltm	299	diff_vonmises	0.072043317818497	4.127778053119521	0.6711902636568823	218.07249670067333	0.6590925278302872	219.8403594006463	0.0126288260621265	-0.4025448326465799	0.4151736587087065	99.189851762766
19	7.0	perception	299	diff_vonmises	0.0214667215267351	1.2299525434645573	0.8063955654295765	260.4759960598163	0.7887411477469647	262.0095824979015	0.4158052230557558	-0.5087775189306747	0.9245827419864304	97.55618846735236
20	7.0	wm	299	diff_vonmises	0.1535750784254801	8.799203832170637	0.7668299051723012	158.03564210022478	0.7487759302604762	159.78732395516934	0.0299854175809954	-0.4007919659777954	0.4307773835587909	93.11937200842678
0	1.0	ltm	466	diff_vonmises	-0.0099686882070804	-0.5711637615475474	3.6058363510900144	0.3364068844627239	9.662461268422971e-17	2.299618940962369	-0.1217086107956237	-0.3658154204811828	0.244106809685559	72.21131614725155
1	1.0	perception	466	diff_vonmises	-0.0473107783757584	-2.710707926409758	14.896579804561856	0.568590978850286	3.747379277069516e-19	2.679571676166656	0.4412830473358096	-0.4264670776308588	0.8677501249666685	35.102868304260795
2	1.0	wm	466	diff_vonmises	0.02292954646174	1.3137662384068372	4.579892414971162	0.3829924368479015	0.0074339309943826	2.494146714529654	-0.0830669970005113	-0.3952647411346849	0.3121977441341735	63.31307237872289
3	2.0	ltm	466	diff_vonmises	-0.0509855546675194	-2.9212570985824007	2.978844933712023	0.8228529283232974	0.2613116549910687	2.1758532981111283	0.0946278400856718	-0.3132948374866329	0.4079226775723047	70.19663159027598
4	2.0	perception	466	diff_vonmises	-0.0251997547552293	-1.4438395922393676	6.84852399054274	1.1310462444307072	0.1622848173958358	2.574094888371268	0.6786741320728553	-0.417721801459309	1.0963959335321642	50.49538900453581
5	2.0	wm	466	diff_vonmises	0.039741886734616	2.277042379780451	4.363647185885918	0.5775322666267152	0.1550375299813961	2.0567346804632787	0.0855537610912711	-0.3216392842939567	0.4071930453852279	61.14612283820651
6	3.0	ltm	466	diff_vonmises	-0.0088051947683584	-0.5045004980176107	1.189102872161092	160.8974871560277	1.1684789431600937	162.1014974033912	0.165352771761114	-0.3336660977829631	0.4990188695440771	77.40496086155531
7	3.0	perception	466	diff_vonmises	-0.0365880055596165	-2.096338299367217	4.118109544221039	2.09303252617748	0.2183558372569284	3.360360069463913	0.9774862081195544	-0.501927611481595	1.4794138196011493	64.04339401655133
8	3.0	wm	466	diff_vonmises	-0.0275793273566222	-1.580179059344149	1.954551114203424	1.8692055833772296	0.5581752446056534	3.293728977337058	0.102287736672383	-0.3510384573461115	0.4533261940184945	75.72628754112046
9	4.0	ltm	466	diff_vonmises	-0.1197149848442615	-6.859163376048799	1.547919931000848	2.516163078669865	0.5806804356857126	4.191832286567744	0.013013820568555	-0.3781068840063198	0.3911207045748749	79.31162717531615
10	4.0	perception	466	diff_vonmises	-0.1091018894681874	-6.251077803429947	1.7684277981027343	3.953840546206986	0.39251185552598	5.653630556724533	0.6104484298552779	-0.5811899039193369	1.1916383337746148	86.86357713650534
11	4.0	wm	466	diff_vonmises	-0.1458255814149889	-8.35519036012024	1.0098696869245252	342.46646810153163	0.9998423821278714	344.3745930683131	-0.0026407040529505	-0.4329149531821556	0.4302742491292051	79.37487200067136
12	5.0	ltm	466	diff_vonmises	0.0194318748653502	1.113364417810916	1.3883710899796575	1.9159257858241097	0.2468589778858451	2.9378377791410943	0.2025707052602754	-0.3129628798211903	0.5155335850814657	99.39683960093868
13	5.0	perception	466	diff_vonmises	-0.0538806934245487	-3.087136330464928	1.8328377727844192	2.904477801746801	0.283960462574707	3.896302280577298	0.6137430584202576	-0.4370015665613004	1.050744624981558	89.93502477010605
14	5.0	wm	466	diff_vonmises	-0.0155698994332873	-0.8920895249704971	0.6900658199530794	170.54177833327486	0.675729370790664	171.66167528852554	0.152132947781304	-0.319761539772232	0.471894487553536	103.03083239754277
15	6.0	ltm	466	diff_vonmises	-0.1529727837078707	-8.764694886828593	0.4171303732710356	143.48989221962262	0.4054791342208694	144.4963684194644	0.0767486295387627	-0.3057218840988529	0.3824705136376156	129.43051919329787
16	6.0	perception	466	diff_vonmises	-0.0696746534941822	-3.992063584253077	0.5981306951008871	92.95114083703665	0.5674633222223089	94.02353511289569	0.2603859500545589	-0.3877064854661487	0.6480924355207076	114.18689879718276
17	6.0	wm	466	diff_vonmises	-0.091943120946299	-5.267952785483809	0.5456475183795203	168.28251799779102	0.534014696929924	169.30420915722453	0.1093700748623618	-0.3019724252931954	0.4113425001555573	115.63892118531952
18	7.0	ltm	466	diff_vonmises	-0.0646141677207022	-3.702119107146675	0.9224734479325222	197.55951859904943	0.9049859918774996	199.1451119628213	0.1443079333486281	-0.4042299613949183	0.5485378947435464	87.24675812686965
19	7.0	perception	466	diff_vonmises	-0.0386610789304653	-2.215116654137817	1.667538590438277	2.718440453061419	0.1626113819505217	4.282171991478283	0.4591427815806607	-0.5322153350577935	0.9913581166384542	96.70208841787974
20	7.0	wm	466	diff_vonmises	0.1175557580532295	6.735448793911093	2.265900190724063	1.0383817744446628	0.21813398576711	2.562627185901387	0.0760827588291014	-0.3477828711665162	0.4238656299956176	79.81666313942227
0	1.0	ltm	155	diff_vonmises	0.02584314270611	1.4807030064144042	3.2878320938927508	0.3195745439377613	4.360318067659848e-19	3.157665191523496	-0.282140775482438	-0.5022507175962714	0.2201099421138334	75.71266047022175
1	1.0	perception	155	diff_vonmises	-0.0335787355492901	-1.923919828360226	16.982548268529264	0.5626115000417249	1.315857142696578e-16	3.477463883281988	0.3644890516156748	-0.5534555664478645	0.9179446180635392	32.858745137585515
2	1.0	wm	155	diff_vonmises	-0.041613930712205	-2.384302598759185	3.735562863778736	0.35634236040147	7.129074817826054e-15	3.4653437048490146	-0.2876577326355736	-0.5513763377679025	0.2637186051323289	70.91025496545902
3	2.0	ltm	155	diff_vonmises	0.0317204764163412	1.8174494228006144	3.6496799112728815	0.5023965896485265	2.478682804313721e-16	2.4082373314534773	-0.0159821217735864	-0.3830345814436796	0.3670524596700932	71.75890421446576
4	2.0	perception	155	diff_vonmises	-0.0249901046927903	-1.431827528486959	7.28316215749457	1.2212646026041405	0.1888087560136961	3.284512430890546	0.6646260190327374	-0.542544796867804	1.2071708159005414	48.63346989670413
5	2.0	wm	155	diff_vonmises	0.0050776458215509	0.2909276754371077	3.520131918482136	0.7203198974001734	0.1209128209058314	3.0191093756926684	-0.0241191769199554	-0.463522854456345	0.4394036775363896	67.42207045587
6	3.0	ltm	155	diff_vonmises	0.0196136785551927	1.1237810019387924	2.747047668979297	1.125339973897044	0.2894322709855568	2.9226164142149567	0.092214089699806	-0.4107414129456719	0.502955502645478	71.63189711859454
7	3.0	perception	155	diff_vonmises	-0.028812412914872	-1.6508296576103954	3.983693348867885	2.507295062090653	0.228863497657813	4.302645098544013	1.0735873438793828	-0.6402297027530887	1.7138170466324714	64.68610438606416
8	3.0	wm	155	diff_vonmises	-0.0522166699952267	-2.991794810953896	3.532546394698936	0.7475754757033742	0.0819921673218914	3.003933772116941	0.0186998392728079	-0.4623695848362825	0.4810694241090904	68.9123531692656
9	4.0	ltm	155	diff_vonmises	0.001740888656	0.099745572591006	1.887835275525796	0.9478006559925236	0.1011236758157551	3.631367100915982	-0.1656657149124413	-0.5202821867263457	0.3546164718139044	88.3437416323535
10	4.0	perception	155	diff_vonmises	-0.0541170646217013	-3.1006794024602256	1.553624046244513	5.364454067635966	0.4343724602619729	7.839740021936011	0.534932382535815	-0.7315635226926914	1.2664959052285063	88.53411445764496
11	4.0	wm	155	diff_vonmises	-0.0669656248047696	-3.836847673769878	0.6721201123901669	106.03592758117766	0.6418211998066349	109.08467667640758	-0.2228870882226346	-0.5933527272520145	0.3704656390293799	92.25589231604258
12	5.0	ltm	155	diff_vonmises	0.0086766878846944	0.4971375959452855	1.605892204090046	1.6049665463398584	0.2062829896447081	3.1182844302894974	0.1210021114877042	-0.3783972022730122	0.4993993137607164	93.54059567402714
13	5.0	perception	155	diff_vonmises	-0.0184991372611755	-1.059922489698559	1.4655233280521756	4.410697997703041	0.3663882312534354	5.962497591528008	0.5597285574411595	-0.5562094158364428	1.1159379732776022	94.22253977089554
14	5.0	wm	155	diff_vonmises	-0.0509619520040346	-2.919904765579452	1.0570555624847195	2.35803628466366	0.1669508077602013	4.260713365627902	0.0353793311870977	-0.469516350565198	0.5048956817522958	111.78316904338638
15	6.0	ltm	155	diff_vonmises	-0.1988193723161611	-11.391510919156197	0.501489834397583	7.149943439284888	0.262901471331283	8.699043656818585	-0.003946674513227	-0.3984670658217453	0.3945203913085182	130.9867123981919
16	6.0	perception	155	diff_vonmises	-0.0059701358560538	-0.3420635876716079	0.538248095954729	103.8788681157328	0.5076708661530456	105.50375003568196	0.1924145256136924	-0.4971272774728152	0.6895418030865077	117.82544494148432
17	6.0	wm	155	diff_vonmises	0.0258864593670424	1.483184868268426	0.4242828975657978	211.7250012124065	0.4139328629274938	213.52831409520417	-0.0125204577542135	-0.446497809839169	0.4339773520849554	125.19527516288048
18	7.0	ltm	155	diff_vonmises	-0.1277127924776076	-7.317403998797045	0.9593886176251278	243.53821314463863	0.9439661311830068	245.82161158604137	-0.0428227640396841	-0.5010902093872431	0.458267445347559	80.64662433522415
19	7.0	perception	155	diff_vonmises	0.1224817239337577	7.0176858488908	0.4921117826084077	60.57281319404984	0.4290046639744898	62.87085849145952	0.1729837905957474	-0.6735737362439691	0.8465575268397165	123.61526921731344
20	7.0	wm	155	diff_vonmises	-0.0383075342252879	-2.1948600346619536	0.989368875734404	5.576962495351559	0.5683005196759793	8.096735687679963	-0.2071557476343009	-0.4868593207141636	0.2797035730798627	84.06651859641062
0	1.0	ltm	34	diff_vonmises	0.0175734460331683	1.006884289201465	5.688760484209347	0.240219720193149	8.360521246226589e-21	3.530521756085984	-0.3388418643744234	-0.5618974351591832	0.2230555707847598	57.16205867866742
1	1.0	perception	34	diff_vonmises	-0.0029162828610599	-0.1670906998050713	15.078062419156492	0.6415616118925346	0.0487834972463195	3.936018881839376	0.3279275791786488	-0.6423097833256755	0.9702373625043242	34.57384541758742
2	1.0	wm	34	diff_vonmises	0.0183804790009477	1.053123872183139	3.69658769749702	0.3527307007607872	3.3345491186622496e-12	3.908579083033104	-0.3623597906720223	-0.6219098455320762	0.2595500548600538	71.29038961611192
3	2.0	ltm	34	diff_vonmises	0.0582045036463234	3.334872407588142	3.4901789819492377	0.4487913724481173	4.993039194117969e-22	2.1847905581477955	-0.0276538937756409	-0.3474225293027461	0.3197686355271051	73.42543302998195
4	2.0	perception	34	diff_vonmises	-0.0179419461953088	-1.027997793242003	7.5644614523197236	1.2504608340234606	0.2738196114264133	3.093623787832129	0.7123415702968553	-0.5256434569642005	1.2379850272610555	47.28413495066104
5	2.0	wm	34	diff_vonmises	0.0335831065897911	1.9241702705330164	3.6235734093080176	0.7591455522621868	0.1625279344753624	2.90972688753359	0.0115735894743312	-0.4463924604275279	0.4579660499018592	65.6496479403379
6	3.0	ltm	34	diff_vonmises	0.0158425233144264	0.9077097227542444	3.2809880051331315	0.7726490930894526	0.2705129257393909	2.1198218391790613	0.0981455166282251	-0.3125946139447348	0.41074013057296	67.18059751603539
7	3.0	perception	34	diff_vonmises	-0.0135204072355626	-0.774662271895879	4.13445055829616	2.2479580961747225	0.2808805269594983	3.564533018918969	1.023027035506507	-0.5297087437634491	1.552735779269956	63.20087609940313
8	3.0	wm	34	diff_vonmises	-0.0435546554164527	-2.495497933509355	3.812089358124703	0.6743676871724963	0.1158566729993686	2.457269366691428	0.0672829463143391	-0.3786326313509827	0.4459155776653218	65.82253626153656
9	4.0	ltm	34	diff_vonmises	-0.0008402414555341	-0.0481422891740336	0.881374134199068	7.230662096184358	0.5407311962019834	9.53496462752492	-0.117609594236606	-0.4670750014186617	0.3494654071820557	91.76582331661972
10	4.0	perception	34	diff_vonmises	-0.0538730227967859	-3.086696835867905	1.891377041898154	4.072064455599273	0.4212748603817305	6.0338980039865096	0.630234922173297	-0.6364243253110774	1.2666592474843743	83.58149149466527
11	4.0	wm	34	diff_vonmises	-0.0474748702049022	-2.720109695672279	0.7356233327351838	176.79201342690027	0.717033779466447	179.43809178138414	-0.1345428610069632	-0.5377282680071396	0.4031854070001763	90.11508594709562
12	5.0	ltm	34	diff_vonmises	0.0074684748474891	0.4279120881607409	0.8725180783138751	8.428368689769078	0.5591002558495799	10.23906318585406	0.0359082011290508	-0.4184798869607622	0.454388088089813	96.61460529439056
13	5.0	perception	34	diff_vonmises	-0.0001821042992289	-0.0104338077770086	1.5986638490582767	3.892264466344636	0.3301847862402285	5.720620539771932	0.5195953719468727	-0.5920571014903205	1.111652473437193	91.6729394792207
14	5.0	wm	34	diff_vonmises	-0.018841638099911	-1.079546342237797	0.493536557739222	125.19169654176112	0.4718461029312438	127.3744991060836	-0.0210031012184828	-0.5160456696917226	0.4950425684732398	116.64101496628574
15	6.0	ltm	34	diff_vonmises	-0.1802637750377301	-10.328353508757658	0.4355228307486444	251.91039399487863	0.4260916329609189	253.9170795744701	-0.0289281755799066	-0.483598031613436	0.4546698560335294	123.0384541661318
16	6.0	perception	34	diff_vonmises	0.0016952066086985	0.0971281840811144	0.5346845245156229	240.41401861453585	0.5185913146396836	242.46144730126795	0.2136724017309674	-0.6077773868829013	0.8214497886138687	117.00734351703458
17	6.0	wm	34	diff_vonmises	-0.0327736636942696	-1.877792608862782	0.3978924641512605	282.77184143214856	0.3883668557754117	285.07478800963577	-0.0272399361551833	-0.5716379294662026	0.5443979933110192	128.3934994689609
18	7.0	ltm	34	diff_vonmises	-0.0423994008293037	-2.4293067214025874	0.8233263457879428	241.2183064120177	0.8100829607859874	243.56256347625032	-0.1063867056670915	-0.4845700279232261	0.3781833222561346	85.26346264867533
19	7.0	perception	34	diff_vonmises	0.0840816928939673	4.817526137139454	1.4827904947641817	2.0712700494293927	6.269066016352783e-21	4.3544687223850485	0.197887930775088	-0.647124796260516	0.845012727035604	110.9648111281062
20	7.0	wm	34	diff_vonmises	0.1374020316086524	7.872556507698915	0.7624075113446063	190.68137859024188	0.747098487152348	193.23007668123813	-0.1908384093506754	-0.4989170467706501	0.3080786374199746	85.59414731030688
0	1.0	ltm	374	diff_vonmises	-0.0384510292358037	-2.2030816931456925	5.481403860803459	0.2375411196941708	1.0246545197674417e-21	2.53313951133534	-0.1868838386163398	-0.4031579254286986	0.2162740868123588	58.2563148058936
1	1.0	perception	374	diff_vonmises	-0.0221787911571403	-1.2707511280062134	14.06652582740541	0.7229905865582135	0.0521210953706562	3.1713147822521623	0.5402933468093003	-0.5171453396014484	1.0574386864107486	35.84890650650485
2	1.0	wm	374	diff_vonmises	-0.0051905794407477	-0.2973982951822218	5.442464039070505	0.3057841698470268	1.210541603343791e-19	2.8215365000987966	-0.171708678624004	-0.4490562831556268	0.2773476045316227	58.47066812434792
3	2.0	ltm	374	diff_vonmises	0.0034610319301705	0.1983025223587893	4.359624856493473	0.4181141839985187	0.0243843474130008	1.6857151373533208	0.061976557329626	-0.2651723856901373	0.3271489430197634	64.41167682881772
4	2.0	perception	374	diff_vonmises	-0.0247260600348584	-1.416698883984488	7.673960032500907	1.2757179998144867	0.3234862986498744	2.592911141984782	0.829412201617876	-0.4447580468459315	1.2741702484638076	46.98969969886216
5	2.0	wm	374	diff_vonmises	0.0116640833146867	0.6683027458205119	3.869129455587171	0.6108193023912448	0.1573931021177794	2.1124248526223446	0.0700499394159814	-0.3252601405705129	0.3953100799864943	64.45016278268733
6	3.0	ltm	374	diff_vonmises	0.0555927971818846	3.185232649848769	2.694137946055489	0.8704334115857636	0.4875681606284829	1.6149250053962196	0.1411798812049353	-0.2071079101737894	0.3482877913787247	70.22063617625588
7	3.0	perception	374	diff_vonmises	-0.0133837848309449	-0.766834384724358	4.514927371022993	2.0153467079825367	0.3661352514638438	2.710130598168785	1.0528538312048266	-0.4051384747761598	1.4579923059809865	60.40941447801009
8	3.0	wm	374	diff_vonmises	-0.063529868454783	-3.639993335480371	3.433189488030066	0.7157391371759435	0.2857967999014555	1.7215355621762347	0.148484677110009	-0.2532453986495118	0.4017300757595208	66.44154753733423
9	4.0	ltm	374	diff_vonmises	-0.1048896949724397	-6.009736836335366	0.9801749482381944	46.01597726952226	0.922389950668216	47.53899343453652	0.0068944068020648	-0.3449629972440133	0.3518574040460782	81.99303510955596
10	4.0	perception	374	diff_vonmises	-0.0628026481147533	-3.598326679220604	2.4613613726615	2.572357368525473	0.2685204368365403	4.090696252384504	0.6656841999462996	-0.5288173884391135	1.194501588385413	79.10854729120263
11	4.0	wm	374	diff_vonmises	-0.112758650742033	-6.460594791108184	0.9803165477542014	296.9317832724308	0.9697060234728438	298.71614275349486	-0.0022965911198724	-0.4026160732520765	0.400319482132204	80.63963221224134
12	5.0	ltm	374	diff_vonmises	0.0202853539774938	1.1622651688393155	1.8193558679384425	1.1169218302526285	0.1226058854633121	2.042247125173586	0.1779955668718245	-0.2730010513953568	0.4509966182671813	94.15431178497728
13	5.0	perception	374	diff_vonmises	-0.0207125554209777	-1.1867420085528386	2.2439926331360978	2.2819477828657098	0.1393381693797701	3.115538299031193	0.6942833558550073	-0.4197901530438551	1.1140735088988625	86.7721382483088
14	5.0	wm	374	diff_vonmises	0.0128312939209279	0.7351789873610401	1.4832517098437092	1.289197629410161	0.0524305238005005	2.349006874690609	0.1609175343350963	-0.3259613178825647	0.4868788522176611	107.3903552889448
15	6.0	ltm	374	diff_vonmises	-0.1370651939547153	-7.853257131747233	0.4552804202717984	114.95443197363775	0.4409488353361344	115.72121618716062	0.1244228896616199	-0.2690883355543008	0.3935112252159207	126.9523962814609
16	6.0	perception	374	diff_vonmises	-0.0242369797641437	-1.3886766486294173	0.9979708302280624	2.810147705887993	0.0980011034113661	3.656195111128999	0.3188793785192707	-0.3959749911779692	0.7148543696972399	122.8665290225791
17	6.0	wm	374	diff_vonmises	-0.0708180313621364	-4.057574310475516	0.4284818730288836	168.66227455218396	0.4169298811504234	169.5146593121152	0.1619810567841	-0.3202604155545607	0.4822414723386607	130.25187023607845
18	7.0	ltm	374	diff_vonmises	0.0829051850100344	4.750117200826232	0.906010303254256	202.44744968901577	0.8936921652381484	203.55998629018305	0.1172513449776175	-0.2894567657869906	0.4067081107646082	88.3792191010103
19	7.0	perception	374	diff_vonmises	0.0050135249257323	0.2872538187281004	1.104665496378024	4.226750100382274	0.36262990213377	5.244069875466276	0.3666148975744729	-0.395681541246962	0.762296438821435	104.7389744208889
20	7.0	wm	374	diff_vonmises	0.1232023077360945	7.058972259550188	0.7844656001239849	125.07032517491376	0.7679119981256308	126.22379868835958	0.0521880682218309	-0.2762566985230847	0.3284447667449157	93.31380515058316
0	1.0	ltm	420	diff_vonmises	-0.0763372106104552	-4.373799987780374	2.104915455228435	0.4333697330014696	5.923491654053242e-19	2.610269956503546	-0.1848785712244629	-0.4120135200159858	0.2271349487915229	94.66907640131184
1	1.0	perception	420	diff_vonmises	-0.0466386739222582	-2.67219917783225	15.821947381665623	0.6365939632451915	1.2641044567167435e-16	2.9635851396169235	0.5300421444768163	-0.4716692242437	1.0017113687205164	34.056264388898114
2	1.0	wm	420	diff_vonmises	-0.0127497708113948	-0.7305080572520113	3.5307841530316613	0.3953967242788652	1.4757565026475466e-20	2.7462065859930003	-0.1532608674443517	-0.4368289847619418	0.2835681173175901	72.99084613070656
3	2.0	ltm	420	diff_vonmises	-0.0015422601294235	-0.088364996327272	3.963919260131976	0.4655669402078361	5.449912053909943e-19	1.962788744660258	0.0437980563864218	-0.3122591017173339	0.3560571581037557	68.78039010329269
4	2.0	perception	420	diff_vonmises	-0.0311291330502715	-1.783567943681763	7.2907395996620386	1.2133674363344331	0.1735963728484612	2.7552575234306267	0.7652239955913532	-0.4512692690797057	1.2164932646710591	48.93356701185152
5	2.0	wm	420	diff_vonmises	-0.0049072133634263	-0.2811626148945277	3.866635232119061	0.5932413553344852	0.1014071271601427	2.283680181705946	0.0464958538747829	-0.3531568619388693	0.3996527158136523	65.66161176485406
6	3.0	ltm	420	diff_vonmises	0.0087624941253391	0.5020539313901113	2.466596279105444	1.0841380473673434	0.3198235654482645	2.242350847104541	0.1548054140856911	-0.2949694604902957	0.4497748745759869	75.57843558046125
7	3.0	perception	420	diff_vonmises	-0.0300795320180894	-1.7234302343651555	3.872771134948466	2.3922643200027367	0.2622159347100525	3.5065808318954423	1.0938937497133208	-0.5110326244249129	1.6049263741382336	65.55739418713827
8	3.0	wm	420	diff_vonmises	-0.1044419329166677	-5.98408196031353	2.8589870869129497	0.9874296976914678	0.2475389012125819	2.376116785720109	0.1520955126111996	-0.3365982577570715	0.4886937703682711	72.35030106695157
9	4.0	ltm	420	diff_vonmises	-0.0942179638070881	-5.398291680462494	2.390115949914404	0.8938329855793484	0.2265417998407579	2.7698427469892546	-0.0329044743384071	-0.3886336058558617	0.3557291315174545	75.8702195435637
10	4.0	perception	420	diff_vonmises	-0.0851721385900318	-4.880004073312152	1.789127950191658	4.30020044765325	0.41582081677359	6.138477176192957	0.6546686895472533	-0.6240780471400277	1.278746736687281	85.81941121049158
11	4.0	wm	420	diff_vonmises	-0.122111584001192	-6.996478392925529	0.9003646476175364	306.83294622328924	0.8896995072174233	308.9835982396081	-0.0664386229987741	-0.4594585803678512	0.3930199573690771	82.42917768265093
12	5.0	ltm	420	diff_vonmises	0.0118898629674776	0.6812389670253616	1.5406905279841685	1.3545243956652242	0.153181677268085	2.44668341380238	0.1450925111099706	-0.3053891167929488	0.4504816279029194	99.00042321486804
13	5.0	perception	420	diff_vonmises	-0.0180292399798043	-1.0329993586713202	1.7908915181450429	2.981528072209492	0.2497506074826528	4.009897648472521	0.6318130253762173	-0.4592879361611253	1.0911009615373426	91.86325784601004
14	5.0	wm	420	diff_vonmises	-0.0345106260878753	-1.977313223189333	0.5727859185634403	95.0807803992438	0.5489710460220799	96.3841523292954	0.0931940060871774	-0.3532499903107968	0.4464439963979743	112.07148928743752
15	6.0	ltm	420	diff_vonmises	-0.1991373240813751	-11.409728213391688	0.354587133303779	152.01611136152874	0.344884601851074	153.12366695667797	0.0257886156000211	-0.3093894245302024	0.3351780401302235	135.44745770806588
16	6.0	perception	420	diff_vonmises	-0.024990039862475	-1.431823813983508	0.5060711479454778	232.6981095542536	0.493587741264254	233.84954287862905	0.2601680691988193	-0.4330137319055041	0.6931818011043234	122.3705575463642
17	6.0	wm	420	diff_vonmises	-0.0375706742146303	-2.1526410659593087	0.4145099371347903	191.59520292913797	0.4047626437509399	192.8453888728313	0.0569216803534686	-0.3547503756225865	0.4116720559760551	128.8413055197038
18	7.0	ltm	420	diff_vonmises	-0.0051599635172738	-0.2956441319812736	0.9415887353029844	179.5921734966547	0.9248363455317976	181.1473507885896	0.0627136904569454	-0.3695247374249781	0.4322384278819235	84.48650010941765
19	7.0	perception	420	diff_vonmises	0.0812518999303725	4.655390943429655	1.224261408227076	3.174628576050552	0.1702696006651009	4.721606143785457	0.3332617008514476	-0.524000450793933	0.8572621516453806	109.11237879146032
20	7.0	wm	420	diff_vonmises	0.0090051997406609	0.5159599388121756	0.7524984895745244	63.07469597296886	0.7168657016438498	64.74261038297678	-0.051107375523717	-0.3513415752322304	0.3002341997085134	91.43620640935296
0	1.0	ltm	11	diff_vonmises	-0.0158107887514313	-0.9058914662299344	5.888745525500804	0.2398532006832203	1.493309166705071e-21	2.9125997873631757	-0.2367454763431833	-0.4635529125300093	0.2268074361868259	56.16088062869491
1	1.0	perception	11	diff_vonmises	0.0046698345090123	0.267561808390957	12.89791420669839	0.7341584712075593	0.0777810328538658	3.5152819492142666	0.437331243761987	-0.5799242319351164	1.0172554756971035	37.24618683840436
2	1.0	wm	11	diff_vonmises	0.0949619909259095	5.440921294214236	3.420744442589257	0.4170599976834946	7.63248454749799e-13	3.240336250832795	-0.2216033583825292	-0.5154012057423737	0.2937978473598444	74.18880163356178
3	2.0	ltm	11	diff_vonmises	0.0726674625497206	4.16353891202396	4.5851760087310645	0.3593483848454857	6.0617414580447344e-21	1.5475050561633408	0.0511907883756242	-0.2462621159106001	0.2974529042862243	63.82871087144926
4	2.0	perception	11	diff_vonmises	-0.0094285243605225	-0.5402146528942247	7.207336905103187	1.3139775245428411	0.3985305292602802	2.427863510764733	0.8273938724645974	-0.4182994805883001	1.2456933530528975	48.082659153121625
5	2.0	wm	11	diff_vonmises	0.0571627289370845	3.275183113545289	3.951044624985339	0.6905366310628491	0.2271257185104497	2.079434720079329	0.1173052704378564	-0.3197320131354065	0.4370372835732629	62.85628170940737
6	3.0	ltm	11	diff_vonmises	0.0289920399033271	1.6611215259355152	3.5425565736175844	0.5136015277049929	0.2897122880343981	1.2014202900725852	0.1191424309862029	-0.1775436444053068	0.2966860753915097	65.68675358962764
7	3.0	perception	11	diff_vonmises	-0.0014308031860165	-0.0819789838726171	4.443402008564964	1.7966365697827862	0.3175552262618206	2.406795660224097	0.9492104866541816	-0.3588300995957659	1.3080405862499478	61.30129310909962
8	3.0	wm	11	diff_vonmises	-0.0428003246570526	-2.4522779646388297	3.7215204867623055	0.6205929688241107	0.235116457901288	1.5456202119897688	0.151640806564129	-0.232304634521415	0.383945441085544	65.13393226497294
9	4.0	ltm	11	diff_vonmises	-0.0862485961969643	-4.941680551014142	0.9309115521211608	75.56911108743327	0.8984173796337201	77.0262388892175	-0.002485049582976	-0.3254880782713378	0.3230030286883618	83.34988847235803
10	4.0	perception	11	diff_vonmises	-0.0650237285621156	-3.7255852148134903	2.314148775850411	2.906711478903239	0.3462754725565111	4.123459513667545	0.7359879414697942	-0.493557219942457	1.2295451614122512	80.0627505870327
11	4.0	wm	11	diff_vonmises	-0.0555955643663217	-3.185391197838149	0.973769293282464	309.92024597873973	0.9632859087545812	311.63907469020364	0.0408005903207424	-0.4007441482011984	0.4415447385219408	82.14569275872591
12	5.0	ltm	11	diff_vonmises	-0.0072209008176458	-0.4137271411336725	0.6613011164513112	137.9370214657108	0.6447123611790436	139.2732153202761	0.0688085658869042	-0.3325651073408	0.4013736732277042	102.54117164395596
13	5.0	perception	11	diff_vonmises	0.0057530900282936	0.329627777780023	1.6285833445715876	3.690314200644159	0.3775178715111225	4.949665697544546	0.571106406621015	-0.4835801963708882	1.0546866029919033	90.74103491862309
14	5.0	wm	11	diff_vonmises	0.077894125745403	4.463004654072924	0.5298446711816047	172.17011391565697	0.5157064573483966	173.6231458852049	0.093686087974774	-0.3983967145968421	0.4920828025716162	116.01864775899917
15	6.0	ltm	11	diff_vonmises	-0.1346029500800721	-7.7121809495982365	0.482934010028038	231.54630135557895	0.4729034050564003	232.9496952840973	0.0933572293778439	-0.3987313783788231	0.4920886077566671	121.26080014856991
16	6.0	perception	11	diff_vonmises	-0.0124003655169832	-0.7104886085427039	0.611201531674788	281.29186170711	0.5964752501949891	282.7082511861746	0.4091179286704971	-0.5387563922666807	0.9478743209371778	112.82138501857656
17	6.0	wm	11	diff_vonmises	-0.0607156565625648	-3.4787508714007425	0.4443648713900437	158.5646709924243	0.4262200270156374	160.08983278573183	0.1762447342812194	-0.4944122529100951	0.6706569871913146	127.62455504312076
18	7.0	ltm	11	diff_vonmises	0.1083560615571084	6.208345011882062	0.7575672709726046	224.4649353424034	0.7457391628462212	226.24986864953735	-0.0166381586103625	-0.3902534599847307	0.3736153013743681	91.91434161619212
19	7.0	perception	11	diff_vonmises	0.0302629334690255	1.733938363460367	2.1509510409098023	1.7003310689449582	1.2747312806369427e-16	3.4055340753226115	0.3744453506640113	-0.52959569038706	0.9040410410510712	93.68675450434316
20	7.0	wm	11	diff_vonmises	0.2613408284812095	14.973726486425644	0.7823112943476421	73.66311976207044	0.7456288792349929	75.48558617256613	-0.0185178743154494	-0.3977707179697614	0.3792528436543119	91.07584521474712
0	1.0	ltm	230	diff_vonmises	-0.1555309123745356	-8.911264862879918	1.5582716787875404	0.4664061301095864	5.1088542813605914e-20	1.8517827938236853	-0.0879702194601741	-0.2855592370133761	0.1975890175532019	108.60478696227236
1	1.0	perception	230	diff_vonmises	-0.0464401081982981	-2.6608221998933765	14.036194872196637	0.700706421008735	4.312902787572277e-18	2.310100880999601	0.6697380151588007	-0.3676639742513612	1.037401989410162	36.17387054071776
2	1.0	wm	230	diff_vonmises	-0.0022291444996864	-0.1277205717568339	3.745578570640908	0.372599642190557	7.539799072382514e-31	1.867262238406222	-0.0208489094654416	-0.2970298182873512	0.2761809088219096	70.81067138327035
3	2.0	ltm	230	diff_vonmises	0.0432635390040054	2.478818191729133	3.972435676376109	0.5145430718976136	0.1899954614271095	1.407606331995574	0.1255904908226555	-0.2152408633295787	0.3408313541522342	63.87009779836694
4	2.0	perception	230	diff_vonmises	-0.015407839458425	-0.8828041723828939	7.0323923619306274	1.339764061445424	0.3157021983864487	2.141812070099045	0.9343049911572274	-0.3571893099103482	1.2914943010675757	49.350302427701365
5	2.0	wm	230	diff_vonmises	0.0193237457942243	1.1071690783927322	4.352002543826347	0.4542011655026312	0.0990229282275556	1.4405306222415204	0.1130689463236461	-0.2240223817137422	0.3370913280373884	62.77049207498624
6	3.0	ltm	230	diff_vonmises	0.0959644641685757	5.498358780093804	2.971558071025	0.7076488988446219	0.3923216367348488	1.254740637156086	0.1763407513044876	-0.1686918123774442	0.3450325636819319	70.12120474331098
7	3.0	perception	230	diff_vonmises	-0.0121897763865096	-0.6984227401552322	4.708822153274963	1.9288561221264855	0.2792229096531279	2.390934072994206	1.1262519634091652	-0.3604100289548214	1.4866619923639868	60.21874150898663
8	3.0	wm	230	diff_vonmises	-0.077775354800827	-4.456199580219937	3.3821099387218494	0.7237636904540282	0.3186603649199933	1.4130665973503302	0.2055810949213052	-0.2024167025793364	0.4079977975006417	67.37172693130628
9	4.0	ltm	230	diff_vonmises	-0.1552560275142163	-8.895515120531579	2.2338865344298435	1.1522739104459208	0.5519461559522978	2.38590145464808	0.0233510576242419	-0.2876531947840537	0.3110042524082956	70.77795527716657
10	4.0	perception	230	diff_vonmises	-0.0688377637026838	-3.944113331282632	2.456647964248577	2.417502928042968	0.1819883682404596	3.84477083954868	0.6821814730480523	-0.5191663188911315	1.2013477919391835	81.42935210893074
11	4.0	wm	230	diff_vonmises	-0.1010182129969694	-5.787917258679951	1.1291748986802754	276.31572354974094	1.1179346701957815	277.8208181553369	0.032107225385431	-0.3604977454866969	0.392604970872128	75.90358430616737
12	5.0	ltm	230	diff_vonmises	0.0077179093343307	0.4422036315217772	1.9435999349120452	0.8070930554102924	2.0814056240457442e-19	1.2429510469256544	0.2113763885069439	-0.1894311738938572	0.4008075624008012	98.3465369267932
13	5.0	perception	230	diff_vonmises	-0.0276245960757505	-1.5827727658941613	2.062085919416257	2.3077295336938897	0.1783622827180518	2.5173782407067917	0.7375344769526786	-0.314997548147262	1.0525320250999406	90.09300063036112
14	5.0	wm	230	diff_vonmises	0.0633185907788863	3.627888016346159	1.6051016059300671	1.0161437421362651	9.217809578715322e-18	1.5074634927978243	0.2186853488996328	-0.2214150047587933	0.4401003536584261	107.27340820060915
15	6.0	ltm	230	diff_vonmises	-0.1472533626523798	-8.436996199090704	0.4271294445647013	80.64238070485716	0.4133715291496543	80.96947553275652	0.1289533332929586	-0.1668707809542198	0.2958241142471784	132.01820447608094
16	6.0	perception	230	diff_vonmises	-0.0393687103917682	-2.255660950321146	0.5890772008393975	151.40530682367176	0.5730257517625355	151.7460727572861	0.3703230638429247	-0.282932231768239	0.6532552956111637	118.65580270874274
17	6.0	wm	230	diff_vonmises	0.0085010791362936	0.4870759558163426	0.451000056839564	62.64175620814399	0.427359696681376	63.002707980105214	0.1896608537137822	-0.2117239493483378	0.4013848030621201	130.7395501152144
18	7.0	ltm	230	diff_vonmises	0.068607838331356	3.930939577902572	1.057850994576805	135.34855825930154	1.0393772854515548	136.24681551320046	0.1572044378273034	-0.2560706564244697	0.4132750942517731	83.11641813785377
19	7.0	perception	230	diff_vonmises	0.0445379823618991	2.551838417364924	1.654375952802361	2.003842187965553	0.0569242239185114	2.860946357048782	0.4395378745539137	-0.3961083017857169	0.8356461763396306	103.03878652611374
20	7.0	wm	230	diff_vonmises	-0.0012916587775394	-0.0740065965240355	0.6050518754796069	68.0765759807408	0.5826176411840973	69.00641772554053	0.0450158133222586	-0.2358271461389307	0.2808429594611894	107.70649598132655
0	1.0	ltm	351	diff_vonmises	0.0235530127566717	1.3494882257750822	3.703678038102337	0.2836487099011482	3.0500179816536534e-13	2.4944136491454425	-0.1879455085732711	-0.3968713973639131	0.208925888790642	71.22243541884714
1	1.0	perception	351	diff_vonmises	-0.0063905030922207	-0.3661488561495519	12.780509890764812	0.6169455523590652	0.0382396879096235	2.922896745247956	0.3875898519873929	-0.4725383194737707	0.8601281714611637	37.65111047471157
2	1.0	wm	351	diff_vonmises	0.1191490925879209	6.826740138101353	4.043665044761326	0.3935509881053997	8.950921408436312e-20	2.68274844644056	-0.1225962358617792	-0.4268791046787984	0.3042828688170192	68.07952515063431
3	2.0	ltm	351	diff_vonmises	0.000805809976914	0.0461695107667099	4.193530154654888	0.450405989743159	0.0815044097719644	1.7424621613307936	0.0549470909584863	-0.2714987046693586	0.3264457956278449	63.85376397801326
4	2.0	perception	351	diff_vonmises	-0.0032593212489864	-0.1867453516442325	7.101799779821152	1.171593931325534	0.242544914226191	2.4704202390666787	0.7281773844293908	-0.4099175365577817	1.1380949209871725	49.15518659794984
5	2.0	wm	351	diff_vonmises	0.0926055277979407	5.305905902403429	4.522005033048331	0.5608600286941946	0.1910852578981706	1.968492006551964	0.0850071622999202	-0.3102401387300435	0.3952473010299637	59.517361414569166
6	3.0	ltm	351	diff_vonmises	0.0066110709303847	0.378786462372673	1.791648489018384	2.3605229702448667	0.849202202587284	3.2676335596667885	0.116210167687673	-0.249203552792276	0.365413720479949	73.58951438052316
7	3.0	perception	351	diff_vonmises	-0.0130619286304839	-0.7483933828278261	4.290489223694514	1.7833462544062264	0.2219673386090951	2.7059020196119508	0.8932135974594703	-0.4060518071942551	1.2992654046537253	62.953178706988666
8	3.0	wm	351	diff_vonmises	-0.0018979789946203	-0.1087461859962296	2.54710759300327	0.9952479534142178	0.4442340393695201	2.1017508188033145	0.0962396264623703	-0.2731876163349996	0.36942724279737	71.11537138906968
9	4.0	ltm	351	diff_vonmises	-0.0677683751752345	-3.882841882000081	1.0198293084650945	159.3461191263095	1.0038459158135613	160.85552686771496	-0.0355802674594087	-0.3333564049497362	0.2977761374903274	77.8336009694832
10	4.0	perception	351	diff_vonmises	-0.1070308450096349	-6.13241569677093	1.8391587143319048	4.006583587094825	0.500644873300783	5.38180106802549	0.6359425662059393	-0.513427337614034	1.1493699038199732	83.52708480588896
11	4.0	wm	351	diff_vonmises	-0.0835704268553579	-4.7882327509187625	1.03137666353164	247.8864025111521	1.0189921039024106	249.6104973649078	-0.0159087075482347	-0.3889014104307833	0.3729927028825486	78.13315289979803
12	5.0	ltm	351	diff_vonmises	0.0335101005394994	1.9199873319723788	0.6888936440289608	141.07949867716826	0.6718354474018213	142.54271350470202	0.0497354748956127	-0.3494585030804487	0.3991939779760614	99.50328581236928
13	5.0	perception	351	diff_vonmises	-0.045645980133912	-2.615322013411161	1.8709365301766687	3.0179701469827886	0.3200075052489379	4.444028869667102	0.5456192109662936	-0.4978939830947282	1.0435131940610218	87.11205039344208
14	5.0	wm	351	diff_vonmises	0.0712623319041688	4.083030856369353	0.599172624262694	212.7084820182129	0.5879618400981248	214.2759091790307	0.0383827890861141	-0.378246922980761	0.4166297120668751	106.48477421704465
15	6.0	ltm	351	diff_vonmises	-0.1541536882884904	-8.83235573530577	0.507278930537755	234.6299393981505	0.4980769116700272	236.35296158879444	-0.0208130467380485	-0.3998267989857034	0.3790137522476549	113.8794549962359
16	6.0	perception	351	diff_vonmises	-0.1074814618981036	-6.158234142657503	0.6210154049473221	287.37305255334496	0.6078444186836259	289.1007939166429	0.2559691708743088	-0.5225670972515672	0.7785362681258761	109.21489319565472
17	6.0	wm	351	diff_vonmises	-0.1232825636080344	-7.063570582293487	0.58840369151808	142.33278038080726	0.5695566224098657	144.1008866781599	0.0472686747761912	-0.4315729571506992	0.4788416319268904	108.04440101181532
18	7.0	ltm	351	diff_vonmises	0.0007887674842801	0.0451930478664043	0.7929118491547269	197.3321363656412	0.7770294095669295	199.42383129292364	-0.0274280923965761	-0.4543240597442022	0.426895967347626	89.57907755784163
19	7.0	perception	351	diff_vonmises	-0.0676949788052972	-3.8786365797710936	2.726476243089228	1.739620562794643	3.432855263339884e-15	3.765037971967548	0.4792407379846205	-0.5946045927226278	1.0738453307072482	83.28037013845551
20	7.0	wm	351	diff_vonmises	0.2465609772797646	14.126903390751494	2.852316965088537	0.8557927933217546	0.162804910035937	2.845401635431536	0.0151238214026692	-0.419039605721578	0.4341634271242472	73.09655322921483
0	1.0	ltm	397	diff_vonmises	0.0113730681756306	0.651628806578189	2.3303449528550524	0.219245859519599	7.178766265940759e-23	2.2203996633754155	-0.2294316940402637	-0.3522148665591278	0.1227831725188641	90.08757401064886
1	1.0	perception	397	diff_vonmises	-0.0064479376938221	-0.3694396164193276	13.216645939682556	0.6991077002466147	0.070493696947282	2.832692805217921	0.5205699379693871	-0.4654553694980473	0.9860253074674344	36.90282060886622
2	1.0	wm	397	diff_vonmises	0.0675556895993035	3.870655896135923	6.536216652032781	0.2288758525963179	2.0177341925281846e-20	2.3777755815420325	-0.1498298256906865	-0.3784342567317478	0.2286044310410613	53.25557700577588
3	2.0	ltm	397	diff_vonmises	-0.0122828265542806	-0.703754122051495	5.455009796565899	0.3014007922294295	1.9982661955382072e-25	1.7100721494746312	0.0015440779705667	-0.272161433058838	0.2737055110294047	58.40212332588362
4	2.0	perception	397	diff_vonmises	-0.0126502284399005	-0.7248046994826675	8.479966590556456	1.2193015416082418	0.2654798444075216	2.7533997904370846	0.8327224653770776	-0.4722431345925816	1.3049655999696592	45.03623337307147
5	2.0	wm	397	diff_vonmises	0.0875877303951495	5.018407288771786	4.836909886958071	0.3729305473346658	0.0710733377525395	2.0202324909266896	-0.0270715574980874	-0.3193766435608038	0.2923050860627164	59.386035673516005
6	3.0	ltm	397	diff_vonmises	0.0961968078114456	5.511671090226944	1.3827177187303976	60.15210900160079	1.3505075697184703	60.78455044431193	0.0908111133502203	-0.1837408555142472	0.2745519688644675	71.68668788108772
7	3.0	perception	397	diff_vonmises	-0.006909332424742	-0.3958755871906081	4.627188848218689	1.8928620108217205	0.3454772419699445	2.5604904128325643	1.0156685091005384	-0.3858260765942493	1.4014945856947878	59.91978666244026
8	3.0	wm	397	diff_vonmises	-0.0467201145978123	-2.6768653848221966	3.194670963079592	0.6154498466207213	0.3738612379774661	1.5236388186558905	0.077279112272827	-0.2201433082444128	0.2974224205172398	66.13305136782452
9	4.0	ltm	397	diff_vonmises	0.0163129346773956	0.934662308487373	1.1021193267581664	206.810706014474	1.0904051818138794	208.32499447298216	-0.0894584555003348	-0.3284295675585973	0.2389711120582625	72.34649636742651
10	4.0	perception	397	diff_vonmises	-0.0870454758318963	-4.987338390875667	2.221013323912054	3.0364849011079955	0.454880709837252	4.59837209795418	0.5724147019831882	-0.5198676870691944	1.0922823890523827	78.04566236903528
11	4.0	wm	397	diff_vonmises	-0.0964851206974586	-5.528190201774724	1.0234128073958395	212.38566377100037	1.0114263518370954	214.13862510807112	-0.121979038229611	-0.3670457745771038	0.2450667363474927	74.18814061231313
12	5.0	ltm	397	diff_vonmises	0.1004085334410535	5.752985193270559	2.2100911237287977	0.8427973139627649	0.2010525957375649	2.101168389992006	0.0569173491612494	-0.2856865260349864	0.3426038751962358	81.18110301524385
13	5.0	perception	397	diff_vonmises	-0.0471244024921841	-2.700029374877931	2.8531318884191124	1.939043281151832	0.0841487193402904	3.17095531212824	0.685962493615983	-0.466194595618792	1.152157089234775	78.57233548167062
14	5.0	wm	397	diff_vonmises	0.068993651334138	3.9530450346432486	1.7255609508255771	0.7344537081787667	1.2614687296064195e-16	2.2639893615645974	-0.0139125828750376	-0.3493403302586095	0.3354277473835718	103.87677122504502
15	6.0	ltm	397	diff_vonmises	-0.1842790130866893	-10.558409702703363	0.5269128169923873	130.69663777440252	0.5143963462654346	132.0550151997026	-0.0321433652106648	-0.3032319154093414	0.2710885501986766	110.702587907431
16	6.0	perception	397	diff_vonmises	-0.1296394957404848	-7.4277959641339955	0.8534836686998047	2.768526190929784	0.0719583338258226	4.170165801132682	0.1565965906585777	-0.4591858061489877	0.6157823968075655	129.5144413930276
17	6.0	wm	397	diff_vonmises	-0.1276451644196934	-7.313529196501896	0.4891167193021711	136.22394906746246	0.4760570524240513	137.7057395156627	-0.027421762185618	-0.3422476990657852	0.3148259368801671	115.89735595439905
18	7.0	ltm	397	diff_vonmises	0.1192171002275784	6.830636688828369	0.9281337279934838	155.57925397786542	0.9121385728573588	156.9131564305295	0.0398931018255623	-0.3119389506753869	0.3518320525009493	84.66585191995097
19	7.0	perception	397	diff_vonmises	-0.0706341694682006	-4.047039799939717	1.7849203365682762	1.951759564743172	0.1106694960369083	3.1799976752491776	0.3761021971699888	-0.4252895776761233	0.8013917748461121	96.33070876772544
20	7.0	wm	397	diff_vonmises	0.1462320085832895	8.378476921543317	1.7970577917062265	1.087600962944035	0.3442789321965279	2.4604847268594936	-0.010722404451939	-0.2945942753299406	0.2838718708780015	81.18763386017935
0	1.0	ltm	328	diff_vonmises	-0.074163508510209	-4.249256031517541	3.3113178237685688	0.3841585672828355	1.106369615522995e-17	1.8364829878226765	-0.0262401120050798	-0.2919315040677748	0.265691392062695	75.43078126256577
1	1.0	perception	328	diff_vonmises	-0.0539708098451298	-3.09229962102905	14.036128647271743	0.6481808372126494	4.2680880073521644e-16	2.3261485805375197	0.5896356097609072	-0.3702180449581244	0.9598536547190316	36.16497952168788
2	1.0	wm	328	diff_vonmises	0.0403358937302981	2.311076473634281	4.0510549276916095	0.443148015910396	3.6466429840744204e-19	1.992512643339228	0.0259442081000607	-0.3170143105460607	0.3429585186461214	68.01930490541176
3	2.0	ltm	328	diff_vonmises	-0.0288927979541247	-1.6554353810955684	2.704687907471246	0.9991141197688902	0.5114527275660237	1.8125992138017235	0.1653761716643972	-0.2306501085190948	0.396026280183492	69.85246596623645
4	2.0	perception	328	diff_vonmises	-0.0218497688664691	-1.2518995393850272	6.606783034653723	1.2028979194927147	0.2661825661721092	1.968097398539273	0.8065702546429931	-0.3215970826162453	1.1281673372592385	51.06723867039034
5	2.0	wm	328	diff_vonmises	0.0349608850770236	2.003111162955358	4.464314894791862	0.5638754767562139	0.2333823803879869	1.414474396326487	0.1796808079839811	-0.2197826569231604	0.3994634649071416	60.26643961248948
6	3.0	ltm	328	diff_vonmises	-0.0043516600346394	-0.2493317538605966	1.4482006794227789	6.376066454025471	1.0803610860016484	6.997827485171119	0.2065088125675043	-0.2124044602217405	0.4189132727892448	77.49416802291475
7	3.0	perception	328	diff_vonmises	-0.0278915902226951	-1.5980704036687852	4.343506239407645	1.8467488935815444	0.258312882648045	2.458301533115031	0.986492187290952	-0.3658522510634853	1.3523444383544374	62.53274119971209
8	3.0	wm	328	diff_vonmises	-0.0565921954095754	-3.2424939503483032	1.80129448011589	2.780934818675937	0.9128279021493744	3.500098814540164	0.2082769378867659	-0.2349405380603894	0.4432174759471553	74.72300277749014
9	4.0	ltm	328	diff_vonmises	-0.1767255793465007	-10.12562982855884	1.7388161624225766	2.610971439375096	0.8136155355403822	3.622075018187632	0.1279990214207744	-0.2749361850860756	0.4029352065068501	74.91785314390614
10	4.0	perception	328	diff_vonmises	-0.1055933694679845	-6.050054415081082	2.277642889093253	2.661852632560076	0.2403892123166888	3.738611728309367	0.738773949374346	-0.4717695117682722	1.2105434611426182	83.24088669845838
11	4.0	wm	328	diff_vonmises	-0.1349409692557741	-7.731548021760453	1.1962951794304622	307.60859336546514	1.1856490069060288	308.8370144466461	0.1432472801525648	-0.3333600411375457	0.4766073212901105	76.51778516971902
12	5.0	ltm	328	diff_vonmises	-0.0020415903344026	-0.1169745096559743	0.8803087905786936	4.91887702793726	0.4796064801303508	5.426870818961995	0.2506109624024157	-0.2355441513150061	0.4861551137174218	108.67208889513226
13	5.0	perception	328	diff_vonmises	-0.0367389247595132	-2.1049853325687926	1.786262545951249	2.809746928172688	0.326565038907145	3.2241531317338024	0.6607061574323744	-0.3331939075370413	0.9939000649694156	91.16593358440596
14	5.0	wm	328	diff_vonmises	0.0340592229954835	1.9514497311361292	0.7347562086386819	137.87630870255518	0.7197755312374645	138.36948202655	0.251886407442619	-0.2234346019801663	0.4753210094227853	104.6264297552733
15	6.0	ltm	328	diff_vonmises	-0.1238229200481323	-7.094530725743812	0.4206744090945187	137.67448441687316	0.4096699348210096	138.1121910929812	0.1781759130225424	-0.2279229117446064	0.4060988247671488	132.65339454745367
16	6.0	perception	328	diff_vonmises	-0.0436006017531891	-2.4981304646884355	0.6678257541403064	223.84305536991675	0.6546910067059634	224.34031461998555	0.4219768536466617	-0.3223380374595628	0.7443148911062245	111.30924016018152
17	6.0	wm	328	diff_vonmises	-0.0905424573064757	-5.187700670404504	0.5571527604296441	93.7254203066946	0.5366750912517401	94.1253632180188	0.2596699117736989	-0.242261287954399	0.501931199728098	120.63897239691376
18	7.0	ltm	328	diff_vonmises	0.0239686502038047	1.3733024973033938	0.9024540448285396	141.39002851694872	0.8823206711661229	142.39154099907614	0.2224989174935316	-0.304738227154564	0.5272371446480957	91.31847760990084
19	7.0	perception	328	diff_vonmises	-0.0232131907445504	-1.3300178586948843	2.3745586739777718	1.7867771500738985	1.8814313335004162e-19	2.7546706295608345	0.5831026253120928	-0.4295730485528243	1.012675673864917	89.25281316995742
20	7.0	wm	328	diff_vonmises	0.1734843202362155	9.939919361231173	2.3802576571302407	0.8204011865479787	0.0419810031469107	1.7184882818308544	0.184610525048072	-0.2581684643387736	0.4427789893868457	86.78463460857424
0	1.0	ltm	86	diff_vonmises	-0.0614879545353297	-3.523000285766681	2.677373002287256	0.370817550669047	1.2949533372639888e-22	1.8652413291292955	-0.0694075141560095	-0.2957873015682536	0.2263797874122441	84.05437412920463
1	1.0	perception	86	diff_vonmises	-0.0284455518053206	-1.62981006436561	12.27828330640855	0.6985126771525163	3.0594638887574706e-18	2.4283334920160446	0.5793979634424837	-0.3864812787090466	0.9658792421515304	38.697476916030496
2	1.0	wm	86	diff_vonmises	0.0620800669666507	3.5569258290786085	3.3547303100565826	0.4626433968183746	2.9976361071322427e-18	2.019226316411812	0.0013540249497808	-0.3209762663285422	0.322330291278323	74.9317287293477
3	2.0	ltm	86	diff_vonmises	0.0567252469620366	3.250117242761993	3.030563563499453	0.8553544785683335	0.5185332589826773	1.630748659769698	0.1554253505361209	-0.2197760347174687	0.3752013852535897	66.60794549225804
4	2.0	perception	86	diff_vonmises	0.0005197454298528	0.0297792195517832	6.313108588779457	1.4004769309777092	0.3997857612015641	1.9946382584118896	0.9185093306962556	-0.3282836564727385	1.2467929871689942	51.58102204071256
5	2.0	wm	86	diff_vonmises	0.0665371456590544	3.812297627111028	4.4748905238015055	0.5359233761990195	0.2122268647811546	1.3452436569825097	0.1761170335355517	-0.2088167485593973	0.384933782094949	60.53114242121086
6	3.0	ltm	86	diff_vonmises	0.0804940153060184	4.611967353096304	3.3897908432510326	0.5627495691901052	0.2557059636614631	1.0975760216239632	0.172913798436548	-0.158554809590839	0.3314686080273871	68.46572450127059
7	3.0	perception	86	diff_vonmises	-0.0014726859309724	-0.0843786883930136	4.955272950069226	1.631186994521582	0.1895459835136174	2.0859435044896397	1.0099981388934016	-0.3194516354104006	1.3294497743038023	59.466382396731376
8	3.0	wm	86	diff_vonmises	-0.0270789172162571	-1.551507670275681	3.616735030413036	0.6580031520740312	0.2756674201055143	1.2784853725711636	0.2155738956196785	-0.1870225376542023	0.4025964332738808	66.28301744607595
9	4.0	ltm	86	diff_vonmises	-0.1881838464846166	-10.782140176106326	2.5030505926837963	0.9099271152748484	0.4458949758952621	2.0775217994185566	0.0449624560102927	-0.2728038642859905	0.3177663202962833	70.49079319505068
10	4.0	perception	86	diff_vonmises	-0.0664900531349588	-3.809599424233729	2.3937834161294127	2.370178356014115	0.1428453914813394	3.627371877556528	0.6990000020753824	-0.4977079667443659	1.1967079688197484	83.68238735648285
11	4.0	wm	86	diff_vonmises	-0.0665616140784441	-3.8136995642734113	1.145172401820675	298.5524621826138	1.1341373180218957	299.9576976707269	0.098143255035751	-0.3577188487604488	0.4558621037961998	77.0512607863711
12	5.0	ltm	86	diff_vonmises	-0.0298542053977924	-1.7105199700101894	1.605253614595212	0.9961663417554288	5.544727797537058e-20	1.4262039665531565	0.2226339162960616	-0.2088506753780766	0.4314845916741382	107.28383244195638
13	5.0	perception	86	diff_vonmises	-0.0324582436650667	-1.859720372415564	1.611406686378318	3.439271660983985	0.4312688062345376	3.639058769448392	0.704544820140964	-0.3090145409235342	1.0135593610644982	92.94546307629776
14	5.0	wm	86	diff_vonmises	0.1100633401002028	6.306164866854616	0.9713949879364756	3.489104978123223	0.4276468148531373	3.872670334181296	0.2698634528395631	-0.2159828986430632	0.4858463514826264	108.57728503864148
15	6.0	ltm	86	diff_vonmises	-0.0937894273106587	-5.373738347849764	0.4585724386447479	136.83475646254772	0.4482074123664037	137.11802630381865	0.195827171793482	-0.1938911224510722	0.3897182942445543	129.73693670019622
16	6.0	perception	86	diff_vonmises	-0.0485065230190008	-2.7792190478429246	0.6941741479953573	263.59085134184863	0.682978577154262	263.81838195377776	0.4981621053307208	-0.294982561090471	0.7931446664211919	110.96432435559116
17	6.0	wm	86	diff_vonmises	0.0125655259019444	0.7199516015437326	0.6751065717211823	5.836927419106306	0.3508767965282419	6.062499083212387	0.3040598500794338	-0.2355854974400859	0.5396453475195198	125.32475750441732
18	7.0	ltm	86	diff_vonmises	0.0466643838684501	2.6736722492405574	0.9433372518228464	115.8941131624268	0.9194881710851248	117.0426513183865	0.1505813368925714	-0.3092529179474503	0.4598342548400218	87.47322629453544
19	7.0	perception	86	diff_vonmises	0.022113425262482	1.2670059381181948	2.214321965612169	1.867513244728992	0.0071450602752688	2.944967368759622	0.5521573094108561	-0.4531430277076222	1.0053003371184783	92.05273270590445
20	7.0	wm	86	diff_vonmises	0.0967395214551019	5.542766291492619	0.7548578322702764	6.5256613391799005	0.4766875975397008	7.614525659722783	0.0795302340961761	-0.287805103132903	0.3673353372290791	107.22732912607896
0	1.0	ltm	495	diff_vonmises	0.0273186027914905	1.5652406421467189	3.866117290277965	0.257641721941391	1.6192087603121057e-15	2.528801033227811	-0.208058494567791	-0.4023859227389473	0.1943274281711562	69.67360123436976
1	1.0	perception	495	diff_vonmises	0.0095119616802427	0.544995259168075	11.375626828210258	0.7391121894256326	0.0587157751348414	3.14110682475155	0.4530636670479406	-0.5111168061343758	0.9641804731823164	39.78158969767483
2	1.0	wm	495	diff_vonmises	0.0879370073481304	5.038419384058782	4.4779560747378095	0.3640546066893336	2.278269812185812e-17	2.711506881619645	-0.1339777095340906	-0.4315113447841269	0.2975336352500363	64.60807035560168
3	2.0	ltm	495	diff_vonmises	0.0319386239932895	1.82994835827076	3.7963346121691024	0.5296590625161904	0.1706553643892183	1.7722062050336824	0.0636156193268553	-0.2718427898580888	0.3354584091849442	64.76256154269726
4	2.0	perception	495	diff_vonmises	8.904687962878013e-05	0.0051020103815385	6.984840498022202	1.3359632142702955	0.3058688390157208	2.5334884994154976	0.8465699938431566	-0.4243652648838038	1.2709352587269604	49.28560499438487
5	2.0	wm	495	diff_vonmises	0.0885212787673649	5.071895670471037	4.437419457651245	0.5467386297025316	0.1545935859082466	1.898808279323379	0.0940781579231072	-0.2972322444617401	0.3913104023848473	60.78773193428242
6	3.0	ltm	495	diff_vonmises	0.0704615659943091	4.037150349356438	3.0061022031173064	0.599806007381088	0.3314424717870938	1.2880972502092307	0.115416926319681	-0.1802037384660179	0.295620664785699	69.680320943977
7	3.0	perception	495	diff_vonmises	0.0048511443290811	0.2779500958651726	4.780227390543433	1.644784211031923	0.204576314217473	2.316600246307336	0.9446397259043896	-0.3538079053009408	1.2984476312053306	60.19571337347944
8	3.0	wm	495	diff_vonmises	-0.016250259614396	-0.9310712918967844	3.495083840892224	0.5979205264872945	0.2295320798209655	1.4486764971104455	0.1405098594092724	-0.2147580030435772	0.3552678624528497	67.10427550711205
9	4.0	ltm	495	diff_vonmises	-0.0729117490777114	-4.177535499069738	1.1488916589584046	4.834931645009648	0.7240324414060844	6.434661790392702	-0.0732403281314182	-0.3354268302710655	0.2621865021396473	79.8969622645798
10	4.0	perception	495	diff_vonmises	-0.0724069380782639	-4.148611959349618	2.1464397165181865	2.9204178425746408	0.3221000969963922	4.487626819398322	0.6115313175589173	-0.5354359561496002	1.1469672737085177	82.3027187067992
11	4.0	wm	495	diff_vonmises	-0.0441033074729262	-2.526933380766456	0.9822939691700352	271.03493280819447	0.9712039824581936	272.8510815600507	-0.0410225923684777	-0.3985078561155006	0.3574852637470229	79.331585659518
12	5.0	ltm	495	diff_vonmises	-0.0072798002961736	-0.4171018326688377	1.922249356259992	0.8324895594596087	8.632873357934878e-10	1.8563620095310047	0.123811815464777	-0.2864772956686123	0.4102891111333893	98.85760621454128
13	5.0	perception	495	diff_vonmises	-0.0446926837637007	-2.560702154772913	2.0320749124315203	2.723503358432185	0.2576168334433524	3.611953740463614	0.6869136800634844	-0.4299519221775669	1.1168656022410517	87.20189184286758
14	5.0	wm	495	diff_vonmises	0.0999613240128388	5.7273619804753935	0.8906182842001616	4.046795888750001	0.381224764907399	5.129725071002974	0.145724787327844	-0.3196894603410584	0.4654142476689024	108.43705810589616
15	6.0	ltm	495	diff_vonmises	-0.0874004148919588	-5.007674901001592	0.5109998310903181	168.66279629158126	0.5003271430950287	169.6106817309639	0.1027980262695393	-0.2880149173434674	0.3908129436130068	119.43704142901456
16	6.0	perception	495	diff_vonmises	-0.0959223149474982	-5.4959438076163005	0.5468268788675678	226.36736955093448	0.5330394388099763	227.2978133567157	0.3513067218687666	-0.4207461286030671	0.7720528504718338	119.8579334051865
17	6.0	wm	495	diff_vonmises	-0.0302072539945966	-1.7307481645700833	0.5332110799665785	135.09774953613126	0.5167656627885241	136.07127304825536	0.1735190349933049	-0.3316342671130812	0.5051533021063861	118.95794826825984
18	7.0	ltm	495	diff_vonmises	0.0903990170839702	5.179482151042523	0.8109491157160313	163.07061282174692	0.7944189338400143	164.65532399404958	0.0352610774647388	-0.3648310195167248	0.4000920969814636	90.59752024000632
19	7.0	perception	495	diff_vonmises	-0.0151866514268785	-0.8701310316964678	1.7811830795523744	2.663206806834709	0.2178636679633994	4.09469450900036	0.4798244814129457	-0.4912188478403294	0.9710433292532752	91.97898592844771
20	7.0	wm	495	diff_vonmises	0.163101270127935	9.345014411553844	1.757542362390395	1.1336840556481274	0.2020935941355125	2.673890750964316	0.0251149818759711	-0.3423935516994048	0.367508533575376	88.567926329584
0	1.0	ltm	184	diff_vonmises	-0.0075690520109274	-0.4336747351411539	4.583771597344642	0.2357662002428781	7.065578269080951e-19	2.2474025234351376	-0.1625620489757762	-0.357664849856795	0.1951028008810187	63.84576597152517
1	1.0	perception	184	diff_vonmises	-0.0177550972765917	-1.0172921387929286	13.245320621263382	0.6450302679629234	0.0472494626063065	2.784115530951057	0.4630863932240406	-0.4522630781931881	0.9153494714172288	36.956316840816186
2	1.0	wm	184	diff_vonmises	0.0508940631574706	2.916015021195322	5.781487676242066	0.305563719448905	0.0044761173382916	2.459766580432579	-0.1070762344583082	-0.3908550530725481	0.2837788186142398	56.40516647659496
3	2.0	ltm	184	diff_vonmises	-0.0525827153891104	-3.012767667133632	4.129742452906176	0.4826033297095375	0.1024985970111153	1.7924519471211224	0.0623218192551753	-0.2785339886132425	0.3408558078684178	63.81807817444823
4	2.0	perception	184	diff_vonmises	-0.0171847232628824	-0.984612115063452	7.746285648850251	1.1428446575421034	0.2232379536795984	2.5627762396420755	0.7435085984908416	-0.428542801625539	1.1720514001163806	47.24189281845543
5	2.0	wm	184	diff_vonmises	0.068134289111689	3.903807206223942	4.647520892478198	0.4907228576311738	0.1441673211878678	1.9556052470631449	0.0515533763850242	-0.3087505774483302	0.3603039538333544	59.37415118559079
6	3.0	ltm	184	diff_vonmises	0.0343635462079657	1.968886166819224	1.3232353792515827	122.74008462659356	1.3030676094489453	123.54118695704588	0.1300746682603133	-0.2342287960764917	0.364303464336805	73.56966854365754
7	3.0	perception	184	diff_vonmises	-0.019217687149646	-1.1010923656775136	4.473909446170686	1.844778899001578	0.290497394739478	2.695130323893046	0.945522172856935	-0.4055572242143417	1.3510793970712769	61.135727343954414
8	3.0	wm	184	diff_vonmises	-0.0190712173256589	-1.092700262937028	2.2184107535020803	1.2692606135837363	0.5917146455616418	2.2913986440874603	0.0919932912633084	-0.2605046486873698	0.3524979399506782	72.0571964330502
9	4.0	ltm	184	diff_vonmises	-0.0760261477291866	-4.355977397520505	1.0833229123433066	187.4574597063847	1.0691846089326984	188.89597079751707	-0.0127604301102479	-0.3285385223746644	0.3157780922644164	76.21039305383061
10	4.0	perception	184	diff_vonmises	-0.1045735720126375	-5.991624324931516	2.083118772031299	3.1487135361463663	0.4214922101743956	4.612042841521613	0.594028092850434	-0.5091706079398087	1.1031987007902426	81.03505563123164
11	4.0	wm	184	diff_vonmises	-0.1334868568345148	-7.648233517084749	1.0640739706718765	264.9481150775909	1.0531420056049094	266.5829938625	-0.0302408273351915	-0.3674572356136494	0.3372164082784579	76.33771054626217
12	5.0	ltm	184	diff_vonmises	0.0583805444960072	3.344958805296923	1.7191898351593504	1.2843880725218968	0.2079732891294529	2.43889153374255	0.1316441233050926	-0.3004194220579542	0.4320635453630468	91.47782316921528
13	5.0	perception	184	diff_vonmises	-0.0593680409512889	-3.4015381844686923	2.496766294505978	2.121917369682474	0.1456397105245552	3.2350310301082925	0.6571043567222579	-0.4467072940444603	1.1038116507667182	82.05455116376453
14	5.0	wm	184	diff_vonmises	0.0219203012612801	1.2559407479266462	0.6643783344994248	151.5404252702732	0.6493550992142637	152.80326038361497	0.0857204809144462	-0.3236442648980269	0.4093647458124732	102.91562613371984
15	6.0	ltm	184	diff_vonmises	-0.1380993856653539	-7.912511951974244	0.511556994337922	137.8725311922933	0.4987683552101777	139.0307664763481	0.0442955349689384	-0.3032523224879355	0.347547857456874	116.8621803615038
16	6.0	perception	184	diff_vonmises	-0.1185954121102383	-6.795016583531348	1.067322268314413	2.3562111566609723	0.0800181974004731	3.570809274519433	0.220377612840303	-0.4249935203021058	0.6453711331424088	120.34637971618996
17	6.0	wm	184	diff_vonmises	-0.1623980515224965	-9.304722953387143	0.5837349278022499	151.52278610511271	0.5704049945399223	152.69433130510436	0.0768131343008917	-0.3105405735474722	0.387353707848364	110.13922502269952
18	7.0	ltm	184	diff_vonmises	0.0556170283191666	3.186620991747827	0.8631129506851017	178.7910121797374	0.8472255029527092	180.1775783009165	0.1084128182732726	-0.3475032978703041	0.4559161161435767	89.9145547987496
19	7.0	perception	184	diff_vonmises	-0.0922689958275398	-5.286624040828234	1.9767266250680495	2.1802701466249417	0.1474170302077682	3.441752013766897	0.4854658201734994	-0.4526786527048624	0.9381444728783618	90.69413803101828
20	7.0	wm	184	diff_vonmises	0.1750892449829238	10.031874775653655	2.5269321265372557	0.8694913614069989	0.1982089241280112	2.1708773877685585	0.0985382877042783	-0.3039980662819719	0.4025363539862502	77.24841429816684
0	1.0	ltm	63	diff_vonmises	-0.21442257946786	-12.28550883581688	2.072459285868073	0.5189327680172244	1.5195927746961406e-12	1.2125663564621054	0.0805285223797847	-0.1886519448559935	0.2691804672357782	95.32869619687727
1	1.0	perception	63	diff_vonmises	-0.0909501754002331	-5.211061196407922	17.04562565852429	0.6542161697747781	9.675232819289345e-19	1.617684803884776	0.8118460821935554	-0.2574625329029037	1.069308615096459	32.79877521800893
2	1.0	wm	63	diff_vonmises	7.68038303802942e-05	0.0044005353312295	3.5092622306099863	0.4563015871254894	1.0020843120996226e-26	1.245025595408214	0.1282782456973433	-0.1978597752855402	0.3261380209828836	73.2187792599396
3	2.0	ltm	63	diff_vonmises	-0.0464124562927346	-2.659237862409092	3.014298933898952	0.7833700155823974	0.518874551759032	1.175802738159804	0.2201720193977661	-0.1504406189018103	0.3706126382995764	68.81912658526093
4	2.0	perception	63	diff_vonmises	-0.0415576830089324	-2.381079842754362	6.911489015245009	1.1396324853685469	0.2580274800318443	1.532440606483585	0.8613071091069093	-0.24991342080268	1.1112205299095894	50.29947867546852
5	2.0	wm	63	diff_vonmises	-0.029607558684409	-1.6963881543025452	4.453698270269397	0.484845408191639	0.2836441313417359	0.8942182859849807	0.2098727725473942	-0.1365992682492764	0.3464720407966706	60.651742810597085
6	3.0	ltm	63	diff_vonmises	-0.0186990938004675	-1.071379155486032	1.4531959395815397	150.65832431231428	1.438273212037627	150.9449220505895	0.2766527031516474	-0.1594457168034111	0.4360984199550586	75.11712390962131
7	3.0	perception	63	diff_vonmises	-0.049836564962905	-2.855424837804009	4.063779136624089	2.1577484633229957	0.4088507518435177	2.480674896706692	1.1032047024815437	-0.3516037578739289	1.4548084603554727	63.42758408017863
8	3.0	wm	63	diff_vonmises	-0.1201523339377773	-6.88422163328113	1.5398389936222554	147.75673365936257	1.5226017956239928	148.13903410188098	0.2755241872994247	-0.1842854828264784	0.4598096701259031	72.12792494682787
9	4.0	ltm	63	diff_vonmises	-0.1933904719339309	-11.08045783985744	1.5692143951433772	112.71370003107926	1.544926406593513	113.2514712649364	0.2359968185050007	-0.2123237149237162	0.448320533428717	70.0688105169954
10	4.0	perception	63	diff_vonmises	-0.1199094480476243	-6.870305296872081	2.5201180319256142	2.4556585768968318	0.2094772014729443	3.141416696617195	0.8443136320744924	-0.4124091865308373	1.2567228186053296	80.91942650901223
11	4.0	wm	63	diff_vonmises	-0.1746931116149349	-10.009178005543593	1.3842612219102146	228.62997297874395	1.370753269401306	229.42841912067215	0.2260116218405699	-0.2661760889861213	0.4921877108266912	73.41264479927369
12	5.0	ltm	63	diff_vonmises	0.0299572674051065	1.7164249880574325	0.766092281321946	64.03869929474688	0.7389239054399029	64.13558795698124	0.3038481345593382	-0.1605516464436016	0.4643997810029399	106.72269096556732
13	5.0	perception	63	diff_vonmises	-0.0166460132678695	-0.9537463059676976	1.8881180247897495	2.2737891768531484	0.2518772902207817	2.346987324666744	0.6598138597768668	-0.2627960913344346	0.9226099511113016	91.99710521261235
14	5.0	wm	63	diff_vonmises	-0.0043946325820789	-0.2517938994638026	0.7753652167267352	102.1994751454618	0.7595329256478102	102.34212901434724	0.2667472375761477	-0.1509101505305041	0.4176573881066519	105.03774507188837
15	6.0	ltm	63	diff_vonmises	-0.2085915027086083	-11.951412747494938	0.3445230804485349	106.92401391518432	0.3334405407477588	107.09311479974308	0.1777252644590738	-0.1711755719468648	0.3489008364059387	141.51957818259388
16	6.0	perception	63	diff_vonmises	-0.0008180360608152	-0.0468700137742236	0.7186323585620586	221.7090927256742	0.7066629524417757	221.9854656574018	0.4270723983666542	-0.2638357695392912	0.6909081679059454	108.58584429920607
17	6.0	wm	63	diff_vonmises	-0.116322226793076	-6.66477265880684	0.4969896223805223	64.64921214849088	0.4732666849671146	64.8149604167548	0.2458868510658742	-0.1907719427777676	0.4366587938436419	127.7035403391791
18	7.0	ltm	63	diff_vonmises	0.0380082584089731	2.17771279347678	1.0827775032357334	128.22294229700677	1.062840877139572	128.70862045044382	0.3083900640019621	-0.2170401904920851	0.5254302544940472	86.50010190205322
19	7.0	perception	63	diff_vonmises	-0.0083779294352701	-0.4800199976993993	2.069554531486826	1.714477008938728	3.312770310452492e-16	2.2780002907403305	0.5402906255541253	-0.348164225733784	0.8884548512879094	95.45338482754757
20	7.0	wm	63	diff_vonmises	0.1209241914160486	6.928445809171687	1.687718257755264	1.0118902183723568	0.1758015027911724	1.4417525025195228	0.1994038379405969	-0.1753518289033051	0.3747556668439021	96.46917643912695
0	1.0	ltm	161	diff_vonmises	0.0214353975335063	1.2281578108550513	8.12218538451596	0.1664295573231324	0.006181357872385	3.510155672368377	-0.3759998347602924	-0.5590961460266712	0.1830963112663788	47.23384603908468
1	1.0	perception	161	diff_vonmises	0.0192973314850057	1.1056556499557535	13.576665113588028	0.7243180482133541	0.0941600807324806	4.091612889422933	0.3406365198713376	-0.682907797676402	1.0235443175477394	36.16055848264725
2	1.0	wm	161	diff_vonmises	0.0338467078993214	1.9392735130432248	4.354402572978409	0.2717616595980298	3.047487866753099e-19	3.907938483549888	-0.4031632046434216	-0.6219315965868184	0.2187683919433968	65.54144074856751
3	2.0	ltm	161	diff_vonmises	0.1078775062114877	6.18092581031457	3.814233772859888	0.3729227059093864	4.462516914985009e-20	1.9398936148603796	-0.0293947684241572	-0.308607775822426	0.2792130073982688	70.1520367765714
4	2.0	perception	161	diff_vonmises	-0.0090911192746649	-0.5208827654883366	7.710484067546687	1.360024284095482	0.3879795716979726	3.073231824431938	0.7855750855644462	-0.5408604532657941	1.3264355388302405	46.3127237378508
5	2.0	wm	161	diff_vonmises	0.0515661988891527	2.9545255618806467	3.630908882828172	0.7152876542065016	0.1703827128960369	2.775429273478227	0.0014686263932705	-0.4262334362720829	0.4277020626653534	65.30138675950036
6	3.0	ltm	161	diff_vonmises	0.072275039638106	4.141054735404207	3.612307912833151	0.5712107952414839	0.3479702469369223	1.5399056863300091	0.0784313768698645	-0.2319389712729807	0.3103703481428452	63.180446856868656
7	3.0	perception	161	diff_vonmises	0.0034280799707354	0.1964145141564737	4.7028469997078926	2.0041210706825923	0.3387930330851373	3.00408327323127	1.0297339043045977	-0.4583373900739184	1.4880712943785162	59.25041645914576
8	3.0	wm	161	diff_vonmises	-0.0159491922237465	-0.91382140106355	4.807413844260428	0.4774937468192275	0.0968604924036478	1.9441852761509544	0.0653562294942575	-0.3064261168550011	0.3717823463492587	59.4817622110244
9	4.0	ltm	161	diff_vonmises	0.0305004853970639	1.7475490863521643	0.7249304886987443	207.06284035509495	0.7126650153466918	209.21322625763543	-0.1326739955133007	-0.4285875099536085	0.2959135144403078	89.42400844097486
10	4.0	perception	161	diff_vonmises	-0.0275305978822723	-1.577387066126009	2.33486441987535	2.882034266894272	0.3236543437474139	4.740036914542072	0.6153486802202133	-0.5900050612621112	1.2053537414823243	79.08685714883035
11	4.0	wm	161	diff_vonmises	-0.0017289475087072	-0.0990613952485851	0.7534394931548799	188.3014182549372	0.7367849955381505	190.835475193974	-0.1402482267871008	-0.5115872319533707	0.3713390051662699	88.45238456306072
12	5.0	ltm	161	diff_vonmises	0.0168514406495928	0.965516427936862	1.4299127123852886	1.9747416766830752	0.3388911273128814	3.648655439802581	0.0389322316006984	-0.3807020477911025	0.419634279391801	90.09690359623636
13	5.0	perception	161	diff_vonmises	0.0012342314729478	0.070716254342127	1.952643149609528	2.8889705066698625	0.2251630464221336	4.599129463408922	0.563616003985187	-0.5674274804721443	1.1310434844573312	88.13627733934166
14	5.0	wm	161	diff_vonmises	0.0468636571608905	2.685089767867067	1.333504558977975	1.3466403921868084	1.0290399421199931e-15	3.437852909387669	-0.003742238854174	-0.5094047557866438	0.5056625169324698	115.89832693503884
15	6.0	ltm	161	diff_vonmises	-0.1536051915242757	-8.800929185639685	0.5030124681863023	244.6575992082416	0.4926624896444995	246.41794356700584	0.0411831148149417	-0.4473742558886613	0.488557370703603	116.94625511963348
16	6.0	perception	161	diff_vonmises	0.0011427351329058	0.0654739002168275	0.5872212353968636	35.37735884229637	0.4811438426650127	37.229030088583	0.254338297657382	-0.5826555036787417	0.8369938013361238	117.17890165532894
17	6.0	wm	161	diff_vonmises	-0.00395112128371	-0.2263825739008999	0.3864677486696995	286.9531262844046	0.3769870639367667	289.0404013978342	0.0295096097956673	-0.5585353676020901	0.5880449773977574	131.22978782349685
18	7.0	ltm	161	diff_vonmises	0.0430811601250761	2.468368651694159	0.8422770787429723	282.64171628688496	0.8319837278971995	284.7289867017828	-0.0912395860755594	-0.4337495561739146	0.3425099700983551	84.3223261147703
19	7.0	perception	161	diff_vonmises	0.0600071455885887	3.43815618285321	1.426022851265842	1.971098498039881	2.1005558159150408e-17	3.953101261029309	0.1988944052777194	-0.5813515141256684	0.7802459194033878	112.7966837392379
20	7.0	wm	161	diff_vonmises	0.1938392471393853	11.106170765080094	0.732662678757803	190.1450782399378	0.7189725342856728	192.46159310206409	-0.1709256952953097	-0.4525761509069568	0.281650455611647	87.4802498078399
0	1.0	ltm	40	diff_vonmises	-0.130945763655443	-7.502639602574454	3.0910773118112687	0.4157039486609086	9.03504438719781e-19	2.01625851829164	-0.0439914514817014	-0.3203252964035833	0.2763338449218818	78.13756883530417
1	1.0	perception	40	diff_vonmises	-0.0573621614478197	-3.2866097547081115	15.338136417112668	0.6968594248804774	5.383741475068147e-22	2.5098186299026466	0.6799805587823534	-0.399450041213083	1.0794305999954363	34.5891766800037
2	1.0	wm	40	diff_vonmises	0.0204746383933464	1.173110366995269	3.897422729304602	0.4448125264054814	1.2503259978594566e-19	2.1769602602300138	-0.0093066189132986	-0.3463351181909786	0.3370284992776799	69.38035726960575
3	2.0	ltm	40	diff_vonmises	-0.0511680852361343	-2.9317153297961545	3.4297760637594883	0.5868634961525544	0.1640788120436131	1.478194930927411	0.1391539757969992	-0.220467546659793	0.3596215224567923	68.97310027623004
4	2.0	perception	40	diff_vonmises	-0.0385006334687094	-2.205923806337173	7.228329152030041	1.177288916972778	0.2441793131827937	2.0271801310069884	0.8334659239151297	-0.3349589594546547	1.1684248833697846	49.01597518755728
5	2.0	wm	40	diff_vonmises	-0.007911438963693	-0.453292062494963	4.152570712670923	0.6001508731590359	0.2051664101295557	1.5467327472800496	0.1718003430549248	-0.2374801247458456	0.4092804678007705	62.57760547150557
6	3.0	ltm	40	diff_vonmises	-0.0330508651820819	-1.8936750841891763	1.892342259916574	1.6922892185256304	0.6785348468698246	2.2497743569703483	0.2132566835080426	-0.193859781781308	0.4071164652893506	78.43555088511368
7	3.0	perception	40	diff_vonmises	-0.033618055238343	-1.9261726805947263	3.904238764785024	2.116617876001944	0.3705166253707027	2.5819215509546725	1.0306497395581258	-0.3652556217152443	1.39590536127337	64.72123515976801
8	3.0	wm	40	diff_vonmises	-0.1124070230570221	-6.440448008797103	1.858777297959888	2.65969485159456	0.9060762839616324	3.300022341067457	0.2436747129407308	-0.2275067836709459	0.4711814966116768	74.89354521078204
9	4.0	ltm	40	diff_vonmises	-0.1620155275750447	-9.28280594563547	1.7687210058833631	2.405595598019026	0.7648358084615655	3.36798423258015	0.1517480983534376	-0.2690950954639648	0.4208431938174024	75.994213820769
10	4.0	perception	40	diff_vonmises	-0.1090624446799435	-6.248817783539784	2.300226793887528	2.9449167851314173	0.3340694229974552	3.8868352005264986	0.8118315293194244	-0.4613742057763302	1.2732057350957546	81.11442404183416
11	4.0	wm	40	diff_vonmises	-0.1536339900184767	-8.802579217813735	1.1677830363502126	289.04241142874463	1.156986206952205	290.2128533673006	0.1451517278165397	-0.3186143345705972	0.4637660623871369	77.67880010849859
12	5.0	ltm	40	diff_vonmises	0.0027970436076845	0.1602587938343675	0.6466070130850481	104.87511729168246	0.62730592366126	105.51407061217684	0.2113682349169394	-0.2506015439633007	0.4619697788802401	110.29504089373307
13	5.0	perception	40	diff_vonmises	-0.011418388477336	-0.6542254685921659	1.9441337949942257	2.5050073060184976	0.2335410707847668	3.05225632099791	0.6649952757946196	-0.3603932251609353	1.025388500955555	90.16116980931535
14	5.0	wm	40	diff_vonmises	-0.0158127781901639	-0.9060054526729102	0.6680167959799043	149.046207164832	0.6543052780553027	149.70871355067425	0.2059521524534986	-0.2485030360465021	0.4544551885000008	107.97210245733945
15	6.0	ltm	40	diff_vonmises	-0.1602301216019462	-9.180509718659485	0.3623638348151147	149.4924633050356	0.3526065035994183	150.11516563215446	0.128255342701216	-0.2525267137121965	0.3807820564134125	137.6319232029267
16	6.0	perception	40	diff_vonmises	-0.0147631758882763	-0.8458676706075359	0.5684873193332817	238.55416712725977	0.5558427449248793	239.22367918906085	0.3963805292216591	-0.3783903572787075	0.7747708865003666	119.02225516697575
17	6.0	wm	40	diff_vonmises	-0.1421886190930516	-8.146807768825132	0.483170983967453	123.598322311958	0.4671146122966322	124.22532717700084	0.2185545868838794	-0.287963961257466	0.5065185481413454	126.06123858759796
18	7.0	ltm	40	diff_vonmises	0.0988789140843029	5.665344459867231	0.8578572754218748	146.22357821722528	0.8411754730236568	147.08603606405256	0.1967833691869174	-0.2666619107020338	0.4634452798889512	93.78409253866089
19	7.0	perception	40	diff_vonmises	0.011213735644713	0.6424997250174727	2.1417625406876497	1.6950967884914891	0.0167354542494331	2.5117218923370648	0.504799985428037	-0.3805201090193026	0.8853200944473396	93.16100452036908
20	7.0	wm	40	diff_vonmises	0.1529819681563445	8.7652211169633	1.2962872868628283	2.179697255718527	0.4451716443221699	2.9933850217797926	0.1568282141401469	-0.2393950816042077	0.3962232957443546	93.8020635642932
0	1.0	ltm	449	diff_vonmises	0.0571187927934401	3.27266575794638	3.753535756279012	0.3103922242295596	2.0067548802323762e-22	3.347324678892684	-0.3022822274237466	-0.5326166918064572	0.2303344643827106	70.7341129198879
1	1.0	perception	449	diff_vonmises	0.0012909021833445	0.0739632468698668	12.893205196964244	0.6628293447409951	0.0267991572813883	3.732552247259169	0.3298568877905685	-0.6004894106111185	0.930346298401687	37.51999068108603
2	1.0	wm	449	diff_vonmises	0.0448817666212471	2.5715358044885925	4.186938016475175	0.3818335819279271	0.001636146409885	3.5653436223274784	-0.2674395205672799	-0.566549275833699	0.2991097552664191	66.64051246561567
3	2.0	ltm	449	diff_vonmises	0.0104454466023348	0.5984800054430548	3.6086634804666087	0.5638929870586612	0.0676028580162104	2.3829304784135945	0.0043459986452095	-0.3685656138340938	0.3729116124793034	68.67235168842464
4	2.0	perception	449	diff_vonmises	-0.0128838698077639	-0.7381913637808998	6.921780171248234	1.285997670375319	0.1948837886730668	3.175916708848045	0.7150073109742034	-0.5213307376264836	1.236338048600687	49.869345161798975
5	2.0	wm	449	diff_vonmises	0.0553427950349465	3.170908581960006	3.96941019553647	0.6781587796451476	0.119750713603934	2.7186722579485543	0.0332255087791389	-0.4218274404497257	0.4550529492288647	64.22965501016117
6	3.0	ltm	449	diff_vonmises	0.0255032312227579	1.4612275130102947	3.009879058758835	0.782423243473044	0.1579069060400168	2.1785614027552067	0.1098471683901552	-0.3204712524480593	0.4303184208382146	72.66056066730852
7	3.0	perception	449	diff_vonmises	-0.0085769329284358	-0.4914220579661555	4.125443453207764	2.092138815783056	0.1697334762543662	3.4712255514517487	0.9856321670775526	-0.5223825606558428	1.5080147277333955	64.5545351601877
8	3.0	wm	449	diff_vonmises	-0.031368560442645	-1.797286122764586	3.333586772737569	0.7681390613061041	0.1025952891318579	2.413951419981222	0.1093921607799723	-0.3657796900522246	0.475171850832197	70.7828519591533
9	4.0	ltm	449	diff_vonmises	0.0095620193059413	0.5478633498530527	1.9407935050286484	0.8177998781724878	0.0990101910633167	3.301266002802852	-0.164412939979068	-0.4764598775909569	0.3120469376118888	87.16260426736415
10	4.0	perception	449	diff_vonmises	-0.0662647512190568	-3.7966905753363314	1.4913468317920395	5.927890303783896	0.495489028353775	8.199161332918651	0.5425467218377782	-0.6911027922581481	1.2336495140959265	88.35192998199648
11	4.0	wm	449	diff_vonmises	-0.0242034516298265	-1.3867556280380953	0.7133876155762839	208.36365122922683	0.6984075181225836	211.09313652456072	-0.1808083892317142	-0.5392205269501922	0.3584121377184779	89.73311751217807
12	5.0	ltm	449	diff_vonmises	-0.0218246262393003	-1.250458972962384	1.7538067384779223	1.1111646043659582	0.0415864859209524	2.603597953446158	0.0975053309424706	-0.3814623483120793	0.4789676792545499	99.83084538566608
13	5.0	perception	449	diff_vonmises	-0.0380146327427824	-2.1780780159012627	1.6461308593990276	3.8755464852765744	0.3358552760972959	5.329038928600735	0.6223308103130127	-0.5471465513581593	1.169477361671172	91.4951664870458
14	5.0	wm	449	diff_vonmises	0.0107616050808418	0.6165945519187784	0.5776564049891034	118.81960313542908	0.5548725178980329	120.50958219455042	0.0761430917548722	-0.431900085375112	0.5080431771299843	110.31719702833652
15	6.0	ltm	449	diff_vonmises	-0.1056024925016587	-6.050577126406971	0.4314699227687502	147.22883816309397	0.4184203327498254	148.71006973914822	0.0112710938182587	-0.3794911108286687	0.3907622046469274	125.23569540922703
16	6.0	perception	449	diff_vonmises	-0.0729555369166183	-4.180044357433101	0.4679341346427831	204.18848346907552	0.4525448840681838	205.6472814436088	0.236355294152851	-0.5071202716613108	0.7434755658141619	125.66078668430872
17	6.0	wm	449	diff_vonmises	-0.0059571033767081	-0.3413168816085079	0.4843997372614547	274.42598322440665	0.4757869354791186	276.0260189173729	0.0527720766152128	-0.4208653947848866	0.4736374714000995	119.63706879251669
18	7.0	ltm	449	diff_vonmises	-0.0276177828538884	-1.5823823970365791	0.7864229284365558	193.25986756705527	0.7701439340874993	195.47553972289452	-0.0593712969981155	-0.4702981413190734	0.4109268443209579	88.99425574139141
19	7.0	perception	449	diff_vonmises	0.0563717779555866	3.229864960503729	0.7021232756119107	287.00702815597884	0.6853241817656114	289.08699921204266	0.3326499124629691	-0.6144905603349606	0.9471404727979298	102.78687872678536
20	7.0	wm	449	diff_vonmises	0.0432987710193551	2.4808368375124106	0.9417048047803204	7.888333022747794	0.6068594305717144	10.176456915607869	-0.1073317317053526	-0.4684683732009207	0.3611366414955681	88.02792864681405
0	1.0	ltm	138	diff_vonmises	-0.0129518722367876	-0.7420876159605951	5.536083881734755	0.2411255708793067	2.9832083624317346e-12	2.4350232728856835	-0.1668536408573442	-0.3875425607342508	0.2206889198769066	57.96328731186426
1	1.0	perception	138	diff_vonmises	-0.0232254840618615	-1.330722213893028	14.097502952281095	0.6570731233083734	0.0424774814858195	3.008179581864544	0.4756603837517761	-0.4881660326673614	0.9638264164191376	35.8496325398377
2	1.0	wm	138	diff_vonmises	0.0148983441876097	0.8536122436833017	5.061254943162518	0.3258619609215757	5.04903189740151e-21	2.7212439368283494	-0.1486981455306421	-0.4330880004966165	0.2843898549659743	60.68078872069748
3	2.0	ltm	138	diff_vonmises	0.0129299412445394	0.7408310626642414	3.864515740422383	0.5017269603261028	0.1153368039730952	1.7130599545977392	0.0735795884962469	-0.2637999056153441	0.337379494111591	65.63994742951877
4	2.0	perception	138	diff_vonmises	-0.0171016898204122	-0.9798546492514664	7.362297150219017	1.244024237403725	0.3276554970023852	2.51235123704327	0.7818599674803042	-0.4283158346314066	1.2101758021117108	47.86687230326186
5	2.0	wm	138	diff_vonmises	0.0383114656534175	2.195085288901236	4.063911339087884	0.6032831218028935	0.1860774102438512	2.0333826639150923	0.0813989397069105	-0.3151351896038901	0.3965341293108007	62.53600447449972
6	3.0	ltm	138	diff_vonmises	0.0482725548009856	2.765813656410458	2.2417880130188803	1.4320397945468395	0.7142000156544202	2.2778253436977853	0.1368598724125744	-0.2389955085157771	0.3758553809283516	70.90907750483365
7	3.0	perception	138	diff_vonmises	-0.0152231835339569	-0.8722241672487828	4.653452461451794	1.925958933634424	0.323182111805463	2.767484293033683	1.0141918534822307	-0.419724250263513	1.4339161037457435	59.79413640941766
8	3.0	wm	138	diff_vonmises	-0.0251196982621779	-1.4392526930649074	3.318587861242852	0.7458906142589377	0.3163471567443715	1.8813872209996665	0.1164012582835792	-0.2755155060066968	0.391916764290276	66.36649018099499
9	4.0	ltm	138	diff_vonmises	-0.10853663155059	-6.218690910415264	0.98198355776684	132.77842486137976	0.961482533475152	134.30215482291865	0.0065709360989174	-0.3461972275621825	0.3527681636611	81.0712796911551
10	4.0	perception	138	diff_vonmises	-0.0668120324671701	-3.828047481059878	2.4140246933153837	2.508928149852522	0.2462812552299489	4.016447141580588	0.6429885392362387	-0.522091830513173	1.1650803697494116	80.2598305170242
11	4.0	wm	138	diff_vonmises	-0.1072216777625894	-6.143349608108089	1.005745760891672	343.1042055933992	0.99615057388418	344.90043549310144	0.0102522721103497	-0.4109942511498374	0.4212465232601872	79.89458699346693
12	5.0	ltm	138	diff_vonmises	0.0221897536026869	1.2713792298691733	1.5882655333414537	1.5122948866421857	0.2378024492823413	2.472481126088059	0.1860125731927095	-0.283093046494438	0.4691056196871476	94.43032114622147
13	5.0	perception	138	diff_vonmises	-0.0303071037896693	-1.7364691364129987	2.052624642612679	2.504392159686194	0.2168737369109597	3.4134074671734043	0.6454049863034067	-0.4222439676899296	1.0676489539933365	87.82535988867289
14	5.0	wm	138	diff_vonmises	0.0306810048225846	1.757892087554627	1.3349274146380148	1.6703767943720274	0.1551514789097236	2.755397098017438	0.1654135307076867	-0.3265448337309252	0.4919583644386119	105.4925654242224
15	6.0	ltm	138	diff_vonmises	-0.138766348218704	-7.950726091374469	0.4789174763479661	148.9215635762718	0.4665071375479986	149.7610629737441	0.1419952609610035	-0.2928394117169777	0.4348346726779812	124.3522646071667
16	6.0	perception	138	diff_vonmises	-0.0326899621264649	-1.87299686228895	0.7638342969537247	8.804799272547324	0.4328069785141254	9.752609102526884	0.3281613105019652	-0.39425774131907	0.7224190518210352	114.5308617552401
17	6.0	wm	138	diff_vonmises	-0.0620962761205988	-3.557854545189309	0.4759107342424782	158.11105556746662	0.462570676966587	159.02336975734545	0.1734704697072615	-0.3310120816343751	0.5044825513416367	125.12455861247066
18	7.0	ltm	138	diff_vonmises	0.0210792887876196	1.2077542826680432	0.912107300093766	226.96319488461563	0.8993148614807546	228.3170746677688	0.1160659950483449	-0.3426002972113586	0.4586662922597035	87.48520217681613
19	7.0	perception	138	diff_vonmises	-0.0206596093098281	-1.183708419842337	1.7756557012812837	1.9336083702627311	0.0358704144471817	3.2225703668906904	0.3965764766579632	-0.4680347816816415	0.8646112583396047	100.56097505362206
20	7.0	wm	138	diff_vonmises	0.1583150427768121	9.070783784544425	0.9776364736907158	6.78023351182015	0.6523772561153356	8.134508972871599	0.0471702251615497	-0.3176778834765194	0.3648481086380691	90.8464824508865
0	1.0	ltm	17	diff_vonmises	0.0862411953973761	4.941256516432713	2.9978021290560126	0.3732831453623709	0.0292447042633314	3.284321883412004	-0.293731247099988	-0.5130792912677936	0.2193480441678056	75.0352939102248
1	1.0	perception	17	diff_vonmises	0.008181160845325	0.4687459879548086	12.296200419492834	0.6326733816229461	0.0370955149587196	3.5334874387269672	0.291931548050836	-0.5708368240444786	0.8627683720953145	38.348343279123526
2	1.0	wm	17	diff_vonmises	0.0881447372257413	5.050321429324657	3.9402511494911368	0.4305135575497706	0.0307727351197951	3.435764377744493	-0.2354820364437328	-0.5407056132555282	0.3052235768117954	66.30665542737833
3	2.0	ltm	17	diff_vonmises	-0.0270726444581774	-1.5511482677118025	3.693931443712723	0.5474629690892111	0.0683490964332943	2.391654353325673	-0.0042103020145048	-0.3706828449263395	0.3664725429118347	67.8288056354074
4	2.0	perception	17	diff_vonmises	-0.0091252689009562	-0.5228393949467738	7.0101697001017484	1.194876110508317	0.158667033123057	3.1268935082973672	0.6580395924429018	-0.5098420899377871	1.1678816823806888	49.80358857376783
5	2.0	wm	17	diff_vonmises	0.0856643591064923	4.908206231495091	4.299235501600384	0.6208653415833103	0.1245562443894667	2.62982800833457	0.0242075976949017	-0.4119589549240554	0.4361665526189571	61.72063192706048
6	3.0	ltm	17	diff_vonmises	0.0006746503433472	0.0386546173208505	2.2420788807071217	1.2677209750871428	0.3966570482085142	2.650407662611649	0.0972504894015414	-0.3313497391132113	0.4286002285147528	75.4995227192135
7	3.0	perception	17	diff_vonmises	-0.0123353886550521	-0.7067657085880422	3.927890360865804	2.030667181260747	0.1709333242532951	3.442016900251037	0.9005573941427065	-0.5142515920484814	1.414808986191188	65.96580769389362
8	3.0	wm	17	diff_vonmises	-0.0049682191150528	-0.2846579869887468	2.648758130807331	0.9550407738017184	0.2400577015982166	2.553444996783039	0.0729041901630431	-0.3597427807197021	0.4326469708827453	73.92979610813529
9	4.0	ltm	17	diff_vonmises	0.0233098845074126	1.3355580032121313	1.18327926082536	2.669194700485584	0.4276365865806606	4.976602378766764	-0.15729789350385	-0.4525859013119052	0.2952880078080551	86.1318949168514
10	4.0	perception	17	diff_vonmises	-0.1006482161384721	-5.766718000254952	1.1933963703278792	13.986231841840548	0.7576899815518116	16.064403588158893	0.5375331894837787	-0.6528816242623137	1.1904148137460924	88.04160606825991
11	4.0	wm	17	diff_vonmises	-0.0519487624898063	-2.9764448415934246	0.7812915834496115	182.06102055955543	0.76485116578531	184.5646594018339	-0.1718368436180242	-0.4962080680500591	0.3243712244320349	85.31111164924451
12	5.0	ltm	17	diff_vonmises	0.0048318105463434	0.2768423517122784	1.3767996644411895	1.6832295253663103	0.1849390762902013	3.4981464741582884	0.0281969587084653	-0.4183497160901013	0.4465466747985667	98.97094347814524
13	5.0	perception	17	diff_vonmises	-0.0562024618789237	-3.220163863907229	1.823608373956087	3.403034722006172	0.3010555826922125	5.1953156448803215	0.5675250018193456	-0.5880621228412594	1.155587124660605	88.14829236283705
14	5.0	wm	17	diff_vonmises	0.0106843381684815	0.6121674839445275	0.5794421353708683	228.4724018899907	0.5675122152571482	230.45396768762564	0.0003891176752262	-0.4573798153115902	0.4577689329868164	106.91941174992508
15	6.0	ltm	17	diff_vonmises	-0.1124659259008288	-6.443822893148544	0.4676602476832081	229.5173144151848	0.4583663266024291	231.5620569984393	-0.0924334046672754	-0.4437657015859564	0.3513322969186809	115.7379972450282
16	6.0	perception	17	diff_vonmises	-0.131431999137692	-7.530498843556831	0.4816713262889497	103.2382778042666	0.4497928480563244	105.18010398779067	0.150613972263887	-0.5698079256166011	0.7204218978804882	123.06411936482856
17	6.0	wm	17	diff_vonmises	-0.0791836483226029	-4.53688885533331	0.5475392871415191	244.8824308650515	0.5369800826214853	246.9623300306093	-0.041415184904828	-0.4641224099339958	0.4227072250291677	108.60652101059245
18	7.0	ltm	17	diff_vonmises	-0.0420607191606801	-2.409901691192007	0.7463003264455719	157.6239723613894	0.725642511113652	160.14001810177996	-0.1068790055375856	-0.5190660021971212	0.4121869966595355	90.30725702937698
19	7.0	perception	17	diff_vonmises	-0.0196080129884962	-1.1234563888785365	1.372897731144517	4.690122942385089	0.3572388370643553	7.041556419921952	0.3739145029817035	-0.6627840535329096	1.036698556514613	94.48020789216288
20	7.0	wm	17	diff_vonmises	0.1075864778742699	6.16425111487328	2.1897115811017924	1.2262303491420048	0.2628446407167912	3.705178165531562	-0.0858550164650908	-0.5050657604109781	0.4192107439458872	76.60724978994244
0	1.0	ltm	357	diff_vonmises	0.0273016343048147	1.5642684194754697	6.637400394425487	0.2542532305642792	0.0058352279620252	3.3672789062247084	-0.2830950608323982	-0.5356029793797991	0.2525079185474008	52.42326009793891
1	1.0	perception	357	diff_vonmises	-0.0007547390034791	-0.0432433595332672	13.279263878367304	0.6897184283988994	0.0521859182539103	3.8819101703375374	0.3424335011580642	-0.6328573360507168	0.9752908372087812	36.80795298719801
2	1.0	wm	357	diff_vonmises	-0.0096074369360689	-0.5504655883748502	4.303573390848032	0.3935265469875597	0.0299572585528613	3.783320289671096	-0.3055104134060004	-0.597742258852799	0.2922318454467985	63.32567960904606
3	2.0	ltm	357	diff_vonmises	0.0401568870208134	2.300820144676286	3.2290117830126213	0.6457197956921306	0.148395969053671	2.219323636349225	0.0334254889819461	-0.3338734632070099	0.367298952188956	69.84795842849948
4	2.0	perception	357	diff_vonmises	-0.0149907619443112	-0.8589073910943649	7.073913405353326	1.3336962730473665	0.3088717507037399	3.027651740815817	0.7473699065685417	-0.5128186975581261	1.260188604126668	48.65572794499212
5	2.0	wm	357	diff_vonmises	0.0282985505062028	1.6213875103432207	3.603046105676034	0.7727466564444397	0.1745253191475094	2.686680799148625	0.0556375359168701	-0.4099424460534186	0.4655799819702887	65.9176844605604
6	3.0	ltm	357	diff_vonmises	0.0589099964433841	3.375294167336604	3.384040316060908	0.7328851994682519	0.2298511640073937	1.988280685503667	0.1207350552042793	-0.2952990254127771	0.4160340806170564	67.42531525032658
7	3.0	perception	357	diff_vonmises	-0.0055467564108409	-0.3178057323283175	4.702455862970077	2.0129666439556155	0.248362742210491	3.252226546549402	1.0356579674614133	-0.4982027549721772	1.5338607224335905	59.93929388162522
8	3.0	wm	357	diff_vonmises	-0.0093574872177093	-0.5361445244223637	4.212419024782918	0.6229247245355627	0.0731886324069435	2.252452080523656	0.1073559914442844	-0.3507972305691198	0.4581532220134043	64.10793744199088
9	4.0	ltm	357	diff_vonmises	-0.0484302190605604	-2.774847153064148	1.5074397692843748	1.3836161595309135	0.1791497017907968	3.708971625880884	-0.09937567769484	-0.4727738978736749	0.3733982201788349	92.79096203691574
10	4.0	perception	357	diff_vonmises	-0.0265861764176745	-1.5232757021229906	2.1531453443929456	2.894694449411716	0.224338999534016	5.057509574430168	0.566272126921819	-0.6500539595384494	1.2163260864602683	84.078988592955
11	4.0	wm	357	diff_vonmises	-0.0420311362275308	-2.408206713976934	0.7461753427994575	248.0132873239357	0.7321804407948671	250.6550227410777	-0.1055163449290148	-0.547478826494256	0.4419624815652412	90.3319536086022
12	5.0	ltm	357	diff_vonmises	-0.022071487435185	-1.2646030776121289	1.9847263037804457	1.0938103449495034	0.0297185544479017	2.2653488077975727	0.1903244130924779	-0.3393004924997913	0.5296249055922693	95.4717349567211
13	5.0	perception	357	diff_vonmises	-0.0248969688878585	-1.4264912399428118	1.7048797185626292	3.467949074315955	0.3035294763977504	4.593393415374177	0.6557641207296293	-0.4894119939200239	1.145176114649653	91.93123449843478
14	5.0	wm	357	diff_vonmises	0.0177371191839494	1.016262069960829	1.6300015203484195	1.3624048286848989	2.5241623187208775e-20	2.7216669289776925	0.187519998961078	-0.409339644739975	0.596859643701053	106.56416046157292
15	6.0	ltm	357	diff_vonmises	-0.0970470774268606	-5.560387950638439	1.0545560038310682	1.5644290027049266	0.0118278257898095	2.4849736757222303	0.1504823819862681	-0.3240064744788117	0.4744888564650799	125.45177050733528
16	6.0	perception	357	diff_vonmises	-0.0122092475338521	-0.6995383547202348	1.2828290131139997	2.0960368621941297	1.7682764031637956e-19	3.094868771596264	0.3339714841260325	-0.4290268360402316	0.7629983201662642	117.68621797382622
17	6.0	wm	357	diff_vonmises	0.0040701898143563	0.2332046981797554	0.4503345928813277	236.56849522478143	0.4405170058474812	237.61566341190144	0.1832389689364646	-0.3767175830105884	0.5599565519470531	127.53460561728014
18	7.0	ltm	357	diff_vonmises	-0.0260921893601502	-1.4949723285927596	0.8410599749052826	251.29186089673283	0.8288506555856981	253.05127062361743	0.0416909175405777	-0.4058720860265516	0.4475630035671294	88.81006186708899
19	7.0	perception	357	diff_vonmises	0.0549338903187341	3.147480067498038	0.6255162020834275	199.5536784152738	0.6057316179347808	201.1897886707318	0.3120808394708589	-0.531055093903845	0.8431359333747039	110.07785696595084
20	7.0	wm	357	diff_vonmises	0.0749430400004619	4.293919895906579	0.738856329381695	160.65289173729272	0.7226541672969841	162.50414335523604	-0.0381210325388394	-0.3970326139607252	0.3589115814218857	92.48457257703951
0	1.0	ltm	403	diff_vonmises	-0.0152452618740345	-0.8734891629538857	7.862623642349635	0.2237066667754258	0.0158416741951562	3.707898181454488	-0.3535093803708208	-0.5919203663564485	0.2384109859856277	47.62039900938291
1	1.0	perception	403	diff_vonmises	0.0198871625421418	1.1394504801553875	12.232287747034324	0.8482521211764271	0.1050632062304817	4.329796794948628	0.4076029668426001	-0.723540488810014	1.131143455652614	38.018217405746384
2	1.0	wm	403	diff_vonmises	0.0348554104998151	1.9970679148353816	5.752673431115111	0.3009051993163359	0.0095047811912378	4.048123828721283	-0.3693574120045875	-0.6433875948924811	0.2740301828878935	56.00487980127855
3	2.0	ltm	403	diff_vonmises	-0.00350297686905	-0.2007057903285171	3.9815387169949408	0.4197631166661873	3.85901618341364e-15	2.078454875719303	-0.0088805319195965	-0.3306843094374532	0.3218037775178566	68.6241975843729
4	2.0	perception	403	diff_vonmises	-0.0240125943808194	-1.3758203131805091	7.941707038173348	1.3136833098404133	0.3028977837267769	3.0820547606767645	0.802846745005368	-0.531238886720659	1.334085631726027	46.14816706638382
5	2.0	wm	403	diff_vonmises	0.0265275717993886	1.5199179048352345	3.684922304607935	0.7336550029200362	0.150348630214468	2.7320586063210035	0.0366488700592628	-0.4194328508769782	0.456081720936241	65.69166852090459
6	3.0	ltm	403	diff_vonmises	0.0430299045979689	2.465431926314198	3.3719458716338564	0.5016040954315706	0.1937206072671271	1.2932678070385355	0.1034027187531277	-0.1918719619280175	0.2952746806811452	68.65896450049956
7	3.0	perception	403	diff_vonmises	-8.377580396885703e-07	-4.799999992730839e-05	4.365455939048323	1.9524668771326823	0.3368680515952893	2.743869966078685	0.9795231447989424	-0.4083057495912974	1.3878288943902397	61.46268265133901
8	3.0	wm	403	diff_vonmises	-0.0631815973872377	-3.620038873183512	3.7564958147725327	0.5985792346622635	0.1531149236227156	1.6777329747219982	0.1352269292961269	-0.2550811251422311	0.390308054438358	66.16072036532347
9	4.0	ltm	403	diff_vonmises	-0.04088203143461	-2.342367859124317	0.7603048072461194	77.50427502178782	0.7262856159584259	79.488913655582	-0.071449284993335	-0.4141786813126984	0.3427293963193634	90.41845263724858
10	4.0	perception	403	diff_vonmises	-0.0524479120688813	-3.0050440058201526	2.2072681163987564	3.215920546987836	0.3861773294551231	4.987283324166568	0.6348930776822146	-0.583566348869026	1.2184594265512407	79.66897551801455
11	4.0	wm	403	diff_vonmises	-0.0661973632286377	-3.79282952789545	0.7849454597055587	259.9847476450734	0.7735007953465665	262.1904094804587	-0.0903660589046637	-0.4573303026300053	0.3669642437253415	87.76910339859461
12	5.0	ltm	403	diff_vonmises	-0.0054746035721216	-0.3136716791898138	1.7517873227627478	1.1282591242691986	0.0853617313013077	2.623570729079678	0.0831155370268671	-0.3667245845464821	0.4498401215733493	96.42050121324078
13	5.0	perception	403	diff_vonmises	-0.0163928578759134	-0.9392415704476338	2.2922466196428	2.513998064947085	0.1410770299684549	3.9392441691336666	0.6891859013866806	-0.5372672203816636	1.226453121768344	85.26443361291882
14	5.0	wm	403	diff_vonmises	-0.0009663331244482	-0.0553668096345777	0.8584234997267799	4.071230355627324	0.2940681136943458	5.750657745328078	0.0795934544397871	-0.4373364499247987	0.5169299043645859	112.2630321000236
15	6.0	ltm	403	diff_vonmises	-0.0835563462585251	-4.78742599214722	0.4837069480478581	128.96063395761226	0.4676199885751335	130.30111936269165	0.063553316656467	-0.3656019543343234	0.4291552709907904	120.8161412645497
16	6.0	perception	403	diff_vonmises	-0.0372367155014543	-2.133506641162701	0.8109815574745917	3.253846082599375	1.0428355803517196e-13	4.595493132994065	0.2634383709055965	-0.5349043760189642	0.7983427469245608	136.85796205014216
17	6.0	wm	403	diff_vonmises	-0.0956759655453611	-5.481829026588271	0.4196737725301123	225.0428375441649	0.4089520214458996	226.5157157322033	0.1054382291915914	-0.4419560671010423	0.5473942962926337	129.02333693995757
18	7.0	ltm	403	diff_vonmises	0.1557838727083917	8.925758422394095	0.7326604013089422	192.1347849031266	0.7206761347569101	193.57119569439533	0.0249095714648035	-0.3298550748047617	0.3547646462695653	95.2212886143013
19	7.0	perception	403	diff_vonmises	0.0232092473994835	1.3297919216653862	0.7424241406712171	230.80914100971256	0.7266505262701437	232.04376542603308	0.3371492010418393	-0.4216403958095291	0.7587895968513685	101.81084994374103
20	7.0	wm	403	diff_vonmises	0.1349275184857687	7.730777349407944	0.7901156856757773	177.5774310717291	0.776342753761902	179.09535684070676	0.0130099220185826	-0.3418529104236683	0.3548628324422509	91.03706347978738
0	1.0	ltm	478	diff_vonmises	-0.0095631992792763	-0.5479309573450866	5.098798356728489	0.3746675275957164	1.0519014313097989e-17	2.5936837766845287	-0.0845580973722757	-0.4127853598700449	0.3282272624977692	60.45790610555068
1	1.0	perception	478	diff_vonmises	-0.0441743033418693	-2.5310011444197644	13.64257174613798	0.6559203231048495	8.722689437901284e-19	3.055758190242296	0.4705753452938033	-0.486339020869252	0.9569143661630554	36.6998202342339
2	1.0	wm	478	diff_vonmises	-0.0095016034631519	-0.5444017770454928	4.697529849915011	0.4705863263184698	0.0229874158153844	2.865482574714399	-0.0719829223378466	-0.4526981492398056	0.380715226901959	61.774263969507984
3	2.0	ltm	478	diff_vonmises	-0.0339217539271469	-1.9435733337068437	2.0217036450714136	2.054289578372442	0.6803310982557427	3.24094145484676	0.1566188556548923	-0.3206568884966445	0.4772757441515368	73.66532510787738
4	2.0	perception	478	diff_vonmises	-0.0299640866910868	-1.716815704363396	6.3207826916241485	1.2428755522532922	0.2290267733889554	2.434761250506552	0.7388227727179754	-0.3950630337795287	1.133885806497504	52.10990390522531
5	2.0	wm	478	diff_vonmises	0.0113622093474901	0.651006641555277	3.853523357792756	0.7463185166005609	0.217234786879638	2.0167369393033336	0.1679890883228123	-0.3066767182098027	0.4746658065326151	64.19385848725867
6	3.0	ltm	478	diff_vonmises	-0.0145493308075369	-0.8336152500115318	2.2420096666638267	1.3736248345645008	0.3606428114994406	2.4492913410251447	0.217626055532124	-0.2999588029438306	0.5175848584759546	78.45670645200829
7	3.0	perception	478	diff_vonmises	-0.0277259993367633	-1.588582744779061	4.38220183571927	1.9432663655869928	0.196236583105182	2.997730989771643	0.994809443882628	-0.4529752943203082	1.4477847382029363	62.59828997757606
8	3.0	wm	478	diff_vonmises	-0.0378659307616622	-2.169558019977842	2.4559212652112827	1.360223410235508	0.3879977119188379	2.5605194658542936	0.2146010148017945	-0.3248717515023229	0.5394727663041174	74.7259713103993
9	4.0	ltm	478	diff_vonmises	-0.1843021896299463	-10.55973762081569	2.540550120400105	0.9954212524131224	0.1360256717441843	2.607150855480065	0.118974154240668	-0.3747341867771152	0.4937083410177832	79.1540253911032
10	4.0	perception	478	diff_vonmises	-0.076968533009707	-4.409972096769572	2.075879729742968	2.842849094998769	0.1632981492909494	4.526197047436901	0.6573104114646343	-0.5947484220701801	1.2520588335348144	88.16010075879174
11	4.0	wm	478	diff_vonmises	-0.1316873742521594	-7.54513075980848	0.9836750722903652	371.6826149052969	0.9733950018361444	373.5172126007967	0.1064001477796807	-0.4485791951494775	0.5549793429291583	83.08030498843343
12	5.0	ltm	478	diff_vonmises	-0.0393702716898836	-2.25575040611372	1.5326745026070938	1.4640386181519534	1.0460458413644397e-21	2.0328402939854024	0.318945984642596	-0.2935718455857889	0.612517830228385	109.44883790930372
13	5.0	perception	478	diff_vonmises	-0.0440942082268213	-2.526412032367899	1.568353772951325	3.646910216678808	0.3850813186508586	4.0849448290036765	0.7018216994494705	-0.3659203959534852	1.0677420954029555	94.35281089339672
14	5.0	wm	478	diff_vonmises	-0.001845155208898	-0.1057196060164362	0.7571310277820211	146.02403314698898	0.7403153939744866	146.56377861246014	0.3110020104863409	-0.2573707208025411	0.568372731288882	103.49926169131754
15	6.0	ltm	478	diff_vonmises	-0.066576787357501	-3.814568929124744	0.8227415908396571	1.672557721411324	3.446654817355328e-20	1.9883826844194876	0.1986629677149693	-0.2170827212822985	0.4157456889972679	136.28836764247546
16	6.0	perception	478	diff_vonmises	-0.0284503748397902	-1.630086403885169	1.3054208346425715	1.9026654713097764	0.0262043364798815	2.254823956769013	0.3897654160372388	-0.2938224397421762	0.683587855779415	115.6466219845941
17	6.0	wm	478	diff_vonmises	-0.0517731203552847	-2.966381288580668	0.5258693425539083	142.90685428132525	0.5134404044008846	143.17004044158983	0.2673507166601467	-0.2203690394022004	0.4877197560623472	124.05011646122176
18	7.0	ltm	478	diff_vonmises	-0.0382603854494733	-2.192158608798569	0.8266265561523344	145.24792165096486	0.8057789695510162	146.3553751172251	0.2406854160338341	-0.3403948478243279	0.581080263858162	95.56488397439584
19	7.0	perception	478	diff_vonmises	0.0125463567761792	0.718853291540434	0.8168480588634122	222.78288467795008	0.7971712279859127	223.78010665497192	0.5348194254929268	-0.4426021414335856	0.9774215669265124	99.42806288402691
20	7.0	wm	478	diff_vonmises	0.0882786092456623	5.057991731061023	0.8021947221520714	60.26480619350011	0.7607147830855878	61.2919281532105	0.1731940556265563	-0.297820111049905	0.4710141666764613	96.79778596586216
0	1.0	ltm	167	diff_vonmises	-0.1610708754919107	-9.22868136816365	1.6850526889408746	0.4969765736333216	1.6526724098583723e-16	1.8521470276099468	-0.0637433637102278	-0.2868337691731396	0.2230904054629117	104.94723517232823
1	1.0	perception	167	diff_vonmises	-0.0708275278164046	-4.058118417225428	16.924868832919636	0.6116050841776264	7.693014459551354e-16	2.1924285712277563	0.6472292154680989	-0.3489358444867966	0.9961650599548956	32.91501191441941
2	1.0	wm	167	diff_vonmises	-0.0136851230140933	-0.7840997908249019	2.9460555267743853	0.4295180593160352	2.3763048267721786e-29	1.9213017971592012	-0.0273735408956495	-0.3050159134522186	0.2776423725565691	80.07247013731143
3	2.0	ltm	167	diff_vonmises	0.0203690739226527	1.167061968357985	4.705235806526421	0.4026234742624976	1.301737154235424e-13	1.3681745121623266	0.1202132304361869	-0.2177240689162164	0.3379372993524033	62.99025502724331
4	2.0	perception	167	diff_vonmises	-0.0286433295299891	-1.6411418932708162	7.162732951684136	1.1859088428080269	0.2266701640435793	2.159927757223224	0.8165750042147057	-0.3556017404849116	1.1721767446996174	49.26215964443543
5	2.0	wm	167	diff_vonmises	-0.0084594126458237	-0.4846886417652983	4.233078839323302	0.4825561279249469	0.1310315599896989	1.5639294025336847	0.1000281626242813	-0.2426655774568849	0.3426937400811662	62.79925680990488
6	3.0	ltm	167	diff_vonmises	0.0221579805199582	1.2695587663266985	1.3423749302773138	19.193584412593097	1.2046243436823636	19.97755536441239	0.1847681865468606	-0.244900102925567	0.4296682894724277	75.96295567259273
7	3.0	perception	167	diff_vonmises	-0.0378211324732714	-2.166991267123639	4.112230326490115	2.277254251411039	0.311678668875688	3.0661606524664564	1.1268903592417732	-0.4481070538879315	1.5749974131297046	63.5187029304528
8	3.0	wm	167	diff_vonmises	-0.1076139269311458	-6.165823829983887	2.1864079560789405	1.5462783127562203	0.6099303877587982	2.5433915307121406	0.1614463448842071	-0.2756068415334192	0.4370531864176264	73.39752678026332
9	4.0	ltm	167	diff_vonmises	-0.1424506177085351	-8.161819183730607	1.9500443735394664	1.8245783986605324	0.6784430263514332	3.064774298972905	0.0674511074707069	-0.3064865519699131	0.3739376594406201	72.85030425433806
10	4.0	perception	167	diff_vonmises	-0.0948505875730433	-5.434538352271395	2.18149008051594	2.9936370419213936	0.2862551778978319	4.327677083155802	0.7286123090246626	-0.5251460995084836	1.253758408533146	83.29463957397039
11	4.0	wm	167	diff_vonmises	-0.1409052893534651	-8.073278391023203	1.1357828060816455	278.6013095795219	1.1238196695298808	280.13620335564104	0.061480540903247	-0.3764180916768609	0.4378986325801079	76.40674315939847
12	5.0	ltm	167	diff_vonmises	0.0376690900412633	2.158279877462672	1.3330614941819905	1.8795290951469272	0.3500032807284079	2.5336685620758588	0.2032029697706945	-0.2275582132665188	0.4307611830372133	97.82560553095756
13	5.0	perception	167	diff_vonmises	-0.0137365936442628	-0.7870488407024908	1.763679894642918	2.7375918834320503	0.2776633787462891	3.337708844994355	0.6205889586710535	-0.3638547533338084	0.984443712004862	92.450762777952
14	5.0	wm	167	diff_vonmises	-0.0026793951527202	-0.1535180338986812	0.9614692601511876	2.6639864894388148	0.3176839906778048	3.475743633531859	0.1496415574823602	-0.2624305976094763	0.4120721550918365	110.11957502470968
15	6.0	ltm	167	diff_vonmises	-0.2425608042096147	-13.897710356510018	0.3725988155892401	129.83979192332137	0.3620254044817676	130.55712441147188	0.0912598434479292	-0.2497337378068724	0.3409935812548017	135.35674374609036
16	6.0	perception	167	diff_vonmises	-0.0058673079802212	-0.336171984370106	0.6522939590271273	267.2673740157792	0.6412493863075953	268.08619944503545	0.3370426625909175	-0.3527326766299552	0.6897753392208728	110.25110265626212
17	6.0	wm	167	diff_vonmises	-0.0378205448941268	-2.166957601318526	0.4229339187607018	116.49362202306654	0.4082885265156797	117.3248005368478	0.1230847853835044	-0.2910193488438732	0.4141041342273777	130.4921013340811
18	7.0	ltm	167	diff_vonmises	-0.0176706841241923	-1.0124556214250489	1.0859567907251009	160.5296520282752	1.0668736937087755	161.70732266057126	0.1578429085543788	-0.3204121805718003	0.4782550891261792	81.12908914836925
19	7.0	perception	167	diff_vonmises	0.0490612564121764	2.811002930026856	1.5583412448956464	2.0360889456144022	6.604015434491783e-19	3.311304352850658	0.375572791146318	-0.4870218166795946	0.8625946078259126	108.6627515952407
20	7.0	wm	167	diff_vonmises	0.0327833060959577	1.8783450777838853	0.7049591144597722	33.03112156658066	0.6504502926758258	34.26743147015186	0.0026361286284135	-0.2781073546863983	0.2807434833148119	97.9038837126268
0	1.0	ltm	288	diff_vonmises	-0.1405716859858398	-8.054164326026926	1.6516116707304795	0.4827658838626476	2.2673568237822343e-21	1.9870550721092373	-0.0945403338111944	-0.3080985994779435	0.2135582656667491	105.89738897025332
1	1.0	perception	288	diff_vonmises	-0.0274954971057428	-1.5753759397732363	12.214667104226288	0.7889178689644102	1.7875373037270928e-19	2.502028697011306	0.689699207928413	-0.3982102348603713	1.0879094427887843	38.80071962413837
2	1.0	wm	288	diff_vonmises	0.0312485463413825	1.7904098212801896	3.892281660761536	0.4079651397659606	6.260721297894881e-27	1.9778046959063489	-0.0057663709709657	-0.3146488048600804	0.3088824338891146	69.42747415777464
3	2.0	ltm	288	diff_vonmises	0.0317177602361073	1.817293797136816	3.3215095867262483	0.707809995882646	0.371088143830998	1.575184421193021	0.1398934424429414	-0.2269864218437299	0.3668798642866714	66.03839985978681
4	2.0	perception	288	diff_vonmises	-0.0111637429165832	-0.6396353526892897	6.741834118777831	1.4190489112483822	0.3150339562314904	2.1011189526626453	0.9932650558268	-0.346305358398168	1.339570414224968	50.45570281528802
5	2.0	wm	288	diff_vonmises	0.0375756691049813	2.1529272520955534	4.468525044371561	0.4809537957814135	0.0959503402423728	1.3783892338351944	0.1517563570647361	-0.2143749283769022	0.3661312854416383	62.270168176994304
6	3.0	ltm	288	diff_vonmises	0.0968900150849717	5.551388941327759	3.8073396469098286	0.41217587222424	1.1335557151205009e-13	0.8374138115311177	0.1751372464034271	-0.1331264140459312	0.3082636604493584	70.22366365607027
7	3.0	perception	288	diff_vonmises	0.0007741407517232	0.0443549978228291	4.741543722827425	1.7241505085891633	0.2130789573695868	2.00044256527228	1.0637092787976223	-0.3021973948846217	1.365906673682244	60.68472630070849
8	3.0	wm	288	diff_vonmises	-0.0804058331651496	-4.606914888596097	3.437976164385747	0.6639221856866038	0.2621150901060751	1.1277202163734377	0.2402123653481141	-0.1614487846805504	0.4016611500286646	68.54593057260001
9	4.0	ltm	288	diff_vonmises	-0.1707612462636381	-9.783898715300564	2.720466997331944	0.745312569141096	0.3801521454593574	1.945844829078848	0.0244621588254366	-0.2706639031505773	0.295126061976014	69.11574251614039
10	4.0	perception	288	diff_vonmises	-0.0703046992584053	-4.028162547443155	2.3839750355915665	2.505595376014853	0.1938656377934738	3.882873486462554	0.692709986265826	-0.5157863077307343	1.2084962939965602	82.2973524248064
11	4.0	wm	288	diff_vonmises	-0.0772484205213083	-4.426008469922747	1.1170735244661063	267.32385896514535	1.1059593171218818	268.7365079712988	0.0445665763904656	-0.3415542055786886	0.3861207819691543	76.74686597316125
12	5.0	ltm	288	diff_vonmises	-0.0363855192347724	-2.0847366875445394	1.5044484747670732	0.937985440694144	3.1249285857359744e-16	1.3142949870211242	0.1978435259537953	-0.1890916328602393	0.3869351588140347	110.31727126486908
13	5.0	perception	288	diff_vonmises	-0.0348943206437175	-1.9992973018612363	2.0856686134858773	2.38236716108092	0.1831813213502243	2.40375848144693	0.8048744188831712	-0.2981550967360971	1.1030295156192684	89.8922297230651
14	5.0	wm	288	diff_vonmises	0.0845947444809892	4.846921827748298	1.3784369278908433	1.318304957741571	0.1194491005997728	1.662367119280505	0.2455617991783966	-0.1994974850238435	0.4450592842022401	108.56078242468168
15	6.0	ltm	288	diff_vonmises	-0.0813405170593545	-4.660468330912892	0.4260130134325625	84.58574198768726	0.4143746071009779	84.80295830414262	0.1312253633508682	-0.1406770758236941	0.2719024391745623	132.8792457425251
16	6.0	perception	288	diff_vonmises	-0.0660513966906612	-3.7844662613192623	0.5210316431496186	133.7488529553108	0.5035411534412859	133.87637533827777	0.4064887206824821	-0.2725214042364889	0.6790101249189711	125.90862349514116
17	6.0	wm	288	diff_vonmises	0.001674673066393	0.0959516987685545	0.5067322366451624	20.574864107047546	0.4367213296231643	20.75811439160567	0.2248932332563669	-0.1844582315239298	0.4093514647802967	128.83127386088972
18	7.0	ltm	288	diff_vonmises	0.1304449482450035	7.473944993241156	1.3364246946204656	2.743888865281778	0.6290228971909549	3.533052173714282	0.1510227308640495	-0.2276938026581417	0.3787165335221912	87.23174782847809
19	7.0	perception	288	diff_vonmises	0.0403425808251544	2.311459615946753	0.8754827107039522	82.13517096385692	0.8301093553305112	82.78779118929424	0.5091079145704711	-0.3497896262285769	0.858897540799048	97.83683849575849
20	7.0	wm	288	diff_vonmises	0.0352618979629304	2.020357930896871	0.6133844776514228	72.39003681649099	0.592161531005266	73.16374922425771	0.086541896145853	-0.2209234290881134	0.3074653252339665	109.29150084990722
0	1.0	ltm	46	diff_vonmises	-0.0415486491637831	-2.3805622415545296	1.9811255863562136	0.4768489581486493	3.0283816989018543e-16	2.560398139712034	-0.1629177463005676	-0.4028475980553725	0.2399298517548048	97.4584910545134
1	1.0	perception	46	diff_vonmises	-0.0368421901897087	-2.1109020058885943	13.351577367866982	0.6564280118297964	1.0729683883063812e-20	2.8638223985142384	0.4917993389201456	-0.4557914908584321	0.9475908297785778	37.09192775309037
2	1.0	wm	46	diff_vonmises	0.0473565332923661	2.713329490023355	4.06366308136138	0.4045422741167477	4.052439462906825e-17	2.559954124498644	-0.0937199444651044	-0.4073366873434813	0.3136167428783769	67.91026100792828
3	2.0	ltm	46	diff_vonmises	-0.0684632781724417	-3.922656890911042	3.309072389662205	0.6701401394826763	0.1379703616359112	2.224953140345974	0.0593630130969832	-0.3356382328538372	0.3950012459508204	69.63355565594264
4	2.0	perception	46	diff_vonmises	-0.0278774293630705	-1.5972590461780198	6.733137881384201	1.2016851805940438	0.0906006836127051	2.782388249744662	0.7350183568070285	-0.4444425282049662	1.1794608850119948	51.49502359823831
5	2.0	wm	46	diff_vonmises	0.0419033108668148	2.400882860293168	4.539696430263561	0.5209407579997122	0.068688563830923	2.1259487859274278	0.0669262547074497	-0.3334070873173664	0.4003333420248162	61.79687592063681
6	3.0	ltm	46	diff_vonmises	-0.0136065081559983	-0.7795954912490394	1.877955611190088	1.548388399650062	0.3914566333664008	2.66866763129165	0.1640409296570113	-0.297395723852588	0.4614366535095994	82.5759410402438
7	3.0	perception	46	diff_vonmises	-0.0268917975518512	-1.5407865032413182	3.609488771246084	2.2520377125962314	0.1901091270114324	3.358135163355123	0.9956789110022448	-0.4890359615241549	1.4847148725264	68.63514054377711
8	3.0	wm	46	diff_vonmises	-0.0832458022521086	-4.769633131226468	2.2127015072542937	1.4058968468298745	0.3972074601041037	2.5971843680261517	0.1793425653489599	-0.3144646918068418	0.4938072571558017	77.33722281340513
9	4.0	ltm	46	diff_vonmises	-0.0842231844315729	-4.825633005081072	2.533344103701577	0.8153279846891683	0.2480829426238645	2.663343585675983	-0.0507039491501539	-0.3790693107342824	0.3283653615841285	72.98951830682955
10	4.0	perception	46	diff_vonmises	-0.1213384409647993	-6.952180559980297	1.3227756371185249	9.103850231164094	0.6621249930665236	10.958170042272693	0.6168738228197195	-0.6303671965580646	1.247241019377784	88.51423583298501
11	4.0	wm	46	diff_vonmises	-0.127625204102123	-7.312385554547371	0.9370994775963812	259.9985308460055	0.9253646090564004	262.0160610662621	-0.0807446242111211	-0.4285135374531279	0.3477689132420067	80.09218599298228
12	5.0	ltm	46	diff_vonmises	-0.0013363598709013	-0.0765677805132931	1.605029218401032	1.0639519628523937	0.012124127648364	2.1965260702048264	0.1263455764304734	-0.3259848792905317	0.4523304557210051	106.39732558577764
13	5.0	perception	46	diff_vonmises	-0.0516615695421232	-2.95998989778526	1.9587331888648416	2.782933529571397	0.2235708190427501	3.798936191568062	0.6709423386683284	-0.4604815707619376	1.131423909430266	89.32821992809534
14	5.0	wm	46	diff_vonmises	-0.0160235628746337	-0.9180825254790292	0.624616408082708	191.757815001018	0.6129545751444441	192.97173579289813	0.0986461750700584	-0.3244024073463194	0.4230485824163779	106.74642647785817
15	6.0	ltm	46	diff_vonmises	-0.1411993540733595	-8.090127058376849	0.3604724242646379	125.53418616225906	0.3499242059182453	126.69846100740168	-0.0146523876909512	-0.2949069210341868	0.2802545333432356	133.41492222708706
16	6.0	perception	46	diff_vonmises	-0.1109455397629975	-6.356711184220615	0.4352108336449399	117.71743034822208	0.4129439425119053	118.83351644521647	0.2259403423909844	-0.4279563304701224	0.6538966728611069	130.21112793880843
17	6.0	wm	46	diff_vonmises	-0.0843896911820091	-4.835173139141505	0.5224907500018602	171.5884160801658	0.5120052809233132	172.75142145187354	0.0475743561796093	-0.3038526350104202	0.3514269911900296	115.57781645224192
18	7.0	ltm	46	diff_vonmises	0.0345988423174257	1.982367640827128	1.1126685384106905	4.714544077590483	0.5727724830459531	6.326914209692083	0.0633439456042619	-0.3797171757474459	0.4430611213517079	90.04228273153174
19	7.0	perception	46	diff_vonmises	0.017020635577559	0.9752105832243506	0.8228679787367466	232.5003148255851	0.8019247283274619	233.99695803200663	0.4747988170464765	-0.5229641068895639	0.9977629239360404	97.22524380135133
20	7.0	wm	46	diff_vonmises	0.0404417349819908	2.317140730654654	2.080486053356493	1.008268136110518	0.2096861936278194	2.594631292162624	0.0289328252556021	-0.3480488979380252	0.3769817231936274	82.26332773981073
0	1.0	ltm	455	diff_vonmises	-0.0036940975889526	-0.2116562009564427	6.9045362883945804	0.3282964425631881	0.0254261172267463	3.995860267295271	-0.3148089830187738	-0.638061097480251	0.3232521144614771	50.55733605125624
1	1.0	perception	455	diff_vonmises	0.0011934420203646	0.0683791908604601	14.141887969145971	0.6936149907351716	0.0673960404979785	4.3200265705050285	0.2964247610533427	-0.711509038151163	1.0079337992045057	35.56247506694996
2	1.0	wm	455	diff_vonmises	0.0380429652497466	2.179701348973335	3.1207086129679142	0.5692147405300145	0.0580820431064844	4.514202855825135	-0.3795248902296035	-0.7014187397568244	0.3218938495272209	71.41631444090925
3	2.0	ltm	455	diff_vonmises	0.0070021509728126	0.4011936982555864	3.683155369021185	0.4777589062773171	0.0003374948949213	2.100489497381742	0.0166128998497105	-0.3339685137565525	0.3505814136062631	71.39977267327271
4	2.0	perception	455	diff_vonmises	-0.0272513750965717	-1.5613887789614749	7.335311772985948	1.2128964852914623	0.2823663021412398	2.874419765647311	0.6915078680128025	-0.486732204584275	1.1782400725970774	47.975351014627165
5	2.0	wm	455	diff_vonmises	0.0206782557930421	1.1847767846332595	3.540133398627332	0.9082830039872783	0.2220579367635313	2.8636422365065672	0.090793574239237	-0.4333858049148766	0.5241793791541136	65.60737763796615
6	3.0	ltm	455	diff_vonmises	-0.0281870434433519	-1.6149986262559644	3.194830642851336	0.7818963715831722	0.2157376570517607	2.019731185292796	0.1364281959881513	-0.29599874323275	0.4324269392209013	69.64102986844497
7	3.0	perception	455	diff_vonmises	-0.0177969318352409	-1.019689082441323	3.934081768933535	2.1663511521300167	0.3026474953035579	3.313862590243083	0.9528005779754752	-0.484102775573971	1.4369033535494464	64.45837319551734
8	3.0	wm	455	diff_vonmises	-0.054750023839184	-3.1369452942258893	3.2695702695249818	0.8710586996013833	0.1908463235800125	2.422880911436832	0.1364973189579117	-0.3593542215567207	0.4958515405146325	69.2513954568451
9	4.0	ltm	455	diff_vonmises	-0.0748480870747526	-4.288479494011012	1.3560390524385977	2.2345383621575774	0.3179774401550521	4.2727997390136165	-0.0006326697899445	-0.4475258261104509	0.4468931563205063	91.71184745317024
10	4.0	perception	455	diff_vonmises	-0.0657016075664745	-3.7644248207837863	1.9568408279016805	3.920135563354533	0.4144971526389485	5.550285412365054	0.7143739682181678	-0.5908244364823708	1.3051984047005387	83.41793981050043
11	4.0	wm	455	diff_vonmises	-0.0894646860471914	-5.125948925967016	0.7935647028527789	267.0699288217152	0.780129054710235	269.364577381356	-0.002792403336997	-0.5083826494592927	0.5055902461222956	90.23430628304672
12	5.0	ltm	455	diff_vonmises	-0.0250074057012143	-1.4328188032509757	0.6338368414418186	235.55938339664743	0.6212420979244816	237.36537542994597	0.0760335446837459	-0.445574134217793	0.5216076789015389	104.28650783673588
13	5.0	perception	455	diff_vonmises	0.0069220777385258	0.3966058398789939	1.4190238197034828	4.986671523177453	0.4188186917205434	6.739766909560259	0.5273038309704785	-0.5845000970580068	1.1118039280284853	93.05892865992206
14	5.0	wm	455	diff_vonmises	-0.0342802811075011	-1.964115427981865	0.5530754861436894	285.88006916729165	0.5423495326732661	287.8490592227062	0.0755208407255452	-0.5013507684263203	0.5768716091518655	111.9544829610191
15	6.0	ltm	455	diff_vonmises	-0.1200720071296864	-6.879619246195766	0.4227021602102584	218.39362952388112	0.4109584338156105	220.250058251515	0.044811507350829	-0.4981958213127377	0.5430073286635668	127.0565793896908
16	6.0	perception	455	diff_vonmises	0.0165140549705844	0.9461856524615282	0.5431375225819034	141.65667735185707	0.5141223523048505	143.5249715373629	0.3055136759785739	-0.6185770960015375	0.9240907719801116	118.28417637531878
17	6.0	wm	455	diff_vonmises	-0.1061777282707349	-6.0835357082	0.4230427522369156	266.95947954767485	0.4114691604674714	268.97681038804166	0.1042751955761644	-0.5777373730365412	0.6820125686127056	128.05448375971363
18	7.0	ltm	455	diff_vonmises	0.0100808303146833	0.5775890310188954	0.6683917677036472	248.8477576438942	0.6568136192907831	250.95987544286655	-0.0356075146082872	-0.458969290058814	0.4233617754505268	97.72218817400494
19	7.0	perception	455	diff_vonmises	0.0603562971095537	3.4581610914150804	1.687510744800367	2.197879903942038	0.0760605949122814	4.179993102901566	0.3058161336316036	-0.5806581235022034	0.886474257133807	99.91797610647674
20	7.0	wm	455	diff_vonmises	0.186645683708897	10.694009940853466	0.8015022470366865	210.5433190018604	0.7860016890536531	212.72590893180285	-0.0336643970570875	-0.4723844320854482	0.4387200350283606	88.89984337672891
0	1.0	ltm	386	diff_vonmises	-0.2384943834538028	-13.664721609477596	1.3020137307264328	0.4848386638183463	6.555329121171581e-10	1.1811321484450577	0.0048965876671173	-0.1737141057815956	0.1786106934487129	116.74333899867274
1	1.0	perception	386	diff_vonmises	-0.0516744237170774	-2.960726387759263	13.907207009768356	0.7335775014654612	3.1907845894379486e-26	1.6264722744204627	0.8223708195244861	-0.2588611022750343	1.0812319217995203	36.33467614608799
2	1.0	wm	386	diff_vonmises	0.0436236919318739	2.499453434475276	4.440699252609218	0.3281070136317029	4.8019404814621404e-32	1.0781068121961712	0.0953531905395576	-0.1715489246975726	0.2669021152371302	64.89131761711272
3	2.0	ltm	386	diff_vonmises	-0.0052565446492435	-0.3011778232237306	5.367414666866938	0.3358867039656527	0.1404551406176415	0.7846030742712824	0.1594259548767826	-0.1237527686374249	0.2831787235142076	56.8275727770133
4	2.0	perception	386	diff_vonmises	-0.0175738722129756	-1.0069087075057348	7.686701106278964	1.2524491533605198	0.3546345620596589	1.571537542630725	1.0156199059814135	-0.2658779769765653	1.2814978829579788	47.48508211221039
5	2.0	wm	386	diff_vonmises	0.0444750997497652	2.5482355090848925	5.693267655002329	0.2839634634773154	0.0801870178006342	0.7483673089971202	0.1348973250590433	-0.1183066989827455	0.2532040240417889	55.853605058241385
6	3.0	ltm	386	diff_vonmises	0.0965745245418601	5.533312664731177	1.6481703629679163	71.3855053266337	1.6293860720430384	71.51628296752573	0.1680268468507222	-0.0879013656765526	0.2559282125272748	70.91423370213022
7	3.0	perception	386	diff_vonmises	-0.0153370216544112	-0.8787466110985167	4.639063764066076	1.7586149562973392	0.4379716365679719	1.7252757631163196	1.0592408574205523	-0.2513312823347371	1.3105721397552894	60.02043682242737
8	3.0	wm	386	diff_vonmises	-0.099426487071405	-5.696718081003554	1.7045076937518582	32.392741918185244	1.652062537035071	32.57710014865917	0.2011169929852734	-0.1129611557754666	0.31407814876074	69.67448905389301
9	4.0	ltm	386	diff_vonmises	-0.1292687937214083	-7.40655630298393	1.7164694626043964	117.6519647770841	1.6976017482807095	118.2485425546258	0.0923860204771216	-0.1931619052114399	0.2855479256885616	63.83276558587704
10	4.0	perception	386	diff_vonmises	-0.1085451113621653	-6.219176767829594	2.711033192590135	2.232262003792076	0.3056719204320628	3.011820955627976	0.7435171935045615	-0.3874008786543627	1.130918072158924	76.23595607555089
11	4.0	wm	386	diff_vonmises	-0.130614785593856	-7.483675956534098	1.425761857732604	182.9779208345571	1.412798852108972	183.77965594527225	0.0867910290454432	-0.2280562615669126	0.3148472906123558	69.54795182584286
12	5.0	ltm	386	diff_vonmises	0.0818596641964142	4.690213270812712	2.2029101280250747	0.6027305950849148	1.0900195305672474e-15	0.8688435968258232	0.1912580301415261	-0.1342581140547292	0.3255161441962554	92.59827552236447
13	5.0	perception	386	diff_vonmises	-0.0364809523950853	-2.0902046048560634	2.678700589725408	1.727327062839452	0.0506837355576523	1.735490768133377	0.7695352223273427	-0.2573972260393643	1.026932448366707	82.7918178843355
14	5.0	wm	386	diff_vonmises	0.1096844801088832	6.284457788325637	1.1685221340355605	1.5056173615523536	0.3225880291322699	1.770414592403728	0.1829420516372165	-0.1445731361687471	0.3275151878059636	106.16663932657542
15	6.0	ltm	386	diff_vonmises	-0.198595984052304	-11.378711714444425	0.4659266968383271	66.7712758146902	0.4515557760575256	67.03873861349751	0.1145210057296797	-0.1379011845227049	0.2524221902523846	128.11351862104237
16	6.0	perception	386	diff_vonmises	-0.0830029509837141	-4.755718778498064	0.5600443687003307	152.5886087129456	0.5448920048797218	152.87300419229553	0.3627406285288188	-0.2732112853687791	0.635951913897598	121.4202129973802
17	6.0	wm	386	diff_vonmises	-0.1026140768055652	-5.879353519590162	1.0068723123910766	1.356039927073941	0.096282790953873	1.6189331660916872	0.1820877315132215	-0.1713783237846743	0.3534660552978957	123.07865780302268
18	7.0	ltm	386	diff_vonmises	0.1659603475981769	9.508827483899648	1.0774084076049828	95.39672759303902	1.0571070299077634	95.89545352390302	0.1881325514932541	-0.1771582292098372	0.3652907807030914	85.02803595623209
19	7.0	perception	386	diff_vonmises	-0.045234519126117	-2.591747034230306	2.343438978846647	1.4341038851728631	1.6315966028492716e-13	1.8496320786501983	0.5191143196527723	-0.2868805283715343	0.8059948480243067	89.83892514796244
20	7.0	wm	386	diff_vonmises	0.1447930617295504	8.296031339880441	2.123935550882313	0.5349697491005916	0.0031228347210303	0.9875948237371772	0.1284875174690083	-0.1525993642893651	0.2810868817583734	94.0679946807887
0	1.0	ltm	265	diff_vonmises	-0.0065195950985304	-0.373545283279974	5.594027063248329	0.1956876022896288	5.3745343156039e-19	2.184818139716099	-0.167642694340218	-0.3477221140318361	0.1800794196916181	57.65880907890272
1	1.0	perception	265	diff_vonmises	-0.0229981781005758	-1.317698541653194	14.227216101593749	0.6364683154402154	0.0497674617393056	2.801344817768054	0.4805279188734558	-0.4563629039005678	0.9368908227740236	35.65998096005953
2	1.0	wm	265	diff_vonmises	0.0079271931176775	0.4541947090280782	5.874839768630698	0.2680473066007322	4.1239058426525444e-17	2.4743157550660646	-0.1406896311838318	-0.3937975849447011	0.2531079537608692	56.238307129205424
3	2.0	ltm	265	diff_vonmises	0.0160315074828889	0.9185377180019364	4.476770797425633	0.4188883499834381	0.0729919691307283	1.6295034281376128	0.0637318727414391	-0.2551198318264126	0.3188517045678518	62.167891575492575
4	2.0	perception	265	diff_vonmises	-0.013640688754968	-0.7815538953112301	7.635847967359776	1.2470173796632649	0.3470302648571084	2.5775195118249936	0.7872889158932584	-0.4452000803061695	1.232488996199428	46.92630988790916
5	2.0	wm	265	diff_vonmises	0.0490632361339472	2.811116359728938	4.227740634395179	0.5163919198206565	0.1599653182776394	1.991357708287679	0.0396202729082675	-0.3113529741679243	0.3509732470761918	61.59115401944263
6	3.0	ltm	265	diff_vonmises	0.0851379061396049	4.8780426983803045	1.4460852457959266	61.378399169033145	1.404235125055796	62.18862978943384	0.1189696551683141	-0.239762627683401	0.3587322828517152	70.15643599946196
7	3.0	perception	265	diff_vonmises	-0.0135868560436772	-0.7784695081545244	4.918779250071726	1.9203203639673063	0.3570843368594537	2.775609727161559	1.0389575772774051	-0.4274368081367961	1.4663943854142014	58.01583982189644
8	3.0	wm	265	diff_vonmises	-0.0044817516469425	-0.2567854541956167	3.599106918448501	0.6322699435931484	0.322499345038532	1.7989118757597808	0.0735034381218393	-0.2718414989151796	0.3453449370370189	63.45280398428082
9	4.0	ltm	265	diff_vonmises	-0.0886538821090979	-5.079493282301667	1.030035599819252	181.4751406185377	1.0153954298802867	183.00445165522615	-0.0254634818242678	-0.3415600403621468	0.316096558537879	77.8147775970935
10	4.0	perception	265	diff_vonmises	-0.0603394293776536	-3.457194641567248	2.576092926489754	2.242997803593777	0.2254226323591437	3.8359974065465487	0.5900042661126786	-0.5162107093690632	1.106214975481742	78.2645686339537
11	4.0	wm	265	diff_vonmises	-0.1122081882377104	-6.429055612830297	1.0288529645185738	287.486403899233	1.0178973674251524	289.3136003433213	-0.036024085640264	-0.4065936390305609	0.3705695533902968	77.6147026427553
12	5.0	ltm	265	diff_vonmises	0.0480330928017106	2.7520934944982334	1.9107392300723456	1.2242678837342442	0.2415161396631977	2.142976990321781	0.1863761398330069	-0.2630544929962501	0.449430632829257	87.37825669094406
13	5.0	perception	265	diff_vonmises	-0.04139764746117	-2.3719104812955134	2.341103305078628	2.1580994011027275	0.1503334958441048	3.0485147773895664	0.6627461134608186	-0.4119534222620072	1.074699535722826	84.65989803993526
14	5.0	wm	265	diff_vonmises	0.0470863573467835	2.697849548615516	1.8220449653534885	0.9762448865120532	5.560028768853624e-16	2.077323898623673	0.1453281887669427	-0.3181720740714441	0.4635002628383868	101.34193881590484
15	6.0	ltm	265	diff_vonmises	-0.1557380354894245	-8.92313214320266	0.5140716669248366	115.68479457197908	0.4989387302585916	116.47833980592362	0.131887881871858	-0.2684423660877311	0.4003302479595891	120.63803391960674
16	6.0	perception	265	diff_vonmises	-0.0492763030105362	-2.8233241925115165	1.0437616406343793	2.991691323272325	0.2181688334602255	3.928220908482977	0.278559911113775	-0.3668997498194442	0.6454596609332192	113.822936653978
17	6.0	wm	265	diff_vonmises	-0.0516829548428646	-2.9612151852613637	0.4788484430742504	138.83115433041877	0.465396357802621	139.72112654062215	0.133615147053618	-0.3000783614435818	0.4336935084971998	124.1383529390415
18	7.0	ltm	265	diff_vonmises	0.0171213303460864	0.9809799684800172	0.9946050036917696	237.60926180171865	0.9822585428598886	238.88806989954736	0.1228218393267752	-0.3291551508349997	0.4519769901617749	83.85886619188787
19	7.0	perception	265	diff_vonmises	-0.0551359688284954	-3.159058313237653	1.5866365427497573	2.0927519845951217	0.0757601880949206	3.314518383620797	0.3696796068092461	-0.4490652883649169	0.818744895174163	103.5220426749605
20	7.0	wm	265	diff_vonmises	0.1519856114393867	8.708134082192101	1.3053317505328486	2.241810053172575	0.4847563074502008	3.535368263553811	0.0309528960806531	-0.2956912128721547	0.3266441089528078	87.638583329754
0	1.0	ltm	242	diff_vonmises	0.0218817056727634	1.253729383596815	5.6365609742648815	0.2188282060338183	0.0019288899837301	2.277926441817962	-0.1610456029775007	-0.3622005976655513	0.2011549946880505	57.25126276903316
1	1.0	perception	242	diff_vonmises	-0.001900062280364	-0.1088655494768656	11.951357141081967	0.6765076802019885	0.0634824661434344	2.8970195768094635	0.4320491119623738	-0.4731249005454998	0.9051740125078735	38.786840868802926
2	1.0	wm	242	diff_vonmises	0.0515573672573898	2.954019546654416	5.281170343459507	0.3334445040314898	0.0145394512064171	2.531031064058962	-0.111025880429026	-0.4013500936807181	0.2903242132516921	58.51836434310914
3	2.0	ltm	242	diff_vonmises	0.0158187342570139	0.9063467101659154	3.311568990453741	0.6688064173242818	0.3000227214572455	1.7986510670610902	0.0853339824880679	-0.2650910648827552	0.3504250473708231	66.36002678253783
4	2.0	perception	242	diff_vonmises	-0.0019761381600085	-0.1132243763032367	7.069064218277243	1.2798575355028878	0.3471055909594815	2.453435445952922	0.7954969632845942	-0.4163811281783686	1.2118780914629628	48.7379451289188
5	2.0	wm	242	diff_vonmises	0.0822715318550159	4.713811549368519	4.421145006077117	0.5419985046552762	0.1931938870945294	1.827528960105404	0.0903797865687629	-0.2867153179495553	0.3770951045183183	60.1943214924317
6	3.0	ltm	242	diff_vonmises	0.0769988610545395	4.411709765739358	1.978756454055808	1.8652289234031367	0.8979436021566112	2.5955132149367324	0.1194064280252082	-0.2121529470029475	0.3315593750281558	71.05493341565446
7	3.0	perception	242	diff_vonmises	-0.0035795403639537	-0.2050925554512716	5.128735146423587	1.6306415158498946	0.2653199566528005	2.3995517026753483	0.9439221323310012	-0.3722761388575086	1.3161982711885098	57.644208485083
8	3.0	wm	242	diff_vonmises	0.0231705821414386	1.3275765655656326	3.434643420781402	0.6302111776424058	0.3166872134558405	1.598931081131845	0.1047619727628142	-0.2362509784607078	0.341012951223522	65.45585634012144
9	4.0	ltm	242	diff_vonmises	-0.1083214916792451	-6.20636430378221	1.0100173958390315	145.92610974520585	0.9927353910892708	147.41142420297908	-0.0284921097372432	-0.3290894357312659	0.3005973259940226	78.52022684766234
10	4.0	perception	242	diff_vonmises	-0.0667212134316958	-3.8228439336277527	2.442563478732526	2.2714886942514108	0.2167049170157946	3.804679716913161	0.5772170919006212	-0.5059439827129313	1.0831610746135525	80.37694325727546
11	4.0	wm	242	diff_vonmises	-0.0847654871379148	-4.856704661372986	1.0443081826954717	291.6262369532973	1.0335290487968811	293.35313282945503	-0.0085298106353661	-0.3928320373979375	0.3843022267625713	77.82223002213442
12	5.0	ltm	242	diff_vonmises	0.0149164586709585	0.8546501271272486	2.01708431266572	0.9847561916234802	0.0751323155838326	1.8473055718153863	0.1941343051085556	-0.2633724159435592	0.4575067210521149	92.33604017966346
13	5.0	perception	242	diff_vonmises	-0.0576032955808944	-3.300425722829837	2.178634161993002	2.418239642001897	0.2268463844045731	3.1912486847707027	0.68430453919257	-0.3977742369325405	1.0820787761251105	85.5807949388186
14	5.0	wm	242	diff_vonmises	0.0836554155315846	4.7931022433729575	1.485428656117931	1.4880273611556625	0.1533430081256902	2.401598317936528	0.197776038608519	-0.293134976400092	0.490911015008611	101.58815525001224
15	6.0	ltm	242	diff_vonmises	-0.0959356949088378	-5.49671042293111	0.5443837917034776	142.18384435694395	0.5315583303082378	142.86738730448585	0.1699818557269807	-0.2584842194659842	0.428466075192965	118.72472486508433
16	6.0	perception	242	diff_vonmises	-0.0873232023420804	-5.003250947768114	0.9563889220891316	4.159533440324747	0.3124605573694524	4.926977256028419	0.3409001480247653	-0.3551551196300978	0.6960552676548631	113.29749061640256
17	6.0	wm	242	diff_vonmises	-0.0481689278403796	-2.759876268923965	0.5648514596559844	119.44869255657667	0.5477420657983364	120.13276106378596	0.2100464442305956	-0.2776451717541821	0.4876916159847777	117.61813484458432
18	7.0	ltm	242	diff_vonmises	0.0247227995940732	1.416512074488141	0.8944359722003086	225.0301288441296	0.8812985126693799	226.4198043958484	0.119812308951765	-0.3519820346342506	0.4717943435860157	88.42470289343007
19	7.0	perception	242	diff_vonmises	-0.0698322281030423	-4.001091944299186	1.945029444140851	2.1964152825521563	0.1264127193928378	3.4579872803321816	0.4921197196444276	-0.4618606750146516	0.9539803946590792	92.2275755967903
20	7.0	wm	242	diff_vonmises	0.189236023070584	10.84242545378474	2.247803474751076	0.8875939608494533	0.1422945703657401	2.190481530943208	0.0912728243604736	-0.3065665380225243	0.397839362382998	83.34511691926005
0	1.0	ltm	121	diff_vonmises	-0.017921625672459	-1.026833513045208	4.485541652698619	0.2772611327458414	6.873781437310053e-21	2.774041082005811	-0.214666978119007	-0.4414735355010093	0.2268065573820022	64.55199655751673
1	1.0	perception	121	diff_vonmises	-0.0114774762283879	-0.657610947348358	13.74692612652173	0.6829124696003561	0.04115518698116	3.3076623625656496	0.4520674533567739	-0.5362471295554618	0.9883145829122356	36.29420529867036
2	1.0	wm	121	diff_vonmises	0.0581752168588293	3.3331943982692365	3.392169096199268	0.419458025943503	1.1300506018561906e-13	3.071902805086356	-0.1944747748306601	-0.4885753684743717	0.2941005936437116	74.50575687855647
3	2.0	ltm	121	diff_vonmises	0.060608276455298	3.472598444450696	4.510680780630622	0.3921644417135693	0.0070607828621571	1.6418272078855334	0.0586058783670744	-0.2600117388503974	0.3186176172174718	63.99944560253064
4	2.0	perception	121	diff_vonmises	-0.0117218891877027	-0.6716147783753985	7.1041988491365	1.2990542364196158	0.340996918168156	2.499986968779948	0.8114211831426866	-0.4240922718233214	1.235513454966008	48.66184722084628
5	2.0	wm	121	diff_vonmises	0.0476279390013978	2.728879891686623	3.972287801780272	0.6643632082694101	0.1952267765775059	2.109002355651693	0.1046816021386231	-0.3249845106368249	0.429666112775448	63.17740769897509
6	3.0	ltm	121	diff_vonmises	0.0302701401141828	1.734351273812328	3.3236892456024933	0.6360944030205643	0.2853414835668905	1.484779076949059	0.1334009168707714	-0.2161788834881416	0.349579800358913	67.48350810034202
7	3.0	perception	121	diff_vonmises	-0.0077245241606858	-0.4425826331541328	4.391641029704061	1.925325758419346	0.2807414261364338	2.6979013348501337	0.999583189051278	-0.403214145670607	1.402797334721885	61.86856634986822
8	3.0	wm	121	diff_vonmises	-0.0462212656970058	-2.648283448191242	3.606701931153408	0.686627204201453	0.2141540139341756	1.7766184065178587	0.152387205695644	-0.2663519096854816	0.4187391153811257	66.26204043006032
9	4.0	ltm	121	diff_vonmises	-0.0929237149340191	-5.324136682396073	1.5758206412153075	1.7802824573040892	0.4586506393629992	3.383245064774687	-0.0141722896949748	-0.3479308340729968	0.333758544378022	81.40008724976843
10	4.0	perception	121	diff_vonmises	-0.0654251306411166	-3.748583859828025	2.1984811200194216	3.0499738623906354	0.3226772695345737	4.470887155022039	0.7081108395859708	-0.5339060136359184	1.2420168532218891	81.96744764015531
11	4.0	wm	121	diff_vonmises	-0.0647204158521135	-3.7082066766576953	0.9523833676209384	292.45340853640823	0.9409422094021768	294.3297033592891	0.0154174381717098	-0.4269082591790152	0.442325697350725	82.38815078302349
12	5.0	ltm	121	diff_vonmises	-0.006050331906623	-0.3466584829028394	0.6896980224165895	65.32876409122944	0.6543270422158087	66.53424788918214	0.1072335384757998	-0.3191219528869888	0.4263554913627887	102.4761127287208
13	5.0	perception	121	diff_vonmises	-0.0035328583074385	-0.202417870633963	1.5943399973889951	3.74214548084911	0.3767404458147093	4.875621645880758	0.5901310288978048	-0.466866907214976	1.0569979361127808	91.85942144258254
14	5.0	wm	121	diff_vonmises	0.0539431283980674	3.0907135909415637	0.5593141780726256	94.52906636277632	0.533770194757342	95.87307868535883	0.1141565558556436	-0.3782062060201143	0.492362761875758	114.15854574382185
15	6.0	ltm	121	diff_vonmises	-0.1445289588300993	-8.280899358384724	0.4557298079049148	210.6925453124974	0.4458055299528333	211.9280448968423	0.0951550467209756	-0.365868155908867	0.4610232026298426	124.77696892335624
16	6.0	perception	121	diff_vonmises	-0.0147936819013498	-0.8476155364064176	0.6081253481886195	287.2678158863521	0.5949022992934304	288.5336976042008	0.3841156793880316	-0.4924571611475805	0.8765728405356121	113.22704772607852
17	6.0	wm	121	diff_vonmises	-0.0360997115455872	-2.0683611132018416	0.4416632733100405	193.1429254110158	0.4282411782309192	194.5066676093917	0.1607275335408147	-0.4441982685230812	0.6049258020638959	127.71751030067216
18	7.0	ltm	121	diff_vonmises	0.0463050498700206	2.6530839276949822	0.8231373275071591	206.824184038036	0.8093760781132244	208.57933449278843	0.007353505552146	-0.3924426959070501	0.3997962014591962	88.82840402406737
19	7.0	perception	121	diff_vonmises	0.0462772832221137	2.651493015958692	1.943209139235895	1.824556857114548	8.36242852451255e-18	3.531849227549208	0.362851215490994	-0.5431308643193018	0.9059820798102958	98.34874582653916
20	7.0	wm	121	diff_vonmises	0.1919942436042494	11.00045984933009	0.745119693551505	96.937968293423	0.7189538757095798	98.74868007985138	-0.0377910739870834	-0.3881204986990774	0.3503294247119939	92.37732593059285
0	1.0	ltm	340	diff_vonmises	-0.0239966644041201	-1.374907592747899	6.844161399017587	0.4576638073451013	0.0536861466077077	4.138152765373974	-0.2262399874842959	-0.6651430974245531	0.4389031099402572	50.22408160632142
1	1.0	perception	340	diff_vonmises	-0.0099517956917743	-0.5701958917151441	12.690928529286696	0.8103607138700046	0.0743111764220673	4.446280452916668	0.3783257411842936	-0.7324083330128079	1.1107340741971017	37.50934975810279
2	1.0	wm	340	diff_vonmises	-0.0005294043703637	-0.0303326360776225	4.070827638328466	0.6659405942398746	0.1056029456796404	4.633385942116467	-0.3003438876140373	-0.7311637248580709	0.4308198372440336	61.943411159339774
3	2.0	ltm	340	diff_vonmises	-0.1149798284635638	-6.587858900100382	2.6042799119172395	1.020726495765383	0.2378201575711666	2.6925567627175533	0.0801269169102767	-0.3775828390969847	0.4577097560072615	74.578533136587
4	2.0	perception	340	diff_vonmises	-0.0536946696482026	-3.0764779531912105	7.368480931917179	1.146399447239477	0.1886137962575758	2.858562376997279	0.6743740848253855	-0.4717980334134438	1.1461721182388294	48.46485587267401
5	2.0	wm	340	diff_vonmises	-0.0110287556468474	-0.6319011518454317	3.540272807551012	0.9564660982994238	0.2201059039723034	2.7831264039525667	0.1421634516594797	-0.4189620518729476	0.5611255035324274	66.07695850822321
6	3.0	ltm	340	diff_vonmises	-0.0847458661394472	-4.85558046097096	2.135607280797544	1.2859510354911512	0.2840793486037216	2.378760500757694	0.1971711128458496	-0.297851137612653	0.4950222504585026	81.83124298612753
7	3.0	perception	340	diff_vonmises	-0.0302353388333782	-1.7323573073005734	3.648528168592588	2.1567055757977944	0.3194503345227185	3.1389792004578965	0.9060549216378851	-0.4460762618102575	1.3521311834481429	66.59326472326853
8	3.0	wm	340	diff_vonmises	-0.0781233011428549	-4.476135437115147	2.3371314677572363	1.476954547275186	0.4171073476412781	2.656358648727537	0.2218888214077142	-0.3247194642061984	0.5466082856139127	75.71873057267618
9	4.0	ltm	340	diff_vonmises	-0.1430745038342293	-8.197565225629658	1.7259084835052765	1.731390181846597	0.2188315341923004	3.520532062219004	0.1276212789581625	-0.4349614589157043	0.5625827378738669	90.00157892231917
10	4.0	perception	340	diff_vonmises	-0.0967764829354065	-5.54488402831863	1.9486385992474569	3.913008000687152	0.4146797046810911	5.451316360961006	0.7282729285204139	-0.5764311419483997	1.3047040704688135	83.74073238632548
11	4.0	wm	340	diff_vonmises	-0.1638582052773717	-9.38838360098167	0.8582629460332548	327.0079675947659	0.8476793725361532	328.8810755636258	0.0745119906895013	-0.4430322939687343	0.5175442846582357	88.55600878325204
12	5.0	ltm	340	diff_vonmises	-0.0500246214492785	-2.86619968078327	0.5564358999470529	176.5910113647843	0.539643051341144	177.96666969232558	0.2083679441119414	-0.439236732012171	0.6476046761241125	115.96447197467016
13	5.0	perception	340	diff_vonmises	-0.026104384514453	-1.4956710594648217	1.998393739808012	2.887515978361405	0.2010099641730308	4.134274002926987	0.6923808307999796	-0.5166070596414386	1.2089878904414182	88.97450428836501
14	5.0	wm	340	diff_vonmises	-0.0802510550495977	-4.598046755813985	0.6936654408299974	305.1229334513926	0.6834737032984698	306.40814313848307	0.2307123399247217	-0.3924794229090942	0.6231917628338159	103.6261816272942
15	6.0	ltm	340	diff_vonmises	-0.0329323993318854	-1.886887490956486	0.9031737676863292	1.8523867802410017	9.529375013240648e-17	2.9090339895234614	0.1359389230252101	-0.3646114078475552	0.5005503308727653	132.71991101175485
16	6.0	perception	340	diff_vonmises	-0.0316007653507239	-1.810590483979733	0.7815405437090456	3.3756329474355966	1.6816635905636734e-19	4.4065861353223	0.3117581271845485	-0.4890967133406492	0.8008548405251977	138.2242935690816
17	6.0	wm	340	diff_vonmises	-0.2018887724929482	-11.5673745949228	0.5152643440636733	197.08227385099383	0.5024112818013182	198.06440746706076	0.2312925536786068	-0.3723592737039389	0.6036518273825457	121.43949920329024
18	7.0	ltm	340	diff_vonmises	0.0844834557988672	4.840545455955136	0.5657185989587833	169.18212771566408	0.551036576121809	170.35864414634872	0.1664501482165405	-0.366032721232024	0.5324828694485646	114.6301065755045
19	7.0	perception	340	diff_vonmises	0.0049181092654605	0.2817869040950744	0.8960105160933165	294.2958414594589	0.8819646919907475	295.21131679120424	0.4953609086930015	-0.3942090141226408	0.8895699228156424	94.69547204108537
20	7.0	wm	340	diff_vonmises	0.1416753942266023	8.117402150036426	0.9004688533620696	132.32974378308074	0.8784970835751947	133.40584751151962	0.2111495720893756	-0.316846414751085	0.5279959868404607	91.0160637544638
0	1.0	ltm	98	diff_vonmises	-0.116667736303423	-6.6845688955313545	3.1594995182085235	0.37201739832522	5.557346401596012e-20	1.9538066479659144	-0.0600439550587174	-0.3105058592033504	0.250461904144633	77.26386058944016
1	1.0	perception	98	diff_vonmises	-0.0379462775556363	-2.174161552169964	13.358873973205345	0.7622981297368033	0.0091755624640626	2.5385546651228923	0.692947540108876	-0.4051476123550391	1.098095152463915	37.02828938516319
2	1.0	wm	98	diff_vonmises	0.0328651842633299	1.883036351208573	4.755778533655914	0.3995421922982223	2.3371369254387582e-18	2.078078559935967	0.0065709438121425	-0.3307115164889938	0.3372824603011363	62.64571525514393
3	2.0	ltm	98	diff_vonmises	-0.0531861946359204	-3.047344480999582	3.3337776704211484	0.6506138380427262	0.2708953287316949	1.5197356138754856	0.1409103217340468	-0.22168571698591	0.3625960387199568	67.70658143973677
4	2.0	perception	98	diff_vonmises	-0.0297579832633456	-1.7050068478106486	7.249121675582879	1.2393239025273368	0.2576664098664791	2.02782215479773	0.8957041237688201	-0.3356751115139423	1.2313792352827624	48.93986279294956
5	2.0	wm	98	diff_vonmises	0.0176263158276901	1.0099135052912906	4.436098013832026	0.5312160483109511	0.1624967634431105	1.430178614822174	0.1659913762416187	-0.2218646298579262	0.3878560060995449	61.38106796269997
6	3.0	ltm	98	diff_vonmises	0.0017126933604968	0.0981301011565451	2.202571274625541	0.9460081707613855	0.4924645891981069	1.3566467613610882	0.1843638299843474	-0.1478559478519271	0.3322197778362745	78.02957194852473
7	3.0	perception	98	diff_vonmises	-0.017952933607138	-1.028627325567588	4.200719355380431	1.838400633447792	0.3351691577586558	2.1311484662026503	0.9904451000563894	-0.3085903012758267	1.2990354013322165	63.12681490881516
8	3.0	wm	98	diff_vonmises	-0.0962462712433622	-5.5145051361159965	2.2932241737031283	1.344652197256204	0.7280094967834119	1.797702916232076	0.2318398917611184	-0.1757759801310391	0.4076158718921576	73.10496013229235
9	4.0	ltm	98	diff_vonmises	-0.1560124629556447	-8.938855678799545	1.6483931403748155	2.893699516545289	0.8695818175879209	3.835317650179345	0.1118391944312888	-0.2548725444022421	0.366711738833531	75.02818853727146
10	4.0	perception	98	diff_vonmises	-0.1057708661036239	-6.060224223180989	2.381346631697268	2.716168061466993	0.3187654941172137	3.713584940387172	0.7628889394096229	-0.4533631446458684	1.2162520840554911	80.06062383244546
11	4.0	wm	98	diff_vonmises	-0.1389529511819618	-7.961417653613778	1.1840704050395443	249.397804305549	1.1727089509615125	250.5130710014961	0.1078579785350797	-0.2951817382536603	0.40303971678874	76.45519432815698
12	5.0	ltm	98	diff_vonmises	-0.0068815773084054	-0.3942853361646309	1.2885999786170084	1.373139573855838	0.1054672199984667	1.915616793839836	0.2050597369587105	-0.2323455749622305	0.4374053119209411	111.5385496861078
13	5.0	perception	98	diff_vonmises	-0.0308198100497867	-1.7658450412476605	2.2671522503124724	2.1753644390838023	0.1458577712519299	2.512470616551963	0.749759711877207	-0.3336436785657659	1.083403390442973	86.88447565273046
14	5.0	wm	98	diff_vonmises	0.026676262601724	1.5284372602614658	0.6966993939796076	118.50178486325647	0.6805492191640152	119.0093641161911	0.2220073226155321	-0.2181741744788503	0.4401814970943825	107.01467617073914
15	6.0	ltm	98	diff_vonmises	-0.1038182375515873	-5.948346848192551	0.4149008601563375	102.22039366908048	0.4022885450800714	102.65595076538663	0.1373749560859636	-0.2015756741667385	0.3389506302527021	132.8882532034222
16	6.0	perception	98	diff_vonmises	-0.0595425539197028	-3.411537041029108	0.4978160338132865	116.29386477007743	0.4752636365981628	116.71740605290104	0.386567993977831	-0.3389165160217011	0.7254845099995322	126.98909760194564
17	6.0	wm	98	diff_vonmises	-0.1301217239831522	-7.455425607200846	0.5311634241474555	87.17676973529366	0.5110238033506936	87.56672683849268	0.2321394621001857	-0.2292708117437589	0.4614102738439447	122.83584090798698
18	7.0	ltm	98	diff_vonmises	0.1549627232131601	8.878710021968029	0.8411823645885577	91.58944202074596	0.8178288111793584	92.30537575855504	0.1885028325997524	-0.2327386016574575	0.4212414342572099	95.4888190773518
19	7.0	perception	98	diff_vonmises	-0.0122148258998431	-0.6998579715481018	1.556927624793473	3.2197577588623645	0.4348811733183467	3.790680788048784	0.5370731369122967	-0.3255747397993395	0.8626478767116363	92.33901368589363
20	7.0	wm	98	diff_vonmises	0.1486731599674657	8.518344593009132	1.6416990694474516	1.1412473642227725	0.2330275126473971	1.7833960865134513	0.1686674623578701	-0.205883155490125	0.3745506178479952	94.06381460714138
0	1.0	ltm	196	diff_vonmises	0.0355168649660417	2.034966464090248	5.850252934856807	0.2262884448070827	1.0837639350759501e-15	3.69939627668598	-0.375531332316823	-0.5887754361582451	0.2132441038414221	56.34986279260821
1	1.0	perception	196	diff_vonmises	0.0402829113165607	2.3080408049387136	10.80964386094732	0.8584012662266025	0.0940304979884238	4.322264854099926	0.358070525349036	-0.7145809330208999	1.0726514583699358	40.43781120743358
2	1.0	wm	196	diff_vonmises	0.0885230642350405	5.071997970233305	4.787281419606141	0.3496374350510141	1.5232226016042952e-13	3.94779060219175	-0.3320873030269652	-0.6282898087723142	0.296202505745349	62.43328920275326
3	2.0	ltm	196	diff_vonmises	0.0353718674521072	2.026658718501912	4.016076695908699	0.4504623100322292	0.0366503246365947	2.124091854898426	-0.0034617116014573	-0.3326875994410576	0.3292258878396002	66.34294543198237
4	2.0	perception	196	diff_vonmises	-0.0072895759379976	-0.4176619356873829	7.249194071495095	1.3899931048301857	0.2825831053117524	3.0850678803612865	0.8266194757358641	-0.5201407301122869	1.3467602058481511	48.34529662702764
5	2.0	wm	196	diff_vonmises	0.0682799601874734	3.912153544063519	3.9494522508574126	0.6893924668711151	0.1351906879145387	2.584701051854146	0.0576007619401227	-0.4000413286292536	0.4576420905693763	64.16599480589787
6	3.0	ltm	196	diff_vonmises	0.0605088033634246	3.4668990561112305	3.949331661792632	0.3801923977321105	0.0268221716283811	1.1901300021399246	0.0957175973248707	-0.1862132402604811	0.2819308375853518	67.78396595542532
7	3.0	perception	196	diff_vonmises	0.0135001989363636	0.7735044216406399	4.472411865164444	1.7689063777299816	0.2078151938131541	2.5912966867727896	0.9426177908358022	-0.3916831921110029	1.334300982946805	61.98705289612551
8	3.0	wm	196	diff_vonmises	-0.0411802479929276	-2.359454409296833	3.871709779116893	0.5462289134801493	0.0746622067578632	1.574578402907049	0.1428653481990999	-0.2426599423174771	0.3855252905165771	67.1074101972954
9	4.0	ltm	196	diff_vonmises	0.0148229165833151	0.8492905602984366	1.3860725433068652	1.344655591401788	0.2372679722866328	3.5306941553589914	-0.1471503690596483	-0.4244803410889818	0.2773299720293335	90.2403503319726
10	4.0	perception	196	diff_vonmises	-0.0506030256267152	-2.899339799003133	1.8932791731511656	3.93635093866235	0.4236897373629681	5.884392862352274	0.5958321900658035	-0.6216260381902982	1.2174582282561015	83.35915911998748
11	4.0	wm	196	diff_vonmises	0.0173254263831005	0.9926738100162708	0.7441756971308009	233.31784566929423	0.731562154192942	235.7135167228574	-0.1344617393420577	-0.4827297773521408	0.3482680380100831	88.8204126270576
12	5.0	ltm	196	diff_vonmises	-0.0426759283107843	-2.445150579010808	1.7762129402485116	0.916826844215739	2.302030409845275e-18	2.395490678069083	0.0588363514931972	-0.3686420178414737	0.4274783693346709	102.5400031080826
13	5.0	perception	196	diff_vonmises	-0.0274332355836091	-1.571808617328913	1.9732828625448149	3.096624493289748	0.2426555961605802	4.482893156074863	0.6883062266240204	-0.5408545195288649	1.2291607461528853	87.9839617099554
14	5.0	wm	196	diff_vonmises	0.0608812476264611	3.4882385404870857	0.8411330826639628	4.201304552398877	0.2953964966603673	5.826401363654822	0.0894376247351704	-0.4319631713729684	0.5214007961081389	113.29327102598349
15	6.0	ltm	196	diff_vonmises	-0.0519588147718947	-2.977020794931565	0.4874979505594488	179.5850365897798	0.4759306608372227	180.9858528150356	0.0477721325253739	-0.369028797036762	0.416800929562136	119.48894188928853
16	6.0	perception	196	diff_vonmises	-0.0749501301474402	-4.294326131404561	0.4057730564067868	154.2683972705333	0.3845181316957795	155.59282730319467	0.3023998617485262	-0.5420702452571327	0.8444701070056588	133.7429698356137
17	6.0	wm	196	diff_vonmises	-0.0269891463267504	-1.5463641771838077	0.4683988358714623	228.8285052825832	0.4570839403160602	230.33863890783743	0.1203728345519294	-0.446059852278271	0.5664326868302005	123.52467996503154
18	7.0	ltm	196	diff_vonmises	0.1583072131394002	9.070335179365609	0.6734911454365986	172.41087358351504	0.6594681430020292	174.26061728879142	-0.052070741437987	-0.3928736656996854	0.3408029242616983	96.49506143532965
19	7.0	perception	196	diff_vonmises	0.0483200518081637	2.768535034461264	0.7979404858047642	264.9393341293986	0.7806450138832317	266.5676571435939	0.3866591242043284	-0.5184333980468985	0.9050925222512268	97.57709629338292
20	7.0	wm	196	diff_vonmises	0.1224108017271829	7.013622305780308	0.7288601095003698	136.84359863545566	0.7096120065671305	138.75758463924114	-0.0457292861116727	-0.4082093434261562	0.3624800573144835	93.00871144651283
0	1.0	ltm	75	diff_vonmises	-0.0455169006143794	-2.6079263017203647	5.94012876193044	0.3900913619274549	0.0054762699827514	2.811166274506984	-0.0793455287848092	-0.446640385203673	0.3672948564188638	55.62557650338326
1	1.0	perception	75	diff_vonmises	-0.044672999292315	-2.559574317640566	13.96142259815657	0.7684301984576628	0.021030884252385	3.339552499757483	0.5916435749258515	-0.5360410144241728	1.1276845893500242	36.14668695273312
2	1.0	wm	75	diff_vonmises	-0.0425920067227101	-2.440342226204121	6.663808086587184	0.4139480335914291	0.0112169004572478	3.067818192972432	-0.0761667955137521	-0.4877769885602753	0.4116101930465232	52.29304356907269
3	2.0	ltm	75	diff_vonmises	-0.102323064877461	-5.862679764321828	2.3600756840395545	1.382741855874972	0.4564641395519402	2.63973638446842	0.1577757428182649	-0.3247635276633737	0.4825392704816386	73.70976885783097
4	2.0	perception	75	diff_vonmises	-0.0562739080079779	-3.224257425564584	7.117766355820587	1.1875269488110305	0.1868554618950704	2.489864682292437	0.7664907421653477	-0.4073031463178154	1.1737938884831631	49.49226847224347
5	2.0	wm	75	diff_vonmises	-0.0374532806250271	-2.145914908733153	3.548387223769663	0.82483684930444	0.2125567050782068	2.17221115854681	0.17090503909047	-0.3251027414399529	0.496007780530423	66.66804638048723
6	3.0	ltm	75	diff_vonmises	-0.063050412770729	-3.612522548320524	1.832282351026037	1.673457170064038	0.4210440393938191	2.491720255519281	0.240349784534861	-0.2589156496875189	0.4992654342223799	84.38747473579542
7	3.0	perception	75	diff_vonmises	-0.0351426548386513	-2.0135258031397254	3.9692421349631695	2.114775139361074	0.3221006154715354	2.8565979966412827	1.0076657435779162	-0.4129658955190571	1.420631639096973	64.40594958476959
8	3.0	wm	75	diff_vonmises	-0.0937278654534235	-5.370211113251201	2.078555094792751	1.93623477350985	0.6100207482883366	2.82179789066685	0.2676319703176504	-0.2824694624279076	0.550101432745558	76.44449077204052
9	4.0	ltm	75	diff_vonmises	-0.1926128309806571	-11.035902295258325	2.225201431599389	1.30988728243045	0.2266187605871439	2.672376815232095	0.1937995740355002	-0.3523767529269361	0.5461763269624362	81.6787353955655
10	4.0	perception	75	diff_vonmises	-0.096004860186763	-5.500673301445069	2.2467727722288324	2.8739485526350785	0.2388999537340108	4.305797473143285	0.7319236854020129	-0.5456742082333182	1.2775978936353312	83.32464307010653
11	4.0	wm	75	diff_vonmises	-0.1827111196480972	-10.468576025945785	1.0109260341891928	310.1068444886511	0.9997849090774746	311.63088192645034	0.132517099396054	-0.3882080727735015	0.5207251721695556	82.85164746106142
12	5.0	ltm	75	diff_vonmises	-0.0390812453338784	-2.239190415746575	1.340966072337473	1.7187326945280967	0.033018710784504	2.280707597181305	0.3208120000795421	-0.3034798630601022	0.6242918631396444	113.92381384648442
13	5.0	perception	75	diff_vonmises	-0.0366593284332802	-2.100424799010894	2.144052217828163	2.379734874970504	0.1247492130007401	2.77755208803869	0.7813441561778827	-0.3718293203524818	1.1531734765303645	89.71204298756567
14	5.0	wm	75	diff_vonmises	-0.0538994098738439	-3.0882087040170165	0.7676463492406981	199.2121317356474	0.7556091593803466	199.73111079242187	0.3046722391069281	-0.248016592748165	0.5526888318550931	102.672263439324
15	6.0	ltm	75	diff_vonmises	-0.0578056205812686	-3.312018091441265	0.7528720145947989	1.599154060905086	1.0451652209673222e-14	1.8810656971997717	0.17179667736443	-0.1948468021621044	0.3666434795265344	139.5447369174883
16	6.0	perception	75	diff_vonmises	-0.0342771827485796	-1.96393790509225	0.8865911874306388	2.3289147224849724	1.2790639272258501e-21	2.636728672592483	0.3259958998652698	-0.2930440789066502	0.6190399787719201	133.44942954217942
17	6.0	wm	75	diff_vonmises	-0.1442121064076476	-8.262745051849747	0.5052757212006291	134.8496230322339	0.4936725047274686	135.0666660775275	0.2391208725245519	-0.19640537059629	0.435526243120842	125.96478150754628
18	7.0	ltm	75	diff_vonmises	0.0692507910883654	3.9677780573055146	0.7672309836606712	73.97744658995302	0.7368472126692263	74.58228859691495	0.2527376613867815	-0.2442542865306984	0.49699194791748	102.17259516428118
19	7.0	perception	75	diff_vonmises	0.002581926071545	0.1479334669143255	0.8919664095444669	224.8973074150321	0.8768611509722961	225.3212689699956	0.5125065019147996	-0.2980788491662096	0.8105853510810093	97.1527599807924
20	7.0	wm	75	diff_vonmises	0.1018619583301117	5.836260305252864	0.8737648720911053	82.87088777303589	0.8493434868373189	83.40531012201906	0.2187331670591135	-0.2037199253827681	0.4224530924418817	95.25856962868376
0	1.0	ltm	173	diff_vonmises	-0.0126006425852716	-0.7219636392888803	6.891966491109961	0.464139102848919	0.0745071722351283	3.742444870127748	-0.164238458116568	-0.6052402367042214	0.4410017785876534	49.72127087267987
1	1.0	perception	173	diff_vonmises	-0.0279343348208614	-1.6005194887406975	13.579777520853291	0.7477303994145087	0.0598180671572702	4.075947481095349	0.4003508016736358	-0.6674452713059396	1.0677960729795752	36.37808109180156
2	1.0	wm	173	diff_vonmises	-0.0425780420400326	-2.439542108824459	4.646254765500351	0.6429376077293626	0.1328806632363111	4.298884540236581	-0.2419959426963962	-0.6881464079222878	0.4461504652258915	57.87679863206833
3	2.0	ltm	173	diff_vonmises	-0.0908442776948765	-5.20499370483087	2.275271390929741	1.4733625000872077	0.4241881916294849	3.013110132320775	0.1202305836110552	-0.3742903021585889	0.4945208857696441	74.5884792705449
4	2.0	perception	173	diff_vonmises	-0.0552318277484982	-3.164550624782496	7.240666405914805	1.1482138503093156	0.2177550973031903	2.820988868312451	0.6581073424283351	-0.4684204839655724	1.1265278263939076	48.665304762450205
5	2.0	wm	173	diff_vonmises	-0.0282592378402532	-1.6191350605029056	3.338810969623498	0.9869835648287222	0.2473511370621981	2.73491608419818	0.1376782995212214	-0.4054375098873326	0.5431158094085541	67.23843071825183
6	3.0	ltm	173	diff_vonmises	-0.0560985452416662	-3.21420987917118	1.876774081035447	2.051766639405921	0.4889587661016384	3.277068767488996	0.216634100366493	-0.3393095443292491	0.5559436446957421	80.55053556604761
7	3.0	perception	173	diff_vonmises	-0.0354971511086627	-2.033836943264508	4.127917884175635	2.1308738091418893	0.3204286330708361	3.298054425821436	0.9617230777115054	-0.4877585880169135	1.449481665728419	62.86094354244042
8	3.0	wm	173	diff_vonmises	-0.0514836053373697	-2.949793299948483	2.255885415638156	1.6614340196999642	0.4431131439450412	3.072737292652871	0.1957463378470759	-0.3695072650100158	0.5652536028570918	75.5248999468289
9	4.0	ltm	173	diff_vonmises	-0.1655650728747404	-9.486179910498535	1.7901700998321857	1.7889429775962735	0.1949185695382929	3.6242299480135713	0.1684737329324842	-0.4595204990095268	0.6279942319420111	90.1024438587539
10	4.0	perception	173	diff_vonmises	-0.0746880921960082	-4.279312462715255	2.24078060948389	2.788916224053004	0.2070394101034399	4.564039989210351	0.6564592419664372	-0.594956781767888	1.2514160237343253	83.74988222624754
11	4.0	wm	173	diff_vonmises	-0.1760432784679642	-10.086536867860634	0.8819462928149736	256.12066343166475	0.8670429350325665	258.1149227900828	0.0967165391454898	-0.4780167466028793	0.5747332857483691	87.76340444871953
12	5.0	ltm	173	diff_vonmises	-0.0335016901986789	-1.919505454939101	1.465303805302333	1.9565956468090409	0.0708224267757709	2.838023433702897	0.3513579758059192	-0.3756845495969614	0.7270425254028807	107.68904745020062
13	5.0	perception	173	diff_vonmises	-0.0405305907832172	-2.322231793050181	2.046517012339495	2.6414117633243377	0.1684728793793991	3.436568899334316	0.7389321791282316	-0.4401731829468555	1.179105362075087	89.73088910664589
14	5.0	wm	173	diff_vonmises	-0.0680196681823296	-3.897239910727781	0.7663228286520033	239.69240504330585	0.7538779456120694	240.53135101793052	0.3221893011067749	-0.3245868383072903	0.6467761394140652	101.31350545509984
15	6.0	ltm	173	diff_vonmises	-0.0468409209683955	-2.6837870799949037	0.8912919567351628	1.7622170291889196	3.9753082602274294e-13	2.199409732628101	0.2157297603028927	-0.2548790312245771	0.4706087915274698	133.2337145925657
16	6.0	perception	173	diff_vonmises	-0.018138885431919	-1.0392815803202926	0.969522919898754	2.191035508817134	5.639030250757349e-15	2.704116279590897	0.3056778518354292	-0.3244989687724122	0.6301768206078414	129.86352833200735
17	6.0	wm	173	diff_vonmises	-0.1463834953354671	-8.387156473095237	0.5041681627393645	160.12166738583596	0.4923638610445314	160.49622091053925	0.2612798921017258	-0.2478157320577434	0.5090956241594693	125.31961111086902
18	7.0	ltm	173	diff_vonmises	-0.0029958491390098	-0.1716495117231632	0.7031413860080398	195.15214782530376	0.6895542328467353	196.02160723168865	0.2596271691003835	-0.3135950422198199	0.5732222113202035	104.98853944665731
19	7.0	perception	173	diff_vonmises	-0.020178980869924	-1.1561704387218736	0.8236617666560185	247.52767479362615	0.8092887319775236	248.1938405123996	0.4758555922682319	-0.345122266543985	0.820977858812217	99.73658185173932
20	7.0	wm	173	diff_vonmises	0.1129698762011905	6.472697118443618	0.915065269263342	106.84320657495984	0.8912135308747077	107.62882381064934	0.2330291839946312	-0.2611516131585638	0.4941807971531951	91.82180016697733
0	1.0	ltm	294	diff_vonmises	0.0456345715048344	2.6146683471149865	4.20602770847839	0.3702386048662534	5.447315646348073e-16	3.670663532645144	-0.2916834939862239	-0.5841392431490523	0.2924557491628284	66.72141196371601
1	1.0	perception	294	diff_vonmises	-0.0051317951510035	-0.2940302034782055	13.23713234969114	0.6454884403065294	0.0046509922522071	3.985319803172217	0.2903400142921725	-0.6351507110226536	0.925490725314826	37.20364781882293
2	1.0	wm	294	diff_vonmises	0.0245066180965477	1.4041257870711146	3.1195369682675453	0.5393835387422437	0.01876248351623	3.996566137287613	-0.2868869351584956	-0.6267519164962064	0.3398649813377108	75.27510237139344
3	2.0	ltm	294	diff_vonmises	0.0419834135783658	2.4054724075925944	2.9779706124980425	0.7954146544997334	0.1799766940886463	2.519520111968736	0.0425390438692729	-0.371475471814197	0.41401451568347	71.5359812706273
4	2.0	perception	294	diff_vonmises	-0.012014912089554	-0.6884037539521569	6.227989538713444	1.3701516075385682	0.2338483417155115	3.073434309890661	0.7245756097735255	-0.5007067811947404	1.225282390968266	52.19219824981033
5	2.0	wm	294	diff_vonmises	0.0360894158509034	2.0677712133493	3.657540843203313	0.8354879088296983	0.1647383090890579	2.76270687296242	0.096617437287614	-0.4214190405196993	0.5180364778073134	65.9904196821507
6	3.0	ltm	294	diff_vonmises	0.0184618230049242	1.0577845402996906	3.543437905055662	0.6983324309503621	8.450849035296096e-22	2.3005418064584258	0.1361282501549485	-0.3657226977670706	0.5018509479220192	72.85573011682942
7	3.0	perception	294	diff_vonmises	-0.0086375960694357	-0.4948977999174576	4.112495305292634	2.1199788853644512	0.1293749869335607	3.60995694112515	1.0033655850560468	-0.5468342364209904	1.5501998214770372	65.16311845378664
8	3.0	wm	294	diff_vonmises	-0.0322437032774507	-1.8474281136700692	3.697361102356671	0.7903462601397534	0.0094511118387685	2.610087205724027	0.1626360048217978	-0.4115759760277266	0.5742119808495245	70.74084910855206
9	4.0	ltm	294	diff_vonmises	-0.0126805711101313	-0.7265432064260483	1.69780384590619	0.9181558315340372	3.9825703244623714e-22	3.57142886215273	-0.1396160937852582	-0.5540367346688574	0.4144206408835991	104.65603038897036
10	4.0	perception	294	diff_vonmises	-0.0378026772571689	-2.165933861130965	1.3770688324873457	6.451011844806237	0.4385435364886173	8.802664394328628	0.5824339561374092	-0.7366413454734523	1.3190753016108614	92.81447733632848
11	4.0	wm	294	diff_vonmises	-0.0024041330909513	-0.1377466794992539	0.8149467181592392	11.69821757760452	0.5336844781041409	14.62915347500329	-0.1164200008111309	-0.6079953465385806	0.4915753457274496	95.35676742108576
12	5.0	ltm	294	diff_vonmises	-0.0642418187042263	-3.6807850799967583	1.533872356639784	1.3497898697116568	0.0195436534352835	2.6599611427439798	0.1609614329479272	-0.3875394648233153	0.5485008977712427	107.99308403939406
13	5.0	perception	294	diff_vonmises	-0.0182216593145613	-1.0440241744496113	0.8325671176794558	381.3989625534061	0.818940394433869	382.6252771032705	0.6154391472928751	-0.5214986792995759	1.136937826592451	98.05455267975024
14	5.0	wm	294	diff_vonmises	0.0179675669068133	1.0294657518793318	0.8976220029082898	4.439619256921554	0.3174718992215368	5.8835705489081365	0.1762787621611119	-0.4271992965671225	0.6034780587282345	111.4755383356018
15	6.0	ltm	294	diff_vonmises	-0.0789572705848056	-4.523918366381804	0.3874500978085493	91.99312947034376	0.3659183554529273	93.17595189883772	0.0988989447073471	-0.3737769667186192	0.4726759114259664	133.89978016624178
16	6.0	perception	294	diff_vonmises	-0.0185098676107491	-1.0605372934418271	0.5633504350934256	204.0571672573429	0.5458829975878988	205.22215374896533	0.3737948219460421	-0.482655714362636	0.8564505363086781	117.93023360730729
17	6.0	wm	294	diff_vonmises	0.0363627890384944	2.0834343432303037	0.47365168116058	303.57727447774846	0.4649009402787722	304.88979322300554	0.1787473750167549	-0.4320817232942993	0.6108290983110543	124.17852849760456
18	7.0	ltm	294	diff_vonmises	-0.0948025848023901	-5.431787996108032	0.7588898302380254	151.95926376847163	0.7370821454860598	154.33099441833917	-0.0591013355162601	-0.5046598163374263	0.4455584808211661	91.023792949723
19	7.0	perception	294	diff_vonmises	0.1423886324825286	8.158267691888273	0.6734783039422373	175.42877945693436	0.6450690508436632	177.7091406245005	0.3227521001778299	-0.6647084185342376	0.9874605187120676	105.09957640189458
20	7.0	wm	294	diff_vonmises	0.0143091088878321	0.8198515478659173	0.670762408832298	158.97159449341433	0.6524057960392273	161.45468365905415	-0.1290249428558496	-0.5034216208573952	0.3743966780015455	94.5530246320364
0	1.0	ltm	461	diff_vonmises	-0.0356100201152035	-2.0403038609771262	5.362464385683873	0.3415651236824846	5.341111884398589e-18	2.587916118960785	-0.1044713035327057	-0.4118728827531692	0.3074015792204634	58.91313363884706
1	1.0	perception	461	diff_vonmises	-0.0552300643250659	-3.164449588062333	16.540073954264273	0.6157726873517017	7.278504659102304e-21	3.0185238954055027	0.5108327593460225	-0.4804129987947848	0.9912457581408072	33.29843229283577
2	1.0	wm	461	diff_vonmises	-0.0268523972503703	-1.5385290322549188	5.002469942082535	0.403637034849992	0.0110725688048611	2.8950676403681843	-0.1158362989241243	-0.4588784242731936	0.3430421253490692	60.3328852208644
3	2.0	ltm	461	diff_vonmises	-0.0582787726107491	-3.3391277057985462	2.8135417868962445	0.858344394442022	0.2522912434712709	2.1313555099512627	0.1121591401891313	-0.3014863064991334	0.4136454466882647	72.44714855950843
4	2.0	perception	461	diff_vonmises	-0.0430993762123295	-2.469412356613016	7.179161791437413	1.1331919748643764	0.2192803595966987	2.48637554786821	0.7015149189619234	-0.4111404744936735	1.112655393455597	49.01529766389263
5	2.0	wm	461	diff_vonmises	-0.0157491701247414	-0.9023609789812111	3.688855436903552	0.7591237143291686	0.2213223177634181	2.2124574284508425	0.1242608366381715	-0.335483097785355	0.4597439344235266	64.93683968747649
6	3.0	ltm	461	diff_vonmises	-0.0350274677302324	-2.006926067973003	1.5708474950492348	4.09386543733873	0.8475142711494783	5.182132347044374	0.2030959201953444	-0.3153447503714458	0.5184406705667902	77.8964003196129
7	3.0	perception	461	diff_vonmises	-0.0420835416360224	-2.41120932270716	4.0292001197155285	2.2507747523124912	0.3225996589880256	3.331934050501654	1.0237335562211118	-0.4876103274417854	1.5113438836628972	63.668710509962494
8	3.0	wm	461	diff_vonmises	-0.0706045465527314	-4.045342531906459	2.1017001011725345	1.853309642275024	0.5623035109777672	3.181283803656667	0.1629687082101018	-0.3482362026599571	0.5112049108700589	74.74774293686599
9	4.0	ltm	461	diff_vonmises	-0.1565630165700653	-8.970400077301516	1.7607252613150386	1.9976295520342469	0.444349178448576	3.4964124464789714	0.127345857368216	-0.3698930475416119	0.497238904909828	81.87102411405019
10	4.0	perception	461	diff_vonmises	-0.0914017902778647	-5.236936822861528	2.164939756239555	2.9978644886190366	0.2688647180231622	4.476251977201384	0.7065458927039286	-0.5500663670344546	1.2566122597383833	83.76256090252335
11	4.0	wm	461	diff_vonmises	-0.1658526088574961	-9.502654508768584	1.0055277141657	385.4723673918221	0.996039651083327	387.2170009892645	0.0969326343058298	-0.4263093907584689	0.5232420250642988	82.02029621126604
12	5.0	ltm	461	diff_vonmises	0.0021149634542663	0.1211784797538721	0.9534260123946215	5.469430824375492	0.493811624510325	6.335422225599387	0.2648124977465023	-0.3124303934399531	0.5772428911864553	103.74335542359108
13	5.0	perception	461	diff_vonmises	-0.0253310857820516	-1.451364305795405	1.8087232477107789	2.8525987411968314	0.2596307019861588	3.6964413324470495	0.634467754590737	-0.4186625018273617	1.0531302564180989	91.5278660043566
14	5.0	wm	461	diff_vonmises	-0.0538631908989851	-3.0861335096193137	0.7017571823355474	208.1417042727564	0.6893507504264755	209.08740089194225	0.224907061017312	-0.3138474385363636	0.5387544995536757	104.16674739650556
15	6.0	ltm	461	diff_vonmises	-0.1374322477144574	-7.874287763034864	0.7577118106950347	2.1387247101782974	0.0484162784067569	2.8621942095201107	0.1542896819115105	-0.2948572562880815	0.4491469381995921	135.9339842734721
16	6.0	perception	461	diff_vonmises	-0.0007926438178691	-0.045415145421038	1.1218094127086793	2.666813852833084	0.1456890164426333	3.502966860764914	0.3308113971302596	-0.3762415018909345	0.7070528990211942	115.39306428673711
17	6.0	wm	461	diff_vonmises	-0.1212757662414201	-6.948589562848523	0.4723679671492098	194.90257491044505	0.4619935665387417	195.6531265089824	0.1960003920085427	-0.3059970995001073	0.50199749150865	126.1662961340156
18	7.0	ltm	461	diff_vonmises	-0.0191528400241413	-1.097376899072541	0.8664307042457318	196.4818495720628	0.8511790122447249	197.62592595315573	0.213099464863177	-0.334081579548652	0.547181044411829	92.504762771786
19	7.0	perception	461	diff_vonmises	-0.0073176224436927	-0.4192688820938026	0.7489168803427279	59.30902442566519	0.6838369929512079	60.42245753424869	0.4226637557871449	-0.4393114072611466	0.8619751630482915	104.3917818900983
20	7.0	wm	461	diff_vonmises	0.1193085205496218	6.835874687443183	0.881231604451886	65.33356326116242	0.8421054983495723	66.45201293882751	0.1389899581889047	-0.2996204112619427	0.4386103694508474	90.9405672255654
0	1.0	ltm	150	diff_vonmises	-0.0593589619135871	-3.4010179939263407	2.669985646632998	0.3906769910014963	7.728899715967505e-19	2.656645088131752	-0.1835597310052521	-0.4216705621090414	0.2381108311037893	84.16974935966496
1	1.0	perception	150	diff_vonmises	-0.0471931378833435	-2.7039676226945457	16.543276649583184	0.6058738264768543	2.415390892210844e-21	3.0207119622556657	0.4944967613688525	-0.4807612404498038	0.9752580018186564	33.297563620493435
2	1.0	wm	150	diff_vonmises	-0.0075485539640611	-0.4325002835674529	3.1370396459276093	0.4330252988893797	2.35216722477445e-19	2.889118856986989	-0.1689435864850577	-0.4592692899237172	0.2903257034386594	77.55162881412761
3	2.0	ltm	150	diff_vonmises	0.0284263945630815	1.6287124352382008	4.007669813330359	0.4568076747582715	3.987298045490596e-19	1.874286439786649	0.0532558279311192	-0.2981857928850794	0.3514416208161987	68.39729742900681
4	2.0	perception	150	diff_vonmises	-0.0267452440481232	-1.5323896060048492	7.128094689841158	1.2165904845333406	0.2224748748922349	2.654905383822804	0.7497649193644226	-0.4389131343915491	1.1886780537559716	49.165017656250456
5	2.0	wm	150	diff_vonmises	0.004363969114815	0.2500370122043461	3.79552199755504	0.657130945012195	0.1494694518755134	2.290305170857177	0.0699820597805259	-0.3519085327519015	0.4218905925324274	65.15877653376484
6	3.0	ltm	150	diff_vonmises	0.0010134729322896	0.0580677216709462	2.6933080952186352	1.039782618250073	0.3350318115264081	2.249588034328848	0.1532808419624921	-0.3048895628483816	0.4581704048108738	72.41825034274817
7	3.0	perception	150	diff_vonmises	-0.0304556206143052	-1.744978523651319	3.942179581991651	2.355784061188319	0.2703104147895942	3.513962302943048	1.077201770811464	-0.514432469903538	1.591634240715002	64.88299907635945
8	3.0	wm	150	diff_vonmises	-0.0863415228499512	-4.947004856034567	2.975495261474852	0.950906876954158	0.241812747395312	2.436824078804748	0.1331115852859579	-0.3505976294848378	0.4837092147707958	70.9805896181924
9	4.0	ltm	150	diff_vonmises	-0.1028440227361704	-5.892528450930045	2.2609415522159635	0.9970002454476344	0.2361563973733847	2.8301810678951504	-0.0089005457832422	-0.3878210632042624	0.3789205174210202	77.7589041435231
10	4.0	perception	150	diff_vonmises	-0.077397568202733	-4.434554002592544	1.885841348148961	3.887555483410122	0.3701480544977901	5.600160514305322	0.6878362562425726	-0.6051455981805074	1.29298185442308	85.56758715232726
11	4.0	wm	150	diff_vonmises	-0.1091308312336142	-6.252736044440559	0.9086893607834272	358.5926891257742	0.8989412076297281	360.7275941327808	-0.022916372300358	-0.4700795906432446	0.4471632183428866	83.34168625107847
12	5.0	ltm	150	diff_vonmises	0.0067354899921154	0.3859151495008173	0.9996251264415136	4.018629779836459	0.4500062240652501	5.180592987169606	0.142861549254863	-0.3215665481083902	0.4644280973632533	100.8031663585019
13	5.0	perception	150	diff_vonmises	-0.0050688949332144	-0.2904262864684365	1.465175051073831	4.152762712368916	0.3914714430768919	5.281079701204222	0.5764175497027246	-0.4697170831771941	1.0461346328799186	94.34959962379672
14	5.0	wm	150	diff_vonmises	-0.0237759104851577	-1.362259324880382	0.5616348960888242	114.00002228343064	0.5407207954182258	115.3846991497939	0.0965827661087068	-0.3763600305853369	0.4729427966940438	113.04842218119356
15	6.0	ltm	150	diff_vonmises	-0.2034510947992822	-11.656889069314888	0.3743577114711228	207.08855877178857	0.3658618331799923	208.3235574609923	0.046446844602265	-0.3528339588220603	0.3992808034243253	133.29247315636718
16	6.0	perception	150	diff_vonmises	0.0032981483310846	0.1889699795792674	0.5928560113384457	281.2983260316161	0.5807059673982753	282.60106114495613	0.3048233518601222	-0.4631148413909578	0.76793819325108	113.65447852503206
17	6.0	wm	150	diff_vonmises	-0.0292514024585222	-1.6759819057119272	0.4105904591126755	217.8494332796016	0.4005773419727691	219.2619463606283	0.0781588618928808	-0.411086465518899	0.4892453274117798	129.664257136708
18	7.0	ltm	150	diff_vonmises	-0.0467544186033284	-2.678830859558663	0.939867755515385	190.54021554665007	0.9228458700256154	192.29938466607095	0.0412787823183578	-0.4081016671673723	0.4493804494857301	83.83963451473363
19	7.0	perception	150	diff_vonmises	0.0934857350669406	5.356338064013857	1.510111372526447	2.1263708060354767	5.752780640469107e-18	3.931659465748435	0.2990309428820731	-0.580620357375921	0.8796513002579941	110.10924322632825
20	7.0	wm	150	diff_vonmises	0.0658689185394826	3.7740110334033794	0.7300870893975214	90.66125340352912	0.7038922824193284	92.54424364208543	-0.0842690425591001	-0.3867119864183834	0.3024429438592833	91.34064455381912
0	1.0	ltm	271	diff_vonmises	-0.0713138628714949	-4.085983363311364	4.56925363925708	0.4080994436540682	1.0629589112611366e-20	2.8697317606781145	-0.1195165297756938	-0.4566957616947202	0.3371792319190264	63.94129024245416
1	1.0	perception	271	diff_vonmises	-0.0531520916733203	-3.0453905251737	15.630900023153696	0.7268991339050128	3.7175247379495204e-20	3.325140868855503	0.6078429372949871	-0.5292126057552029	1.13705554305019	34.25653293946684
2	1.0	wm	271	diff_vonmises	-0.0432724039104159	-2.479326113452234	5.502557662368599	0.4080687063296539	8.150321087627661e-18	3.104094343822265	-0.1217921199168414	-0.4940257709430133	0.3722336510261719	58.15003638085861
3	2.0	ltm	271	diff_vonmises	-0.1019326427125786	-5.840310222045705	2.799480953434412	0.8668632749519273	0.1922625661650415	2.270137090820094	0.111797021151814	-0.3260965651446537	0.4378935862964677	74.07075925275672
4	2.0	perception	271	diff_vonmises	-0.0595504735560688	-3.411990802768158	7.310775997420917	1.1746815450806591	0.1548193934467881	2.617776259972918	0.7601665869487555	-0.4265739164198818	1.1867405033686371	49.026985430431694
5	2.0	wm	271	diff_vonmises	-0.057005231312179	-3.266159164354867	3.4028028168916453	0.8373118924748495	0.1842439360497391	2.3690543646829534	0.139279223260466	-0.3542822411265866	0.4935614643870526	68.20456421773787
6	3.0	ltm	271	diff_vonmises	-0.0719308200290087	-4.121332404577293	1.9902882653875515	1.4468218362004324	0.3075921623797633	2.41486139041337	0.2335923900032577	-0.2864351414788499	0.5200275314821077	84.21990646991628
7	3.0	perception	271	diff_vonmises	-0.0415352123360949	-2.379792368037951	3.621553800156897	2.446656702912414	0.3368916806183798	3.3098275399123733	1.063706338026334	-0.4644986193176632	1.5282049573439973	66.88138859147108
8	3.0	wm	271	diff_vonmises	-0.1268577377384076	-7.268412970988226	2.3000227112546887	1.646355443201036	0.4637917902624551	2.70810412815476	0.2736892901232974	-0.3168519077882255	0.5905411979115229	75.95227257617253
9	4.0	ltm	271	diff_vonmises	-0.1715499541018691	-9.82908834570009	2.410654623664541	1.1156705295048477	0.1591463604537122	2.643550823111502	0.1533723011332826	-0.3706200614081248	0.5239923625414076	80.55242449989015
10	4.0	perception	271	diff_vonmises	-0.0992257466711304	-5.685216503290051	2.0271168227700183	3.6021250213014837	0.3440073898048085	5.104119519210368	0.7606901708440843	-0.5780071927131979	1.3386973635572823	84.27982745802183
11	4.0	wm	271	diff_vonmises	-0.1835135016779366	-10.51454912981272	0.9565910475821896	340.2611120942008	0.9463743446118376	341.97701645444414	0.0911709866364987	-0.4157231962659509	0.5068941829024496	84.13706238941228
12	5.0	ltm	271	diff_vonmises	-0.0326132371178013	-1.8686008431094177	0.958518708102432	3.329049855284682	0.2866576222473798	4.147104072033676	0.2500455511042958	-0.3220833467297213	0.5721288978340171	113.53197069114832
13	5.0	perception	271	diff_vonmises	-0.0174877164850798	-1.0019723479164286	1.9823809008520308	2.600314816978731	0.1632943886280118	3.289600181198499	0.721968664560535	-0.4187594509619003	1.1407281155224354	91.32409073340747
14	5.0	wm	271	diff_vonmises	-0.0814959833538845	-4.669375893445995	0.686677746635673	214.95237430334043	0.6751893587218185	215.80123463065885	0.232696184323629	-0.2989825636485683	0.5316787479721974	105.87164883297358
15	6.0	ltm	271	diff_vonmises	-0.1084289558535157	-6.212521547416774	0.6397457421003439	1.8714182586445796	1.664566368966415e-18	2.4924885755358206	0.1143756202228999	-0.2545225223311493	0.3688981425540493	144.91183358729396
16	6.0	perception	271	diff_vonmises	-0.0112332464789918	-0.6436176134764227	0.9044044048701216	2.54568578153117	1.6436255523997514e-19	3.187233335829643	0.3164077848584113	-0.3723012678180042	0.6887090526764156	132.6755354198149
17	6.0	wm	271	diff_vonmises	-0.143026259384501	-8.194801022275294	0.4363014723967234	172.64124059840412	0.4260091147492128	173.26508917393298	0.1827421053974234	-0.2744822966896869	0.4572244020871103	130.2447489746255
18	7.0	ltm	271	diff_vonmises	0.0746278870910658	4.275862964296912	0.7843026899950484	129.93862220260252	0.7660097999012415	130.7945655688884	0.1995532912309343	-0.2722949827255601	0.4718482739564944	98.42347569295212
19	7.0	perception	271	diff_vonmises	0.0479847749069007	2.7493250830506697	0.7941106790856776	211.6147863723767	0.7775404941070221	212.34544084850407	0.4509044362550511	-0.353911770056488	0.8048162063115392	101.22655483384094
20	7.0	wm	271	diff_vonmises	0.0700981527746206	4.016328305649022	0.8445770205474709	121.7579390495239	0.8265135714926897	122.6073795091665	0.157591962206034	-0.2489083496231501	0.4065003118291841	93.82197223226436
0	1.0	ltm	438	diff_vonmises	-0.2260987107215986	-12.9545018776969	2.565569263240705	0.3562514673323513	2.8065914709329e-16	1.1065764195355872	0.0370549248848965	-0.1748572949654392	0.2119122198503358	85.84536639717913
1	1.0	perception	438	diff_vonmises	-0.0608823328152975	-3.4883007172273848	15.104566064369818	0.7304282389057846	5.614488407703675e-23	1.7220036926806443	0.8481630887429844	-0.2740653997125363	1.1222284884555207	34.86510069586271
2	1.0	wm	438	diff_vonmises	0.0075680214434724	0.4336156879754769	4.861154353449474	0.3481139431455766	4.838944833272666e-23	1.189575611042194	0.1079905617564951	-0.1893090150463494	0.2972995768028446	61.95296948715429
3	2.0	ltm	438	diff_vonmises	-0.0088487103187722	-0.506993755399509	4.342576340427886	0.4345974873846695	0.2705880519441967	0.8003390027539509	0.1853975043498964	-0.1215664336176786	0.306963937967575	61.50297545296797
4	2.0	perception	438	diff_vonmises	-0.0277380513506616	-1.5892732743100666	7.473361258119402	1.2630199781066178	0.5054753899759912	1.512899239097833	0.9777255900881948	-0.2618978706876098	1.2396234607758048	47.577688660424485
5	2.0	wm	438	diff_vonmises	-2.98012127949783e-05	-0.0017074837175235	4.655234610775244	0.4187315111717956	0.2728153675880707	0.8105893263158725	0.1831207143054221	-0.1253281809245307	0.3084488952299529	59.45600732594485
6	3.0	ltm	438	diff_vonmises	0.0632744729259354	3.625360249570894	1.7233912418024464	73.01753622911292	1.7030332546744886	73.13429926431486	0.1934378734203719	-0.0933396767808734	0.2867775502012453	69.72914211191886
7	3.0	perception	438	diff_vonmises	-0.0231471673964364	-1.3262349994986309	4.528813830373343	1.8577604766258855	0.5825628765127271	1.8232350396172663	1.0494988939011287	-0.2593090060846078	1.3088078999857364	59.70628244142256
8	3.0	wm	438	diff_vonmises	-0.0970846789806645	-5.562542360974535	1.7433514883684338	57.43675912734757	1.7103300705622138	57.63366892977491	0.2231404784498067	-0.1242453378621508	0.3473858163119576	68.70243983341817
9	4.0	ltm	438	diff_vonmises	-0.1737933531719736	-9.95762564418065	1.6488115368348442	129.60939784219968	1.6312541680199588	130.0773240629077	0.1728962668731242	-0.1781507413746013	0.3510470082477255	67.63447126965522
10	4.0	perception	438	diff_vonmises	-0.0966525093520933	-5.537780865223665	2.982089584753892	2.0039518767354547	0.2118492322368065	2.592225967991721	0.8036637433691743	-0.3557524850030721	1.1594162283722464	74.97211870865948
11	4.0	wm	438	diff_vonmises	-0.1491552512915768	-8.545966391220572	1.4204757163383936	192.45902155902013	1.4070849131784295	193.14918719449847	0.1710878028568601	-0.2243747833883738	0.3954625862452339	71.9929178301131
12	5.0	ltm	438	diff_vonmises	0.0540167075039712	3.094929363170194	1.6948012310798135	0.9907174697068964	0.159563633843937	1.1169410137216311	0.2549923173708016	-0.1350027499647461	0.3899950673355477	98.71223527791636
13	5.0	perception	438	diff_vonmises	-0.0179729312663378	-1.029773107039876	2.470488571176986	1.7737528167648915	0.0834703410677137	1.7389789650942649	0.7377694269103177	-0.246830809372017	0.9846002362823348	85.41016584802725
14	5.0	wm	438	diff_vonmises	0.0637329975224683	3.651631773755166	1.1562750067457306	1.8942056382095689	0.3814877471209697	1.9953450101905568	0.2542065674139397	-0.1395858360153212	0.393792403429261	106.31732232910971
15	6.0	ltm	438	diff_vonmises	-0.1754243188820059	-10.051073095896054	0.4463412300538777	85.20473434762658	0.4329016074841461	85.28360875487668	0.193315786572402	-0.1437512965914198	0.3370670831638218	132.2604264859693
16	6.0	perception	438	diff_vonmises	-0.0235492358108917	-1.3492718227224385	0.642722961727719	157.05635741275245	0.6267395006916642	157.19759337894652	0.4383351973959151	-0.2609118005708719	0.699246997966787	115.55847243988582
17	6.0	wm	438	diff_vonmises	-0.1193168049307042	-6.836349347515086	0.8232995442455567	2.333551581425571	0.1655935177432776	2.36538879129858	0.277718261773364	-0.1782904058761864	0.4560086676495505	128.33375311830036
18	7.0	ltm	438	diff_vonmises	0.1437039263115096	8.233628477108486	1.0653851409576296	116.54522281274332	1.048707632985906	116.91240553551184	0.2368231428705343	-0.1658045810517663	0.4026277239223006	87.2091299083342
19	7.0	perception	438	diff_vonmises	-0.0376087518513808	-2.1548227538389426	2.2157796860988266	1.3960382981124897	2.1670960177914998e-17	1.7139875893154	0.4931666439865498	-0.263677691798017	0.7568443357845669	92.34170175645318
20	7.0	wm	438	diff_vonmises	0.182027387458858	10.42940105718514	1.833939566088557	0.7598185865773527	0.1227506615383758	1.0695641043012478	0.1801549741643083	-0.1405184154531963	0.3206733896175046	95.47385713107988
0	1.0	ltm	248	diff_vonmises	-0.2016556810974639	-11.554019441720737	2.8937139027260224	0.3507550005652354	3.436372879441888e-09	1.1054145424279438	0.0490881869579232	-0.1752421864993798	0.224330373457303	80.79792536654932
1	1.0	perception	248	diff_vonmises	-0.0685728056487471	-3.9289323530440607	16.28476953728163	0.6657141533332345	8.307939040628348e-14	1.6853537237758975	0.795028925801583	-0.268232375997237	1.06326130179882	33.55794472554845
2	1.0	wm	248	diff_vonmises	0.0322485955041067	1.8477084176098788	3.997509774255597	0.3885731693112734	1.0781677834594576e-22	1.235260097974749	0.1020538051282435	-0.1964970610992091	0.2985508662274526	68.48251377137927
3	2.0	ltm	248	diff_vonmises	-0.0117782133519343	-0.6748419152704729	4.756562280930854	0.3819806751712863	0.1530731453149936	0.7516185157305658	0.1838909421513775	-0.11633882915653	0.3002297713079076	60.28258394419393
4	2.0	perception	248	diff_vonmises	-0.0282242068003565	-1.6171279297648669	7.481716196672341	1.1788551059314971	0.4844905390159111	1.4806569615877578	0.9021489116018786	-0.2561629082961893	1.158311819898068	47.55698758553146
5	2.0	wm	248	diff_vonmises	0.0085056353971544	0.4873370103340309	4.722564001977232	0.4511750174809251	0.3824269632621988	0.8417735586064276	0.1900182163798413	-0.1311876517252556	0.3212058681050969	57.99403323645552
6	3.0	ltm	248	diff_vonmises	0.0253838627608564	1.4543882039363696	1.7719443913438655	106.42478144980257	1.7552958357925657	106.60310290751596	0.2072482330275704	-0.1148524980096006	0.3221007310371711	67.9857371788024
7	3.0	perception	248	diff_vonmises	-0.0326503502856818	-1.8707272709933287	4.360729196571147	1.9169381468354847	0.5729730808574611	2.0074815723013693	1.0217467804985088	-0.2835925021683398	1.3053392826668486	60.52204897005018
8	3.0	wm	248	diff_vonmises	-0.0830751673494986	-4.75985647146929	1.7389447814312238	97.41527710689869	1.717465287977593	97.7060256850756	0.2112621831985279	-0.1455939144999281	0.356856097698456	67.61917422393296
9	4.0	ltm	248	diff_vonmises	-0.1693699382591418	-9.704182638640155	1.6591244224110273	124.97764556225032	1.640718702487106	125.4191054338052	0.1875567942742648	-0.1759848435685338	0.3635416378427987	67.82723343459415
10	4.0	perception	248	diff_vonmises	-0.1075666412355819	-6.163114559196733	2.867793899597336	2.1021845216878248	0.2630036527271736	2.575298498477028	0.8177017933343359	-0.3401154083985886	1.157817201732925	75.6337150556993
11	4.0	wm	248	diff_vonmises	-0.1529352246620668	-8.762542912021491	1.4356544626973426	236.4564411949229	1.4244456174577822	237.11557565359587	0.1935441210011248	-0.2242572445448409	0.4178013655459658	72.07542807770506
12	5.0	ltm	248	diff_vonmises	0.0749389614175998	4.293686210322181	0.8575457598775978	75.77938392830295	0.8356097046214849	76.02457628920781	0.2410941490441622	-0.1527563138764449	0.3938504629206072	98.80530049940572
13	5.0	perception	248	diff_vonmises	-0.0109767274006563	-0.6289201529232181	2.277072166191973	1.8856059185316212	0.1753495917697789	2.125441953274249	0.6514791892565128	-0.2750240645623733	0.9265032538188862	86.07438262056547
14	5.0	wm	248	diff_vonmises	0.0515945289956071	2.9561487574136414	0.7365227412205808	78.39701011142877	0.7167643358472182	78.65345114661032	0.221742200594786	-0.1589591465402984	0.3807013471350844	106.26430927241944
15	6.0	ltm	248	diff_vonmises	-0.2224581815945732	-12.745914923523896	0.4428958346649525	121.51476085183664	0.4314258751313333	121.77698665381811	0.1962963577289187	-0.1917326297707013	0.3880289874996201	131.2050208979664
16	6.0	perception	248	diff_vonmises	-0.0110444440898445	-0.632800033416301	0.7233823759247019	234.64892284560736	0.7104403692101253	235.0828261585323	0.4548562837717327	-0.3091870745410041	0.7640433583127368	107.46334657984752
17	6.0	wm	248	diff_vonmises	-0.1680114346340611	-9.626346114469811	1.0435379162498075	1.84789142937104	0.0862653162008962	2.1053304334048937	0.2820358211917711	-0.2265934561233974	0.5086292773151686	122.31084184764462
18	7.0	ltm	248	diff_vonmises	0.1091817730420237	6.255654795063188	1.032374646362103	140.3635238989374	1.0160087938336324	140.87717915038337	0.2565244009823786	-0.2058510714009376	0.4623754723833162	87.821576593273
19	7.0	perception	248	diff_vonmises	-0.0613612462244962	-3.5157404343266934	2.370043425727819	1.476477017764057	1.3545461688307905e-17	2.0272173080650213	0.5204889864715889	-0.3152732274195876	0.8357622138911766	89.33800617964334
20	7.0	wm	248	diff_vonmises	0.2750183076156227	15.757388315205766	3.013904973504615	0.5943289584569118	1.5533604596509144e-16	1.0228238728403327	0.2274893466856753	-0.1618465575913392	0.3893359042770146	79.12991045147916
0	1.0	ltm	369	diff_vonmises	-0.0147299207981507	-0.8439622942960084	6.655611713529107	0.4104770254788346	0.0488839544629905	3.713039227133363	-0.2062965049031316	-0.5954237379460228	0.3891272330428911	51.01304558669341
1	1.0	perception	369	diff_vonmises	-0.0241445201975655	-1.3833791056888778	14.041528347418438	0.7101973015557502	0.0546147817258067	4.021997480336165	0.3760365325965312	-0.6573562968543714	1.0333928294509027	35.80371031570539
2	1.0	wm	369	diff_vonmises	-0.0203927045145218	-1.168415901539484	4.145983112950692	0.6165051652401548	0.113479548486194	4.250939946113157	-0.272083417839198	-0.6723854493360228	0.4003020314968248	61.20035243612284
3	2.0	ltm	369	diff_vonmises	-0.0946626387297005	-5.423769676783491	2.6624275510098414	0.9888705482642568	0.2393019982790722	2.6398673526087943	0.0784258390471878	-0.3723328669558398	0.4507587060030276	73.82902296049812
4	2.0	perception	369	diff_vonmises	-0.0504103911873079	-2.888302658636223	7.413730046878142	1.1239665664125862	0.1961565919297275	2.8937402882228223	0.6438494959988815	-0.4793963463380293	1.1232458423369107	48.22648891908304
5	2.0	wm	369	diff_vonmises	-0.0136756612787896	-0.7835576733251315	3.504320027292377	0.916060497063837	0.2178001809046721	2.79673524948012	0.1078825728211282	-0.4216161394761413	0.5294987122972695	66.15493926309793
6	3.0	ltm	369	diff_vonmises	-0.0590626929246074	-3.384043031257198	1.923818054663872	1.9617665614768307	0.4918934622989279	3.2535822390642486	0.1906392265474381	-0.3453377440874949	0.5359769706349331	79.27416070114558
7	3.0	perception	369	diff_vonmises	-0.03626197740845	-2.0776582623029247	3.8924828259095294	2.224156772688086	0.3123109912440185	3.457768996914143	0.9507128140665748	-0.5038988671061763	1.454611681172751	64.58000360240732
8	3.0	wm	369	diff_vonmises	-0.0583291409419744	-3.342013598598871	2.274409262381617	1.5831998135874346	0.4211566942216246	3.08208568566278	0.1669102045895154	-0.3788276404168793	0.5457378450063948	75.32111337159242
9	4.0	ltm	369	diff_vonmises	-0.1348548153605666	-7.72661176717645	1.565987951873871	2.1438966262722823	0.2993622572072389	4.050493415756434	0.1027194325697616	-0.4528780599765015	0.5555974925462632	89.66917956040092
10	4.0	perception	369	diff_vonmises	-0.0875331911259068	-5.01528241882645	2.0165435184004106	3.4512620304417454	0.3362294205068261	5.187976638412013	0.6656354697934661	-0.5961220849782638	1.26175755477173	84.04617392834282
11	4.0	wm	369	diff_vonmises	-0.1680108055159583	-9.626310068657704	0.8601148582841012	328.7424923852826	0.8490703817888305	330.8081851180651	0.0461149549314114	-0.4757255561341296	0.5218405110655411	87.66063005180418
12	5.0	ltm	369	diff_vonmises	-0.0209807249530802	-1.202106990936313	1.0335376350314347	3.913233152930819	0.3300227097926307	5.178494306710671	0.2461284052815755	-0.4049194846276156	0.6510478899091912	106.81304532902114
13	5.0	perception	369	diff_vonmises	-0.033665049433963	-1.928865249665364	1.9869186903638896	2.798859189416633	0.2000487842013325	4.000316197713666	0.6682250605468407	-0.4993080991954926	1.1675331597423333	89.22967076779025
14	5.0	wm	369	diff_vonmises	-0.079173191501837	-4.536289723636296	0.7048628934643817	259.9047008455263	0.6930270896166278	261.177398305412	0.2258027936086648	-0.3854983199686863	0.6113011135773512	102.77970720076026
15	6.0	ltm	369	diff_vonmises	-0.0715753511531329	-4.10096553824135	0.9297229835502736	1.77829062335008	5.252707649646496e-15	2.733192166522924	0.1489522107370154	-0.344044863379924	0.4929970741169394	131.5284564933686
16	6.0	perception	369	diff_vonmises	-0.0231161587691847	-1.324458336028615	0.9851563808322764	2.4505500773679216	2.728097908481539e-17	3.453534557804645	0.2808329007502447	-0.4338635259240689	0.7146964266743137	129.20447929261843
17	6.0	wm	369	diff_vonmises	-0.168964257040289	-9.68093881697217	0.4953808042875531	191.42003653995096	0.4835430925909166	192.3508398788233	0.1959970291239798	-0.344146816210884	0.5401438453348639	123.1577152955218
18	7.0	ltm	369	diff_vonmises	0.0107962463016604	0.6185793476688679	0.690716505296849	216.7088470362054	0.6777523397504684	217.95742187675685	0.1850642165135099	-0.363580152920079	0.548644369433589	103.24552360418907
19	7.0	perception	369	diff_vonmises	-0.0162716736495131	-0.9322982257313356	0.7971834681714568	265.8304903777502	0.7821420053902198	266.8882759541399	0.4460177845110848	-0.4207193881196573	0.8667371726307422	99.69635606498603
20	7.0	wm	369	diff_vonmises	0.1197237438909801	6.859665232458332	0.9203611383266908	110.11433181058472	0.8937015088027316	111.29527162123787	0.1792088901790123	-0.3272738667265695	0.5064827569055819	89.18803117312154
0	1.0	ltm	415	diff_vonmises	-0.0490144707996316	-2.808322311886108	3.5737658232800533	0.3822358168369519	4.061569821983503e-20	2.733535663623045	-0.1588373403295643	-0.434838374626768	0.2760010342972037	72.53765787968405
1	1.0	perception	415	diff_vonmises	-0.0322937971278485	-1.850298279877422	13.811562994045037	0.7014606918608417	0.0051349010019463	3.162040042843799	0.5243767507135396	-0.5040373441600989	1.0284140948736384	36.42277403008509
2	1.0	wm	415	diff_vonmises	0.0299759435571737	1.7174950527484285	4.708719069389194	0.4102225394504926	1.1693422586075496e-22	2.892527882878729	-0.1158926335938104	-0.4603321042406089	0.3444394706467985	62.96735093143451
3	2.0	ltm	415	diff_vonmises	-0.0845480215501277	-4.844244801003452	3.1350948218318173	0.7138388808320053	0.1618967360794556	2.141721297646047	0.0812171886723898	-0.3180924916563917	0.3993096803287815	70.93756462028543
4	2.0	perception	415	diff_vonmises	-0.0373103832836639	-2.137727494169403	7.146551958427112	1.180936713592609	0.1458270171962056	2.619324000990623	0.7560201832706072	-0.424925401969602	1.180945585240209	49.627202387720416
5	2.0	wm	415	diff_vonmises	0.0148613470396359	0.8514924632503785	4.154904729845121	0.6338237046490072	0.1317758414338707	2.13682383149905	0.11119316561156	-0.3313186910239335	0.4425118566354936	63.18525260261498
6	3.0	ltm	415	diff_vonmises	-0.038952685644407	-2.231824488124353	2.055615242705976	1.2875089518328486	0.3674091511202611	2.208584214269397	0.1844203570699162	-0.2585547459251212	0.4429751029950375	81.06071947950241
7	3.0	perception	415	diff_vonmises	-0.0273543476571136	-1.5672886720861854	3.714248031194582	2.1602564780475184	0.2635851404923591	3.015304774869822	0.980663371940628	-0.4332240202388891	1.4138873921795172	66.94141367515218
8	3.0	wm	415	diff_vonmises	-0.0909115798588856	-5.208849834780688	2.260729291321638	1.4440382595714976	0.474272805986851	2.43922152861913	0.2117005503814455	-0.2839874062281151	0.4956879566095606	75.78514909876066
9	4.0	ltm	415	diff_vonmises	-0.1227082578986853	-7.03066528899752	2.1338830012652386	1.1842040144142774	0.3197575619463125	2.7528316123445724	0.0471560066001583	-0.3529636646573864	0.4001196712575448	78.02744514958601
10	4.0	perception	415	diff_vonmises	-0.1128992098666571	-6.468648235721196	1.7947906873949009	4.436432726637484	0.479239104581299	5.946068658593696	0.6989995511127207	-0.566654417525337	1.2656539686380577	84.81383617247425
11	4.0	wm	415	diff_vonmises	-0.1455299893813552	-8.338254184135343	0.9760131259937296	296.0073755541469	0.965403344290465	297.7282268764365	0.0187554358276429	-0.3944192969231181	0.4131747327507611	81.44715869458977
12	5.0	ltm	415	diff_vonmises	-0.0157593614192755	-0.9029448971457892	1.0490510070863628	2.398530793547779	0.2274947208069624	3.482988296137032	0.1547859790991453	-0.332603675673861	0.4873896547730064	111.1932786769257
13	5.0	perception	415	diff_vonmises	-0.0361011019700511	-2.06844077865535	2.0462406169988228	2.622463422247177	0.1965290598670162	3.577234980018441	0.6853562010690688	-0.4493872247672039	1.1347434258362727	88.56025340284478
14	5.0	wm	415	diff_vonmises	-0.0346543534651881	-1.9855481953098424	0.6496951029092705	221.46968173935107	0.6389491495075497	222.57438874143205	0.1506275636185208	-0.3216959847102636	0.4723235483287844	106.2261308510032
15	6.0	ltm	415	diff_vonmises	-0.1070008139249541	-6.130695042364521	0.3693583734950961	134.99161712341942	0.3582445662055974	136.01351987499146	0.0475406993531741	-0.2994465207101342	0.3469872200633084	134.55957713217413
16	6.0	perception	415	diff_vonmises	-0.0703562957172447	-4.031118806772474	0.4303720670758519	98.6302180580789	0.4023777174642269	99.62215602284016	0.2814946916912788	-0.4356229250316641	0.7171176167229429	131.86708367162228
17	6.0	wm	415	diff_vonmises	-0.1453682016316775	-8.32898442890189	0.5115925323874192	195.0695657083828	0.5012925771388119	196.07919998424396	0.1265312209681468	-0.3168211668124385	0.4433523877805854	119.7684538966212
18	7.0	ltm	415	diff_vonmises	0.1006279370418384	5.765556093605504	0.7363576875162035	102.17866975569308	0.7115205479297224	103.44335577592794	0.1214886892741056	-0.3330306541317434	0.454519343405849	98.7715742149948
19	7.0	perception	415	diff_vonmises	0.00692754710274	0.3969192113650866	0.8641107112142566	244.44942291583055	0.846070630778834	245.5575560917559	0.4950903550167282	-0.4403860448549963	0.9354763998717246	95.93756939831204
20	7.0	wm	415	diff_vonmises	0.105808658287601	6.062389555821458	1.545127381276765	1.7797144739855912	0.3762247475212198	2.9895472027689958	0.1156285577670583	-0.3052475177528574	0.4208760755199158	88.39425917492503
0	1.0	ltm	6	diff_vonmises	-0.1348596957287091	-7.726891391673486	2.0908500200705475	0.3665332625955868	2.332999525075199e-19	1.8716978024666528	-0.103670032520052	-0.2949235883277193	0.1912535558076672	94.9597510873593
1	1.0	perception	6	diff_vonmises	-0.0332804462150677	-1.906829108435516	13.775552390816433	0.7212384853148107	0.0006264223375697	2.441945715178849	0.6689961781915417	-0.3886790405843501	1.0576752187758918	36.50594858836263
2	1.0	wm	6	diff_vonmises	0.0239836575981151	1.374162357658867	3.646675898028081	0.3811371673725188	1.7696244810625442e-26	1.9924013970076289	-0.0385955009512968	-0.3169111055876299	0.278315604636333	71.79366600624743
3	2.0	ltm	6	diff_vonmises	0.05490510640229	3.145830870567936	4.316061073852373	0.4384631511872224	0.1377025561623757	1.2934001929962502	0.1162077332894656	-0.2005206840394865	0.3167284173289521	62.36308528982608
4	2.0	perception	6	diff_vonmises	-0.0123853881319875	-0.7096304675943064	7.137805738347353	1.3634884773240523	0.3906235440531201	2.086148742082386	0.953318035116409	-0.3541000981373232	1.3074181332537322	48.68708460850522
5	2.0	wm	6	diff_vonmises	0.0359706098430372	2.060964130517771	4.385532331400277	0.4775960944566487	0.1405153818521964	1.4215968314932168	0.126903599063558	-0.2208700595556714	0.3477736586192294	61.8351550080495
6	3.0	ltm	6	diff_vonmises	0.093245250292137	5.342559301380461	3.233457370424306	0.5665305984694075	0.3870757089972552	1.0147263012547174	0.1579557215670164	-0.1407480612266027	0.2987037827936191	67.88639901539995
7	3.0	perception	6	diff_vonmises	-0.0058558216186011	-0.3355138643273149	4.745071998161195	1.8204572807425856	0.3262529071649849	2.144165590287259	1.074370724907808	-0.322028082567258	1.396398807475066	59.747220581824365
8	3.0	wm	6	diff_vonmises	-0.0709804124692361	-4.066878062584993	3.5593023728714006	0.6468160676210291	0.3382553327147204	1.227093986158825	0.2001373101849696	-0.1774109532152802	0.3775482634002498	65.79667874554852
9	4.0	ltm	6	diff_vonmises	-0.1422577345814921	-8.15076779461176	1.8182004656334656	1.8133466911917224	0.7271482241173997	2.9357319612078685	0.0323518435332953	-0.2703023917819012	0.3026542353151965	72.84865120214656
10	4.0	perception	6	diff_vonmises	-0.0683206301283407	-3.914483760028261	2.5810676473503147	2.344572295593641	0.2083116792086735	3.5643835486998072	0.7167276930089321	-0.4785586986938039	1.195286391702736	79.26400625586777
11	4.0	wm	6	diff_vonmises	-0.086459936899824	-4.953789481327329	1.1464978270370816	250.00385432266225	1.1344540880216918	251.37895147938372	0.0562389415987212	-0.3383858290965698	0.394624770695291	76.06137512142021
12	5.0	ltm	6	diff_vonmises	0.0080641262954528	0.4620404021899147	1.9198422625518248	0.7897677086248338	4.337428082784698e-17	1.30939128905616	0.1890425608878201	-0.1998499458143793	0.3888925067021994	98.91545729016386
13	5.0	perception	6	diff_vonmises	-0.0193704691450375	-1.109846129199037	2.1024433332395627	2.300354197754174	0.1885621670352551	2.6062138373534527	0.72656282983087	-0.3260632785184586	1.052626108349329	88.84260883680989
14	5.0	wm	6	diff_vonmises	0.0846355159304211	4.84925785972538	1.5433663234959996	1.062299650073106	5.221597469075689e-18	1.6178715299944129	0.2106657923109778	-0.2361202016859069	0.4467859939968848	109.09619640713146
15	6.0	ltm	6	diff_vonmises	-0.1396961382166028	-8.003999134087552	0.455616790092902	120.03407173062357	0.4446359397699013	120.44434124278524	0.1472644953276116	-0.1950120844525589	0.3422765797801705	128.71239396893236
16	6.0	perception	6	diff_vonmises	-0.0362255519107234	-2.0755712350165303	0.5926865559584205	185.66720439835711	0.5778034595443557	186.07706664015177	0.4151084867645238	-0.3222190424716356	0.7373275292361594	118.156173952856
17	6.0	wm	6	diff_vonmises	-0.0127723884575943	-0.7318039529217653	0.4505527445871049	55.78271947636501	0.4191897943293764	56.21602510540625	0.222854179997892	-0.2519852401200699	0.474839420117962	131.14469225597102
18	7.0	ltm	6	diff_vonmises	0.1097483146791022	6.28811523978622	0.9960030234597084	136.44718461222146	0.9786656638956016	137.3685897196252	0.1368489427346588	-0.2537364843878027	0.3905854271224616	85.23711351166031
19	7.0	perception	6	diff_vonmises	0.0296579400618464	1.6992747945957636	1.93999067500725	1.6805213295486945	1.7285393794575452e-14	2.541613088980331	0.4465857616041342	-0.3869331836903101	0.8335189452944444	98.42733260181186
20	7.0	wm	6	diff_vonmises	0.087248707126035	4.998982686294796	0.6510643449517307	61.05388940166764	0.6243446529155668	61.99227055358856	0.0562525141685448	-0.2387237704068674	0.2949762845754122	104.2116930993172
0	1.0	ltm	104	diff_vonmises	-0.3087285557739017	-17.688843261013808	0.6280368180963157	22.93147891065036	0.5992438642657798	22.96005760855918	0.117537617969992	-0.0693931960603075	0.1869308140302996	117.24601395908772
1	1.0	perception	104	diff_vonmises	-0.0860316174301779	-4.929248583433324	15.741324115834706	0.6543649916727509	2.0960756722093718e-21	0.8863349780031757	0.8861927082378335	-0.1410645929844299	1.0272573012222634	34.13423431233315
2	1.0	wm	104	diff_vonmises	-0.216246742642749	-12.390025686881208	0.0004469290869714	1696.4856246555305	7.417005295056071e-29	1696.5465490622446	0.1109869372564844	-0.1303528146593748	0.2413397519158593	178.64180897528206
3	2.0	ltm	104	diff_vonmises	0.0371958157659908	2.1311632589374434	2.634055602738015	13.865236702146598	2.5343891578599185	13.777042910133382	0.2401916864360682	-0.0556613618964245	0.2958530483324928	59.77679003177136
4	2.0	perception	104	diff_vonmises	-0.0146372699252587	-0.8386537903110935	7.080117509854814	1.2464641507406915	0.6273186748128206	1.026734732322947	1.0200539354108238	-0.1723094252015539	1.1923633606123778	48.97929817574246
5	2.0	wm	104	diff_vonmises	0.0358276214274592	2.0527714977858897	3.363470246625448	11.433224428775636	3.2789543067720994	11.321573706177103	0.1900620513022746	-0.0286732002299614	0.218735251532236	54.351240596469125
6	3.0	ltm	104	diff_vonmises	0.1067389452848718	6.115691074500974	2.294364734299496	73.02265429226931	2.276057405240324	72.95843081903043	0.2304492785899157	-0.0593879920525308	0.2898372706424466	63.13610216270993
7	3.0	perception	104	diff_vonmises	-0.0304343946336613	-1.7437623645443985	4.846346655239465	1.8157486331459052	0.5462722820648533	1.6646368082765632	1.1232368199186389	-0.2425932327606385	1.3658300526792773	58.369188474869446
8	3.0	wm	104	diff_vonmises	-0.0649958261631261	-3.7239865251131055	2.297747876030828	64.33180443504558	2.2729791606537857	64.32901640056308	0.2335301164341459	-0.078718573923008	0.3122486903571539	61.8183631724946
9	4.0	ltm	104	diff_vonmises	-0.1954791377563637	-11.200129576296062	2.247670308404271	117.86143049411412	2.2292068188960794	118.11310438922878	0.1817916603656186	-0.1408914227777025	0.3226830831433211	58.733756281204336
10	4.0	perception	104	diff_vonmises	-0.1107572697962759	-6.345924109718401	3.071533806304674	1.828098962671657	0.1399649442732773	2.2801200476475723	0.7980465538332997	-0.3250226476992222	1.123069201532522	75.31563871570603
11	4.0	wm	104	diff_vonmises	-0.14359541333898	-8.227411141760122	1.6758327455257032	182.5927684571118	1.6626260423235404	183.0687007211317	0.1870711790941754	-0.1859324265690034	0.3730036056631789	67.17453996671335
12	5.0	ltm	104	diff_vonmises	0.0993528055110928	5.692496438569727	2.0975111639061867	0.7110758049984428	0.1828409839288157	0.5524290478079347	0.2728228173500113	-0.0669708506252275	0.3397936679752389	90.82615248519949
13	5.0	perception	104	diff_vonmises	-0.0307838018548767	-1.7637819236514305	2.411021911576529	1.614167840290585	0.106775797811109	1.2994732830191202	0.7017442952421622	-0.1778815294383307	0.8796258246804929	86.3447075142004
14	5.0	wm	104	diff_vonmises	0.1362349029859849	7.805684963471156	1.6394324240778495	0.8215736434544073	0.1824057798520172	0.6353584704321725	0.2552554173313903	-0.069413749069233	0.3246691664006234	101.5825465206971
15	6.0	ltm	104	diff_vonmises	-0.2562618306331983	-14.682721345578578	0.471906100003605	64.8672495130294	0.4580987707371672	64.79839450006861	0.182876984177895	-0.0975263427833015	0.2804033269611965	131.06885095889808
16	6.0	perception	104	diff_vonmises	-0.0399781583467096	-2.290579745972168	0.81553732431316	197.4390632790881	0.8037847124921528	197.44311952054903	0.4418516810834418	-0.1944400189152517	0.6362916999986936	104.09686194095444
17	6.0	wm	104	diff_vonmises	-0.0614295241151003	-3.51965246929236	1.0527368863992912	1.1913843075568744	1.2603988559742408e-16	1.1010347194868386	0.2437147129743308	-0.1242082971027357	0.3679230100770665	126.39659505510843
18	7.0	ltm	104	diff_vonmises	0.0784291423370834	4.493658846745684	1.3289776575302734	113.7635412451978	1.309270914984847	114.05494754896156	0.289798035386859	-0.1641217352956054	0.4539197706824645	78.88955142144965
19	7.0	perception	104	diff_vonmises	-0.0641522081429331	-3.6756507730348593	2.311093262384976	1.5175464374910552	2.5665019574078605e-19	1.8566764985614876	0.5582690399430841	-0.2871049889874001	0.8453740289304843	90.45332482482048
20	7.0	wm	104	diff_vonmises	-0.020110259975433	-1.1522330215031766	0.463898930535884	20.935179944427105	0.4151253431670841	21.157953052567592	0.1373791432614854	-0.1436920355391031	0.2810711788005886	130.9941667832878
0	1.0	ltm	323	diff_vonmises	-0.0836563335490649	-4.793154841900094	2.500918033565461	0.4311971504030427	1.2037790884478637e-19	2.972742443890802	-0.2189450293087805	-0.4714170781217759	0.2524720488129954	86.9748110867159
1	1.0	perception	323	diff_vonmises	-0.0266824264970471	-1.5287904254488411	14.129877815421333	0.7444595578571441	0.000843430882241	3.4108935310380444	0.5623465443118116	-0.5429476060256596	1.1052941503374711	36.05188997529436
2	1.0	wm	323	diff_vonmises	0.003770465692881	0.2160317710009519	3.1354016435236143	0.4646729145221294	2.1632113676119657e-25	3.1532095568016176	-0.1897877286688293	-0.501258844368283	0.3114711156994537	77.56741487925461
3	2.0	ltm	323	diff_vonmises	0.0066893218600744	0.3832699103868664	3.9344329776867726	0.4706000686154248	1.1045508155543089e-17	1.9187519664809465	0.0531605637442657	-0.3052417060851695	0.3584022698294353	69.0470755567274
4	2.0	perception	323	diff_vonmises	-0.0301220572511737	-1.7258667507436942	7.126626464400979	1.319643913436733	0.2150206189170836	2.693167848695765	0.8534894778824865	-0.4434223134628859	1.2969117913453725	49.306597518829136
5	2.0	wm	323	diff_vonmises	-0.006177370246758	-0.3539372436289223	3.726889703834037	0.685834413063196	0.1168250863025714	2.2680904699581643	0.1028822276134601	-0.3475784694488427	0.4504606970623028	66.76773004577555
6	3.0	ltm	323	diff_vonmises	0.0057269735468033	0.3281314136148974	3.1380919836303467	0.6047799099613828	5.808052118752495e-15	1.5014495616734922	0.1673752323403479	-0.2381988959355888	0.4055741282759367	77.53567660323333
7	3.0	perception	323	diff_vonmises	-0.0137953291491358	-0.7904141372392839	3.8672055711058992	2.2232372869975148	0.257433291110536	2.9648008365163334	1.0776105091193082	-0.4293191522304882	1.5069296613497964	65.9426544813318
8	3.0	wm	323	diff_vonmises	-0.1182202282773764	-6.7735201333668185	3.271169073499645	0.854805241451258	0.1558652863722215	1.8614713912402496	0.2438107196945619	-0.2740007888451628	0.5178115085397248	71.17545856371444
9	4.0	ltm	323	diff_vonmises	-0.1160464657815366	-6.648972716691374	3.0305453161783613	0.6107573884476276	0.0577618511333541	2.397977708155297	-0.0016943690595606	-0.36698522401912	0.3652908549595594	75.06453405822904
10	4.0	perception	323	diff_vonmises	-0.073962781013986	-4.237755193151736	1.8957828305281368	4.061590150423688	0.3972661918100958	5.730080519530835	0.723660071405569	-0.6062945013223437	1.3299545727279127	84.87016956593519
11	4.0	wm	323	diff_vonmises	-0.0909111939780142	-5.208827725435362	0.8780903988685509	319.2639430994719	0.8679628706830734	321.2702060816245	-0.0186967463121163	-0.4409885449500308	0.4222917986379144	84.95204579159835
12	5.0	ltm	323	diff_vonmises	-0.0425442207300217	-2.4376042905032307	1.277866212162959	1.4206344467459189	0.0865638469732226	2.441933809977691	0.1359115811191882	-0.3123582601055853	0.4482698412247735	111.72980763998356
13	5.0	perception	323	diff_vonmises	-0.004957821820238	-0.2840622658775099	1.7730063868118244	3.139812556769986	0.2570206689010159	3.992863328257564	0.6972289903922888	-0.4483034768790299	1.1455324672713187	92.5160758507012
14	5.0	wm	323	diff_vonmises	-0.0046489048492572	-0.266362627220345	0.5637628868971797	110.56870941994325	0.5429753312834913	111.6909451915157	0.1468457264658802	-0.3436675516836036	0.4905132781494838	114.8842774245809
15	6.0	ltm	323	diff_vonmises	-0.1182668954230938	-6.776193963858348	0.350096357078783	142.5570165037582	0.3398214767156838	143.48655804295905	0.0633160996171966	-0.2898931812277716	0.3532092808449683	137.40965584452292
16	6.0	perception	323	diff_vonmises	-0.0202554920848263	-1.1605542084211935	0.4421733440059461	221.20800129548812	0.4285027214718194	222.09950941692605	0.3507129437816516	-0.4487057289153711	0.7994186726970227	130.56519430214144
17	6.0	wm	323	diff_vonmises	-0.0411987648141374	-2.3605153450021525	0.4026117486256085	207.7397961278244	0.3926976734699543	208.77205503014903	0.1434446329200298	-0.359855688766487	0.5033003216865168	132.42600995396737
18	7.0	ltm	323	diff_vonmises	0.1152610016856618	6.603968939038691	0.8008317054948918	131.47402086064542	0.78251192634209	132.80882926601993	0.0591039865730422	-0.3187116579239273	0.3778156444969696	92.30738826417212
19	7.0	perception	323	diff_vonmises	0.1096852347950764	6.284501028659365	0.7512757751565644	102.36870551398002	0.7128967689109933	103.60178329008455	0.395749513066562	-0.4486420217806728	0.8443915348472348	102.6061197475892
20	7.0	wm	323	diff_vonmises	0.0360613289439627	2.0661619521220214	0.6880585886500383	129.807065272446	0.6716807124319157	131.23590361206766	0.0059336155416858	-0.3225333861287272	0.328467001670413	97.85129103755692
0	1.0	ltm	490	diff_vonmises	0.1259689262557815	7.217487824250984	3.978659022683279	0.3083428880988588	0.0243073621455716	3.129014493122424	-0.2738026599692478	-0.4937450157386109	0.2199423557693631	66.00297857195113
1	1.0	perception	490	diff_vonmises	0.0373756033295417	2.1414643275378498	9.875950923723265	0.6913398301089961	0.0575214132538917	3.576718642008997	0.2527415037893278	-0.5799711077670839	0.8327126115564117	42.53897052335845
2	1.0	wm	490	diff_vonmises	0.0850762820636325	4.8745118989106935	3.780578301960718	0.4661852114885324	0.0479317063252087	3.3427801316091843	-0.2103047733086576	-0.5238804506368501	0.3135756773281924	66.74114592836301
3	2.0	ltm	490	diff_vonmises	0.0403640560783879	2.3126900573210047	2.9210115433699766	0.8782817422354319	0.3190215460630344	2.4397565168819986	0.0456354576315474	-0.3500427539361901	0.3956782115677375	68.6802152860331
4	2.0	perception	490	diff_vonmises	0.0150043074516835	0.8596834914981578	6.285705198403937	1.3816173379590249	0.2654579308791376	3.000184248196528	0.7401811747135028	-0.4921659000029215	1.2323470747164242	51.763312715499694
5	2.0	wm	490	diff_vonmises	0.1073385593014741	6.150046426989172	4.25680395445609	0.6299601218206037	0.1584819648063293	2.315726555229365	0.0718594626536139	-0.3616356906034658	0.4334951532570797	61.61767292242845
6	3.0	ltm	490	diff_vonmises	0.0761061158618677	4.360559234018671	3.1509619477181188	0.7051793912745498	0.2186841355948815	1.9508525829016032	0.093084608890425	-0.286499113910398	0.379583722800823	69.56543291132911
7	3.0	perception	490	diff_vonmises	0.011487014913335	0.6581574737379324	5.036779265896125	1.6275990667787636	0.0830876764628058	2.918781643693784	0.9128327069371818	-0.454675687619652	1.3675083945568338	59.62913592255225
8	3.0	wm	490	diff_vonmises	0.0652770519898432	3.740099578074072	3.923725040705445	0.5716408684502511	0.0553095483229554	2.0373532123361704	0.0924595275449333	-0.3165637326520714	0.4090232601970048	66.8563173199407
9	4.0	ltm	490	diff_vonmises	0.1174114434803058	6.727180177960328	0.5400810099871394	80.22801048517981	0.5143349199549956	82.68501258123021	-0.2252273609456345	-0.4614303001508695	0.2362029392052349	100.29796290076484
10	4.0	perception	490	diff_vonmises	-0.0450454624836916	-2.58091488653042	1.634803886258637	3.975867330737928	0.330831763583359	6.296161838018319	0.4569124228471903	-0.6707582312128813	1.1276706540600716	89.87185969033578
11	4.0	wm	490	diff_vonmises	0.0533074136884122	3.054289821103937	0.7484975727512048	170.34694794579028	0.7297711022476767	173.05088915769042	-0.175951555206403	-0.5367386745489284	0.3607871193425254	87.73941563754045
12	5.0	ltm	490	diff_vonmises	-0.0394707110704157	-2.2615051587151167	1.940115779125129	0.9700055210700744	1.3412161919629076e-17	2.190441852857538	0.1426597461707689	-0.3384762625696731	0.481136008740442	98.42469144816364
13	5.0	perception	490	diff_vonmises	-0.0679396522799536	-3.892655337227703	1.5097989792960245	4.803263223202195	0.4647468673564772	5.961928224534762	0.6569028081528479	-0.4961720997037349	1.1530749078565827	91.37950484242096
14	5.0	wm	490	diff_vonmises	0.0935146734853355	5.357996113253671	1.1963539879059977	2.3592440142276465	0.2286254247834731	3.673876598224013	0.1674677739940765	-0.3778834332007023	0.5453512071947788	105.28402105853024
15	6.0	ltm	490	diff_vonmises	-0.0531522189310084	-3.0453978165021423	0.5100184532213922	165.3964116761865	0.4976730169037399	166.48448453098868	0.1138668899123658	-0.3285629273574422	0.442429817269808	119.54199509102948
16	6.0	perception	490	diff_vonmises	-0.1189784890272233	-6.816965274103473	0.5964141792559059	84.56662051693408	0.5587139160963724	85.64025126156075	0.3252704629614591	-0.4257718663135241	0.7510423292749833	115.49900847340592
17	6.0	wm	490	diff_vonmises	0.0413028949559266	2.3664815626467743	0.5821780488308647	184.7078549375231	0.5689256119612622	185.82308524078215	0.1725029281149446	-0.3506965077588262	0.5231994358737708	113.18650348020928
18	7.0	ltm	490	diff_vonmises	-0.0749204998669305	-4.292628441385563	1.2832664434187953	3.132597991516352	0.4258405578690954	5.569987481327969	-0.0620682338046305	-0.5136460480271928	0.4515778142225622	87.54505860580838
19	7.0	perception	490	diff_vonmises	-0.0034873912382044	-0.1998127994600161	0.8052318054577176	174.20266066709297	0.7722422561194652	176.44657664509143	0.4280079864231823	-0.6701701273040328	1.098178113727215	96.78669270355216
20	7.0	wm	490	diff_vonmises	0.1028163657090265	5.890943820000822	1.759671580179033	1.3486138698000825	0.2112884100557771	3.711591388895707	-0.0779076984895611	-0.4829571072982236	0.4050494088086625	85.95809826086051
0	1.0	ltm	179	diff_vonmises	-0.1677704152854818	-9.612536723015223	3.237019153216962	0.3625149811035315	1.5809360870861292e-17	1.0326928727571258	0.0835062382134586	-0.163975668422055	0.2474819066355136	76.31231597531018
1	1.0	perception	179	diff_vonmises	-0.0821248512623186	-4.705407370470492	16.479925629786596	0.6747549194319257	1.4538492257823322e-16	1.6104761085229056	0.8277067270380172	-0.2563152334028148	1.084021960440832	33.36165307647573
2	1.0	wm	179	diff_vonmises	-0.0369032537786369	-2.114400691816104	5.8362849775021495	0.3501644920470301	1.2550442536690508e-21	1.1338197346794403	0.149110348958823	-0.1804502059316922	0.3295605548905153	56.41920249823167
3	2.0	ltm	179	diff_vonmises	-0.0368575769550248	-2.1117836026015664	2.622113805471036	1.1541087916919064	0.8927973735594456	1.4571263219818775	0.231188529028529	-0.1439317015265775	0.3751202305551065	68.29155820294426
4	2.0	perception	179	diff_vonmises	-0.0376272647817215	-2.155883466613884	7.146877213103107	1.1931751088097444	0.4432698119964814	1.482591610335609	0.898456100123741	-0.2512521097723778	1.1497082098961189	48.76178267162672
5	2.0	wm	179	diff_vonmises	-0.0280031616458053	-1.6044629753272668	4.227733153791313	0.5030377955797873	0.3810447537088363	0.8544649025595312	0.2065211195785663	-0.128059194255959	0.3345803138345254	61.17170390921905
6	3.0	ltm	179	diff_vonmises	0.0377594841865937	2.163459080482792	1.7173045102672098	106.2227343817884	1.6985348182599609	106.37854122704026	0.2603729728430934	-0.1252057558026091	0.3855787286457026	69.85529465663666
7	3.0	perception	179	diff_vonmises	-0.0392816461728961	-2.250672538033169	4.529851788834952	1.9885003690194711	0.5529268005308989	2.1450192589133827	1.0848566235446062	-0.3101185835068407	1.394975207051447	59.56210144169438
8	3.0	wm	179	diff_vonmises	-0.0836385479473527	-4.792135801985888	1.7000190074162411	110.5726375067894	1.679369817377937	110.86857889865088	0.2458267002354048	-0.1569108885163732	0.4027375887517781	68.78302872020126
9	4.0	ltm	179	diff_vonmises	-0.2103950146099864	-12.054746367745516	1.6417672532142529	126.45803300365311	1.6213051758685066	126.87171598043372	0.252103239089692	-0.1880740382514893	0.4401772773411814	69.26983558645873
10	4.0	perception	179	diff_vonmises	-0.0988138330671529	-5.661615592258119	3.010512136449349	1.8941634316686695	0.0918621258874919	2.545983062324097	0.7997512374427209	-0.3727366090095325	1.1724878464522537	76.81327255031354
11	4.0	wm	179	diff_vonmises	-0.1793707643760149	-10.277187766781193	1.44162117563914	214.80600803938512	1.4279663639141782	215.4862645644473	0.2339234748603473	-0.2422281465147868	0.4761516213751342	72.44600889043147
12	5.0	ltm	179	diff_vonmises	0.0381349531447541	2.18497186712356	1.5897373603151548	1.3400206370171253	0.2365512267700563	1.2355561740623944	0.3555910807729925	-0.1280544917978326	0.4836455725708252	100.37444037523667
13	5.0	perception	179	diff_vonmises	-0.0284055576564939	-1.627518568432622	2.30200584303603	1.7863317575655948	0.0976477568319456	1.619797581848445	0.719057718200026	-0.2232206215212192	0.9422783397212452	88.23635417112465
14	5.0	wm	179	diff_vonmises	0.0183751660559148	1.0528194628559726	0.9029625084261074	23.99870617662818	0.8389670562661263	23.89847464101441	0.3240249123269318	-0.1148963490976124	0.4389212614245443	101.86360271281546
15	6.0	ltm	179	diff_vonmises	-0.1617540330195767	-9.267823411241505	0.4142404050680925	66.98435784431244	0.3980020521849136	66.87322961389361	0.2251287740543972	-0.1213305165825877	0.346459290636985	136.81805803266064
16	6.0	perception	179	diff_vonmises	-0.0038092125945304	-0.2182518049346746	0.746570305213492	44.59575017307006	0.6978686193979674	44.597660445391774	0.4137512721858432	-0.1983131070818511	0.6120643792676943	109.950141418994
17	6.0	wm	179	diff_vonmises	-0.1153888473628484	-6.611293956770474	0.5240921896570248	42.30947033657059	0.4929272852435254	42.13802304012935	0.2888265579115767	-0.1319028035365317	0.4207293614481084	128.23201414737576
18	7.0	ltm	179	diff_vonmises	0.0654541625665792	3.7502472666281697	1.1190746880837978	112.0429817523201	1.0995924986986518	112.2602925454942	0.3298758733079197	-0.1653279376892023	0.4952038109971219	87.16955386883006
19	7.0	perception	179	diff_vonmises	-0.0493781337555377	-2.829158664424776	2.0659931766688016	1.5209382084009166	2.5715947834539e-16	1.7432685946761812	0.5226980545699571	-0.2646064332378442	0.7873044878078013	95.52448449785138
20	7.0	wm	179	diff_vonmises	0.1540365685915797	8.825645270974936	1.826489496777541	0.849964367080369	0.131709207048617	1.007708161282372	0.2328321373083321	-0.1292278758708073	0.3620600131791395	96.22278800266352
0	1.0	ltm	300	diff_vonmises	-0.1090344887762643	-6.24721602824649	2.3154504669928246	0.2968037949725821	1.5502085625981616e-18	1.6723678037363063	-0.0989948110549406	-0.2645362901003006	0.1655414790453599	90.36206105828212
1	1.0	perception	300	diff_vonmises	-0.0401160598276394	-2.298480918818048	14.992233252411792	0.6318719491842921	0.0021837261159011	2.2245241014601325	0.6126419367482712	-0.3542577661117701	0.9668997028600412	34.9772779944598
2	1.0	wm	300	diff_vonmises	0.0337245699498287	1.932275524018908	3.990925834844575	0.3285432754054541	6.390118052635886e-21	1.8251424902188635	-0.0381912836894485	-0.2903942651178644	0.2522029814284159	68.54037180174464
3	2.0	ltm	300	diff_vonmises	0.0549217194704982	3.1467827292610275	5.569985434104312	0.3239529159132761	0.0230902918975719	1.176132683245521	0.1059362399918871	-0.1860925788754136	0.2920288188673007	57.158643435548015
4	2.0	perception	300	diff_vonmises	-0.0090934955562516	-0.5210189163941905	7.411436626445987	1.2780607746600017	0.4029624953191311	2.0834534831638325	0.8860763243592185	-0.3588520833871835	1.244928407746402	47.68978866813876
5	2.0	wm	300	diff_vonmises	0.0567886610152717	3.253750600374185	4.651936673304354	0.4238702870157609	0.1675946521863942	1.4080573691364264	0.0904867021915065	-0.2215665391550271	0.3120532413465336	59.41990447909782
6	3.0	ltm	300	diff_vonmises	0.0900160850268688	5.1575417603303455	1.5414634062615156	75.3978191727681	1.5136572685846956	75.91350714705908	0.1400323617556438	-0.1759058776288746	0.3159382393845185	69.3349413428634
7	3.0	perception	300	diff_vonmises	-0.0135882423039579	-0.7785489350179139	4.826955946930335	1.864704903575974	0.3709950918610415	2.3394511676087104	1.0652934820650293	-0.3543966152140257	1.4196900972790552	58.77985834613261
8	3.0	wm	300	diff_vonmises	-0.0365161584175552	-2.092221761357033	3.405356072625396	0.6762766111664428	0.4689052957169347	1.4234234370023908	0.1327986767900412	-0.204503806248567	0.3373024830386082	64.01314911743657
9	4.0	ltm	300	diff_vonmises	-0.1193184257512819	-6.836442213693532	1.2758459398482105	137.1190023766726	1.25802275669402	138.20083102599537	0.0250135601658811	-0.2698143389145073	0.2948278990803885	71.35966887554346
10	4.0	perception	300	diff_vonmises	-0.0759921379113463	-4.354028778496246	2.643521714294053	2.23603471296692	0.2338728396918719	3.4068895146545106	0.6856858618077695	-0.454835057754797	1.1405209195625663	77.85386315264898
11	4.0	wm	300	diff_vonmises	-0.1003068446443936	-5.747158854398178	1.199715322943696	262.7263521831555	1.1882715457632025	264.08848237447165	0.0423827966161951	-0.3358377262714	0.3782205228875952	73.90456093146415
12	5.0	ltm	300	diff_vonmises	0.05857737697777	3.356236475773015	1.6681036646648884	1.243161678243102	0.3109929173880829	1.9071702581984784	0.1699463923393189	-0.206607017619859	0.3765534099591779	90.5163015842622
13	5.0	perception	300	diff_vonmises	-0.0248782977533416	-1.4254214627362738	2.197422112281537	2.143050050827109	0.1872067339861097	2.722713326550684	0.6519218611980909	-0.3492151833998569	1.001137044597948	86.55680168700701
14	5.0	wm	300	diff_vonmises	0.0964015826985187	5.523403827006501	1.6549027188071015	0.9133248553151708	3.526860197706234e-16	1.695693570258015	0.1500495104914025	-0.2545391272167728	0.4045886377081753	105.82831470832724
15	6.0	ltm	300	diff_vonmises	-0.2015225188379962	-11.54638980626281	0.4936161577171853	124.97280398391308	0.48121685987641	125.6288654654429	0.1294525346701753	-0.237640215673041	0.3670927503432164	123.14220533498556
16	6.0	perception	300	diff_vonmises	-0.0398016238074278	-2.280465061933033	0.6689858230095721	232.66075805198693	0.6559996674968476	233.42926493651717	0.3624669100439774	-0.3502318914278142	0.7126988014717917	109.39708276673991
17	6.0	wm	300	diff_vonmises	-0.0327466229799708	-1.8762432900584445	0.4656416486054345	69.18604954373602	0.4392591576361898	69.93139465320218	0.1629205428432456	-0.2873299197620316	0.4502504626052772	127.34401484348643
18	7.0	ltm	300	diff_vonmises	0.0507565469097166	2.908135920584546	1.0609213485756133	173.48256209415783	1.0449676387648454	174.6018811757047	0.1289408944841668	-0.296895356065356	0.4258362505495228	81.62144965139527
19	7.0	perception	300	diff_vonmises	-0.0266268426732512	-1.5256057069361335	1.9053374262078653	1.7228271836438116	3.7570072144324794e-16	2.8561026766054733	0.4084426332502184	-0.4354592585436654	0.8439018917938839	99.26868503711609
20	7.0	wm	300	diff_vonmises	0.1879862314235011	10.770817667136187	1.6773586722762643	1.0054023273643533	0.2563480526735672	2.1382630435455	0.0334733581248389	-0.257672631520199	0.2911459896450379	88.25876963983276
0	1.0	ltm	467	diff_vonmises	0.0102092428927168	0.5849465297766071	5.350489213620897	0.2851857719780714	4.686439392259718e-21	3.228177742359186	-0.2574531047449463	-0.5137746700219911	0.2563215652770447	58.98396716387845
1	1.0	perception	467	diff_vonmises	-0.0303119250020496	-1.7367453715345225	16.29400418750393	0.5891053640743756	0.0145741916696615	3.5915343257346173	0.3610534676824133	-0.5755730290651517	0.936626496747565	33.45617280974514
2	1.0	wm	467	diff_vonmises	-0.0294981246126732	-1.6901180438571513	3.983985644052823	0.4151507557446453	0.0367530356361876	3.663283811033653	-0.2861772470402439	-0.57693183006504	0.2907545830247961	65.33652631718135
3	2.0	ltm	467	diff_vonmises	-0.0091624095165631	-0.5249673954695683	3.582340002009971	0.5513151034091083	0.0325287030218492	2.33543651155605	0.0150061425640786	-0.3642291903483702	0.3792353329124489	70.46204702964448
4	2.0	perception	467	diff_vonmises	-0.0309275795290455	-1.772019777569514	7.393125448612936	1.1854167563385838	0.2073706574014806	3.13289642099545	0.6555487823705921	-0.5210045061432848	1.176553288513877	48.16938890882645
5	2.0	wm	467	diff_vonmises	0.0016438239065502	0.0941841721080371	3.5291573708415584	0.7787161258637715	0.1580563603099153	2.928916044845353	0.0162525488974299	-0.4474238708430583	0.4636764197404883	66.59500169543335
6	3.0	ltm	467	diff_vonmises	0.0013688935339941	0.078431822100615	2.428965408579965	1.3994811637729363	0.4020212170067722	3.021451430725663	0.1202677654119258	-0.390763006273505	0.5110307716854309	73.11059158513729
7	3.0	perception	467	diff_vonmises	-0.0304589855428384	-1.7451713198546357	4.066231343779043	2.3910776369216	0.2631132726400493	4.007493734917978	1.0392628200189915	-0.5963125088057915	1.6355753288247832	63.71417557116388
8	3.0	wm	467	diff_vonmises	-0.0437792257439206	-2.5083648654771338	3.160234752308021	0.8913637295661104	0.16958310211678	2.930551704622333	0.0525801227068305	-0.4375806254287164	0.490160748135547	69.992079448579
9	4.0	ltm	467	diff_vonmises	-0.0561406040414203	-3.2166196708884778	1.601562808033837	1.542979239125196	0.2183961447310477	3.938343551753323	-0.0751223220890975	-0.4938030957127566	0.4186807736236591	89.0090004068407
10	4.0	perception	467	diff_vonmises	-0.0621983834373125	-3.563704863494412	1.82114730824474	3.972788894257961	0.3555916513210219	6.17650217412772	0.5767383466144762	-0.6755166480816925	1.2522549946961687	86.08908616673278
11	4.0	wm	467	diff_vonmises	-0.1114351621112922	-6.384764478333184	0.7491499664169929	232.5095830561465	0.7341761492232286	235.21851866759195	-0.1240116481561699	-0.5557922974164917	0.4317806492603218	89.62942051336648
12	5.0	ltm	467	diff_vonmises	0.006667116072935	0.3819976125030136	1.4720930383300668	1.9777935077106013	0.2448860869717567	3.4273642621106006	0.1604706744707167	-0.3836898245407033	0.54416049901142	95.73670900325544
13	5.0	perception	467	diff_vonmises	-0.0234937440949752	-1.3460923816024817	1.6675788044226818	3.5165155225860727	0.2953644828043849	4.97573619036817	0.5832026482112489	-0.5363892589907694	1.1195919072020182	92.17406082049617
14	5.0	wm	467	diff_vonmises	-0.0578639855701058	-3.315362158972963	0.5971884127743764	138.06443257536347	0.5764659104806964	139.78623094252697	0.0912033646543619	-0.4423721905564832	0.5335755552108452	108.60632723974364
15	6.0	ltm	467	diff_vonmises	-0.1573062159741377	-9.012982266491502	0.973175117538389	1.5339761971351746	4.406050748561417e-16	2.9070179000051586	0.0537164951780087	-0.3889297560751422	0.442646251253151	129.51593241690497
16	6.0	perception	467	diff_vonmises	-0.0058024544115404	-0.3324561485983314	1.059726176073171	2.762919493219852	0.1159105769138291	4.213231867716673	0.2247906407311254	-0.4780410031482704	0.7028316438793959	118.13617963552248
17	6.0	wm	467	diff_vonmises	-0.0460395041048246	-2.637869276081682	0.4265714226234617	245.96770396390227	0.4175700756540786	247.5085323467565	0.0514539647313228	-0.4214421180670449	0.4728960827983677	126.83424908293556
18	7.0	ltm	467	diff_vonmises	-0.0848563632004351	-4.861911476214165	0.8864251930446404	254.69077828464623	0.8728926232897215	256.6433249923882	0.0369759783592655	-0.4479393650582572	0.4849153434175228	86.16953686708854
19	7.0	perception	467	diff_vonmises	0.0514870194157225	2.949988912229027	0.5638436319427466	196.1103108708644	0.5437721792182487	198.0121795175756	0.2563489709551376	-0.5864924301340508	0.8428414010891885	114.9401323890456
20	7.0	wm	467	diff_vonmises	0.0431280763047528	2.471056750780509	0.8302231490286086	115.43186833036776	0.80491266627174	117.5067275656971	-0.0741425340475032	-0.4354033677955709	0.3612608337480676	86.03426932491445
0	1.0	ltm	156	diff_vonmises	0.0705149501000588	4.040209033308972	4.524439692432374	0.2975190903071177	0.0105935648800104	3.426761668805403	-0.3066357480055967	-0.5431615415784284	0.2365257935728317	63.05220474022684
1	1.0	perception	156	diff_vonmises	0.0190692732834779	1.0925888775248669	11.9034165279914	0.6555508294528714	0.051768897940878	3.778266619058387	0.2595736739508095	-0.6143895880966407	0.8739632620474502	38.83158081342049
2	1.0	wm	156	diff_vonmises	0.0905894367599655	5.190392394813301	3.4117723164784888	0.4989974079535896	0.0440653604627978	3.749345668973592	-0.2718988668736486	-0.5855949002503212	0.3136960333766725	69.9998189284602
3	2.0	ltm	156	diff_vonmises	0.0266209678590182	1.5252691048751592	3.577568037806948	0.561070802668571	0.1016728694905566	2.2226193011902606	0.015061608302239	-0.3415688744065517	0.3566304827087908	67.85836654538971
4	2.0	perception	156	diff_vonmises	-0.0017243465060469	-0.0987977772146224	6.771735069011717	1.267673061980224	0.2427607958588872	2.9817166268256967	0.6936952199087594	-0.4934861559898347	1.187181375898594	50.06582353215387
5	2.0	wm	156	diff_vonmises	0.0825058637610678	4.727237778590551	4.056173781214553	0.6992009944922938	0.1690222886857045	2.574399204747145	0.0599348574564531	-0.4000292473414877	0.4599641047979408	62.63800981198554
6	3.0	ltm	156	diff_vonmises	0.0159380982863434	0.913185765272172	2.9801140786085294	0.8162411501661622	0.2646562751966217	2.1291358749270075	0.0986767925303246	-0.3060834769323739	0.4047602694626986	70.18839852284705
7	3.0	perception	156	diff_vonmises	-0.0033786087783746	-0.1935800236267207	4.320005006323032	1.879698521321328	0.1648978805934171	3.1920758524202792	0.911841165731586	-0.4845691961525762	1.396410361884162	63.19217370288004
8	3.0	wm	156	diff_vonmises	0.0118070869785542	0.676496252215032	3.377602766028735	0.7197148850312146	0.1390124040631689	2.302440280735531	0.0849157898350755	-0.3476311602217438	0.4325469500568193	69.15553577602267
9	4.0	ltm	156	diff_vonmises	0.0157829136230067	0.9042943390178186	1.0710800754440335	2.9173702026522883	0.3911878902291834	5.209742166187031	-0.1445151893070382	-0.4525117728542036	0.3079965835471654	91.15325774461104
10	4.0	perception	156	diff_vonmises	-0.0699963354570778	-4.010494603072479	1.6049804157530128	5.006361773981019	0.471976639766086	7.009181316349319	0.5666373800100022	-0.636351783296152	1.2029891633061542	87.19427049832919
11	4.0	wm	156	diff_vonmises	-0.0147708677075965	-0.8463083793913593	0.7738845670670359	178.54580517900823	0.7555707953292373	181.09245926416952	-0.1273161200998629	-0.5196047527020369	0.3922886326021739	87.79643323958689
12	5.0	ltm	156	diff_vonmises	-0.0190890666969039	-1.0937229565763316	1.2662145781091156	2.049109871007512	0.2299858819027322	3.743017150006611	0.0618829385819279	-0.4073680794479971	0.4692510180299251	100.38250548493684
13	5.0	perception	156	diff_vonmises	-0.0393099844682325	-2.252296202754541	1.441999774397092	5.14824175884424	0.4555841257352939	6.809440710713148	0.5535773502216483	-0.5697439858146836	1.123321336036332	91.66027187751374
14	5.0	wm	156	diff_vonmises	0.0468949296552615	2.6868815498093714	0.575127799255926	213.36449390734907	0.5617078531605858	215.22516680286523	0.0594679583725721	-0.4617610941129975	0.5212290524855696	109.40980670873024
15	6.0	ltm	156	diff_vonmises	-0.0994981564096564	-5.700824431605857	0.4804841422209013	260.6926249034201	0.4712198707040694	262.51706714104506	0.0092514847981775	-0.4497430305372241	0.4589945153354016	118.56689712072966
16	6.0	perception	156	diff_vonmises	-0.0800373535412187	-4.585802561308289	0.5595770697626845	306.44168152845344	0.5471888262498418	308.2270481136194	0.2584882603110401	-0.5609372503224712	0.8194255106335113	115.24085154309807
17	6.0	wm	156	diff_vonmises	-0.0236191665472165	-1.3532785587720866	0.5222620617427843	274.13162067235385	0.511739833676063	276.0573693915562	0.0610980298812648	-0.4927406424599638	0.5538386723412287	115.1261040826724
18	7.0	ltm	156	diff_vonmises	-0.0663334018957376	-3.800623969370863	0.7387395593476221	225.0724478880675	0.7240522253534591	227.67214561430143	-0.1209054863866185	-0.5324556742560205	0.4115501878694019	90.21647691821045
19	7.0	perception	156	diff_vonmises	0.0124400964898714	0.7127650256051445	1.6722239011669229	2.893241582302958	0.1647286629825194	5.355473286638712	0.3405612392341967	-0.6764891467386226	1.0170503859728193	94.99398900753052
20	7.0	wm	156	diff_vonmises	0.1517020132821655	8.691885104705642	1.5341196478309358	2.017766797121775	0.3446766691110128	4.615718869313399	-0.1208199354885453	-0.5255435756643292	0.4047236401757839	83.7520597590366
0	1.0	ltm	35	diff_vonmises	-0.0177565314037264	-1.0173743082250322	7.344886354985868	0.3117351657075149	0.0488815609774077	3.6918232638045794	-0.2857357648448618	-0.5947759555660443	0.3090401907211825	48.35541070760357
1	1.0	perception	35	diff_vonmises	0.0021479693516235	0.123069578371481	13.148822326238736	0.7558349751210998	0.0946296869849561	4.123019544986299	0.3628830697325499	-0.6873924695305811	1.050275539263131	36.74263506480048
2	1.0	wm	35	diff_vonmises	0.0179398175818013	1.027875832671806	4.441879203486497	0.4617769745459696	0.0755399287809553	4.154444146080172	-0.3362594683731679	-0.6595683269918298	0.3233088586186618	60.073817096873256
3	2.0	ltm	35	diff_vonmises	-0.0512124028435651	-2.934254541660058	3.80289863057441	0.4926378857655203	0.0295561354131537	2.095991010887436	0.0249092446409263	-0.327944834808114	0.3528540794490403	68.58248590804712
4	2.0	perception	35	diff_vonmises	-0.0329045472991722	-1.8852916870311591	7.922942542574678	1.1788054546679996	0.2738847364912701	2.9232240292845733	0.7009499432937034	-0.4999039247821384	1.2008538680758418	46.285922831583775
5	2.0	wm	35	diff_vonmises	0.0169764580937399	0.9726793998520036	3.680112891731168	0.7966183627877357	0.1977537790939904	2.7267567529338272	0.0613554935136558	-0.4171416142788112	0.478497107792467	64.79503620961978
6	3.0	ltm	35	diff_vonmises	-0.0071890185376467	-0.4119004210484701	2.4352838841697144	1.084496278910296	0.4653543654924764	2.084582946507552	0.1284477155348792	-0.2596692559922264	0.3881169715271056	72.6804152037474
7	3.0	perception	35	diff_vonmises	-0.0176930419301012	-1.0137366293428018	4.179236146832612	2.0393351140905494	0.3561734733616813	3.028507903428617	0.9389163031432174	-0.4468778497545755	1.3857941528977928	62.26799248343414
8	3.0	wm	35	diff_vonmises	-0.0471193162226663	-2.699737953101094	2.959904702694947	0.8905174173742789	0.3050205512563324	2.187437303994265	0.1172580513436971	-0.3106416242954619	0.427899675639159	69.73265748557802
9	4.0	ltm	35	diff_vonmises	-0.0834160132543006	-4.779385503278763	0.827643279947816	147.4714993482986	0.8073129588448016	149.3048393976741	0.013212402202626	-0.4119191476177839	0.42513154982041	88.92867259218815
10	4.0	perception	35	diff_vonmises	-0.0724201427170825	-4.149368529423915	2.192701093706168	3.16039015322759	0.3820283696782368	4.766140482026084	0.65116567615195	-0.5539242238046079	1.2050898999565578	80.25580030248429
11	4.0	wm	35	diff_vonmises	-0.1257209515092012	-7.203279917846107	0.8540002282952984	291.5428332859096	0.842905393337871	293.5755983626305	-0.016649306342245	-0.4465254405378616	0.4298761341956165	86.30300869355713
12	5.0	ltm	35	diff_vonmises	0.0077293355672735	0.4428583064451297	1.0572864711608871	3.9155607380270494	0.4060679965194451	5.489003840768562	0.1215139447833313	-0.4030635161439023	0.5245774609272336	99.49425510796974
13	5.0	perception	35	diff_vonmises	-0.0238789602563663	-1.3681636418504202	2.20345531665972	2.5486739097992657	0.1716246053543517	4.079430838276076	0.6284811130401674	-0.5406484058339656	1.1691295188741329	85.62368668123409
14	5.0	wm	35	diff_vonmises	-0.0459906116396226	-2.6350679441756184	0.6165619691468164	233.1875186949046	0.6039813432127165	234.87994939017523	0.1050642056450357	-0.4376509208500216	0.5427151264950574	106.76425401823096
15	6.0	ltm	35	diff_vonmises	-0.095427848742593	-5.467612980963379	0.476975335275123	93.75825179738504	0.4527157444046416	95.1805916208142	0.0841978348324126	-0.4012708318261406	0.4854686666585532	122.57126208224022
16	6.0	perception	35	diff_vonmises	-0.0276561977329113	-1.584583407475094	1.0114279800896755	2.613466486972642	2.031272533571657e-11	4.083355582294075	0.2487859628530166	-0.5310061117856163	0.779792074638633	128.10857994051838
17	6.0	wm	35	diff_vonmises	-0.1674307650268093	-9.59307619668276	0.4710693509528696	218.3211621126925	0.4592734871673095	219.81044962764275	0.1223757917445738	-0.441448701346534	0.5638244930911078	123.22642097867023
18	7.0	ltm	35	diff_vonmises	0.0750671349670256	4.301030013749492	0.7071172798850011	243.44281334648772	0.6962827596110911	244.93983058495203	0.0778299839001448	-0.3675229325444107	0.4453529164445555	98.72706589603064
19	7.0	perception	35	diff_vonmises	-0.0303043443612469	-1.7363110328105276	0.7630080792554521	190.47515970536236	0.742446721133259	191.77270924334616	0.3679356865046159	-0.4454500796140586	0.8133857661186745	100.68066663792924
20	7.0	wm	35	diff_vonmises	0.1656352162185681	9.490198828060798	0.8825874960991876	150.68799956757624	0.8633514916934459	152.17171800778996	0.0841999970894278	-0.3600345412359473	0.4442345383253752	88.17761419871829
0	1.0	ltm	375	diff_vonmises	0.0328045610501318	1.879562896951802	4.418336489518286	0.204572997175413	3.592265683027239e-20	3.1022728644318867	-0.3277331102363648	-0.4937179387299906	0.1659848284936257	65.05452386078562
1	1.0	perception	375	diff_vonmises	-0.0048174472781021	-0.2760193970620413	14.664400262214054	0.6534468624526925	0.0509845472943508	3.6096540048141073	0.3851769904532615	-0.5892598797394418	0.9744368701927032	35.068961533310585
2	1.0	wm	375	diff_vonmises	0.0120252622339872	0.6889967735455271	4.967110797389069	0.2616971130198966	2.136190577594653e-18	3.426325316691269	-0.3192032174280111	-0.5453056457016986	0.2261024282736874	61.26823103712823
3	2.0	ltm	375	diff_vonmises	0.0363643755013626	2.083525240857006	3.5881228776356004	0.4215055536151175	3.799791463574677e-24	2.2575573438332444	-0.0540226548477859	-0.3590680132121641	0.3050453583643782	72.3875437331034
4	2.0	perception	375	diff_vonmises	-0.0180613601660265	-1.0348397097790252	8.081646758893415	1.2472710967295293	0.2460558532210014	3.291848145003996	0.7312527588937919	-0.5602015943507255	1.2914543532445175	45.95146937533636
5	2.0	wm	375	diff_vonmises	0.0389204177723325	2.229975675240619	3.8201234751802913	0.5912464919151782	0.1002237451419787	2.8644053021592164	-0.0594181061973888	-0.4452638663982475	0.3858457602008586	65.288816401878
6	3.0	ltm	375	diff_vonmises	0.0614533706457399	3.52101877485404	2.6556813139745734	0.9944335760274832	0.4398968032618788	2.243266777148897	0.078676591902786	-0.3001522615011524	0.3788288534039385	69.57126379095493
7	3.0	perception	375	diff_vonmises	-0.0112224482846386	-0.6429989225136269	4.348379675075279	2.238698543384693	0.2907369040469913	3.5351205849821463	1.064142567744656	-0.5312673736462545	1.5954099413909104	61.70006372743183
8	3.0	wm	375	diff_vonmises	-0.0439800483240843	-2.5198711517514405	3.866302714064539	0.5977500056827022	0.1296042116945721	2.3076173882320794	0.0347158269439439	-0.356678444700325	0.391394271644269	64.81750093106479
9	4.0	ltm	375	diff_vonmises	0.0548898006233375	3.1449539140317966	0.7537906402021578	192.00610226818856	0.7397862147765438	194.35988033029457	-0.1743630041348041	-0.4608332633952834	0.2864702592604793	86.16548308036818
10	4.0	perception	375	diff_vonmises	-0.0550330069292219	-3.153159030958631	1.9621988914021025	3.7400506736461856	0.4133700851484878	5.916141327857668	0.542621118018344	-0.6500612925117562	1.1926824105301002	81.93309551607231
11	4.0	wm	375	diff_vonmises	-0.0489222842411354	-2.8030404111564406	0.7231054631217723	183.28050337453445	0.7076290943952834	185.97161164287232	-0.2287152761504032	-0.5155297761102737	0.2868144999598705	86.53360980431819
12	5.0	ltm	375	diff_vonmises	0.0438309936288574	2.511330946798332	1.8064623467016847	1.3010241420841842	0.2264743784422825	2.9425281918912694	0.0510666978970436	-0.3720905961753977	0.4231572940724414	86.94231936051361
13	5.0	perception	375	diff_vonmises	-0.0242026429345802	-1.3867092932135687	2.1953116669700106	2.5321901910440423	0.1575905359982533	4.23310218711272	0.5977364026216418	-0.5680243975154632	1.1657608001371051	85.98703642536776
14	5.0	wm	375	diff_vonmises	-0.01706739311041	-0.9778895925171563	1.4037626104258911	1.1554844146990162	0.0109271647232576	3.235712684891858	-0.0397655585348956	-0.4803461160814882	0.4405805575465926	112.35711507024176
15	6.0	ltm	375	diff_vonmises	-0.193335980140199	-11.077335690058508	0.4546683962685556	142.37349405410922	0.4407764092668475	144.11598521567663	-0.0443739444657893	-0.4033847176705691	0.3590107732047798	119.8908170459716
16	6.0	perception	375	diff_vonmises	-0.047299080442826	-2.710037684223704	0.4527227880627122	69.56029236606899	0.4100068833411699	71.35816014021196	0.1350436953357956	-0.5374093702493674	0.672453065585163	127.1181976253608
17	6.0	wm	375	diff_vonmises	-0.0251313032506584	-1.4399176099261335	0.4039765877917233	229.09141505258265	0.3947545586639734	231.0999394542126	-0.0689141521528853	-0.4665062908140776	0.3975921386611922	125.9155085920443
18	7.0	ltm	375	diff_vonmises	-0.0068997521247769	-0.3953266764361385	0.9091897918973662	242.6586373359953	0.8965314121536313	244.64443425923147	-0.054629277948706	-0.4268345128909381	0.372205234942232	82.29961694441454
19	7.0	perception	375	diff_vonmises	0.0345390572928204	1.978942211239156	0.5619275803118253	130.2244097138283	0.5335891823205806	132.12480279951805	0.2135308755212648	-0.5642427389623119	0.7777736144835767	114.95219025362115
20	7.0	wm	375	diff_vonmises	0.0555290312972069	3.181579133779814	0.8040131300834186	127.29340758730564	0.7834833499257406	129.47912698230454	-0.1577230851965581	-0.432284946152464	0.2745618609559059	83.74767587472238
0	1.0	ltm	421	diff_vonmises	-0.1328506594038823	-7.61178208937244	2.827727229019646	0.3008552450573094	4.796158015467551e-20	1.6262536646653287	-0.0683553146243835	-0.2581598824797232	0.1898045678553396	81.75640325042508
1	1.0	perception	421	diff_vonmises	-0.0549563595631385	-3.148767460371261	15.872796843498612	0.6466447742235093	2.868861065429024e-23	2.1785593553586096	0.672669105567415	-0.346728490224399	1.019397595791814	33.994002433622455
2	1.0	wm	421	diff_vonmises	-0.0057465382031178	-0.3292523858493439	5.716876444600931	0.2928227794609614	1.185375667182631e-21	1.7682825688823884	-0.0088452480536652	-0.281427960620848	0.2725827125671828	57.02080608312028
3	2.0	ltm	421	diff_vonmises	-0.0388103262940764	-2.2236678981761835	5.06429737594683	0.3720063443606388	0.02096220067659	1.2698062953769582	0.1184169441168012	-0.2004880442980751	0.3189049884148763	60.01617023659452
4	2.0	perception	421	diff_vonmises	-0.0303923473288937	-1.74135323144131	7.940003785988523	1.162574869086058	0.2819745751914888	2.1190901700297333	0.8465240008652495	-0.3593833485006664	1.205907349365916	46.6303342498114
5	2.0	wm	421	diff_vonmises	0.0040381249202462	0.2313675150767131	4.556513953025265	0.4190597597118127	0.1362921361473576	1.4481239987171317	0.0828346796499129	-0.2269602289572915	0.3097949086072045	60.474309462902
6	3.0	ltm	421	diff_vonmises	0.0533749996780301	3.058162213063257	1.4867407165618691	115.2833677048709	1.467319267421662	115.78753556169634	0.1780486638394052	-0.1825068103555569	0.3605554741949621	71.41113470153772
7	3.0	perception	421	diff_vonmises	-0.0300048424147588	-1.7191508353208056	4.423731222046984	2.058870797337095	0.4297430291529839	2.5450441884089816	1.0770455662721865	-0.3738427670921933	1.4508883333643796	60.6715161822826
8	3.0	wm	421	diff_vonmises	-0.0822928122160534	-4.715030824242487	1.9569173411290857	2.1732705323422783	0.9468700569991572	2.884337416508919	0.1499119863956663	-0.2180900231308371	0.3680020095265035	71.25945676901785
9	4.0	ltm	421	diff_vonmises	-0.1258269976514534	-7.209355914230801	1.32754759897059	143.21187859639994	1.3091295528119486	144.19479354708167	0.0856157804274175	-0.2661277281173966	0.3517435085448142	71.81203423980028
10	4.0	perception	421	diff_vonmises	-0.0983904106694704	-5.637355275919603	2.5388951909538884	2.428031419560753	0.2996574662135906	3.565564743350876	0.695094659306678	-0.4544611840977945	1.1495558434044726	77.93090746188531
11	4.0	wm	421	diff_vonmises	-0.1635974757452026	-9.373444899193965	1.2294689656116955	252.386009619446	1.2180206928039532	253.61502273632055	0.0617399204355848	-0.3119645338355425	0.3737044542711274	73.61643229239945
12	5.0	ltm	421	diff_vonmises	0.0756157318501607	4.332462299807168	1.9061146286561343	1.0583686088759612	0.2034915473936124	1.6465390962475883	0.2124175577655934	-0.2044396537507462	0.4168572115163397	89.98832432536153
13	5.0	perception	421	diff_vonmises	-0.0342882063387297	-1.9645695102829317	2.548539925360575	1.85046732122032	0.0753162879232116	2.3642549060407423	0.6978227010489728	-0.3425786037173869	1.0404013047663598	83.7797620545403
14	5.0	wm	421	diff_vonmises	0.0056866848007324	0.3258230385031613	1.0391498793364553	2.480127259880213	0.3765954545594975	3.1786894806550423	0.1540114366455787	-0.2280313171648	0.3820427538103788	104.7301761545446
15	6.0	ltm	421	diff_vonmises	-0.211222540613532	-12.10216011518601	0.4305277394596141	89.20162722094099	0.4161025194142891	89.75832443589756	0.1085311709830705	-0.2108583496798139	0.3193895206628845	130.0094782785235
16	6.0	perception	421	diff_vonmises	-0.0476878807701586	-2.7323143020531657	0.5728253269092454	54.31568208180507	0.5280043851585107	54.994540329876415	0.2871524682184194	-0.3219760131745799	0.6091284813929994	119.20360038919188
17	6.0	wm	421	diff_vonmises	-0.1348642896684351	-7.727154605031124	0.48449100885447	100.13234629921166	0.4692692799271947	100.74189081049217	0.136898392506044	-0.2328497530857891	0.3697481455918332	124.71423189738648
18	7.0	ltm	421	diff_vonmises	0.0787584953720675	4.512529385620097	1.0382674691304308	155.27364078290634	1.0225741032675963	156.03068895009048	0.197726963012073	-0.2383324822050578	0.4360594452171309	85.28955926462237
19	7.0	perception	421	diff_vonmises	-0.0512620771658	-2.937100670674293	1.9445503753550213	1.5949657929167298	6.268776260202469e-12	2.3202157913983896	0.4396632430838936	-0.3527198960540414	0.792383139137935	98.3156324921722
20	7.0	wm	421	diff_vonmises	0.1435680191970232	8.225841573042615	1.75916561628159	1.0240325603213485	0.3084731887067016	1.7642851098767816	0.115370022786704	-0.2007759799983655	0.3161460027850696	87.45654953669228
0	1.0	ltm	12	diff_vonmises	-0.0179216232350922	-1.0268333733943755	4.485541329251552	0.2772611402986648	6.822539053943883e-21	2.7740410894655745	-0.2146669819372016	-0.4414735366699617	0.2268065547327601	64.55199895165649
1	1.0	perception	12	diff_vonmises	-0.0114774763687948	-0.6576109553930807	13.746926169719794	0.6829124693670325	0.0411551867781224	3.3076623618899723	0.4520674548495118	-0.5362471294210343	0.988314584270546	36.29420524310302
2	1.0	wm	12	diff_vonmises	0.0581752165033309	3.3331943779006763	3.3921690467769485	0.4194580291342744	1.1290993463313755e-13	3.0719028086532414	-0.1944747755534419	-0.4885753690093101	0.2941005934558682	74.50575743265674
3	2.0	ltm	12	diff_vonmises	0.0606082786931177	3.47259857266832	4.510680927656764	0.3921644314864144	0.0070607735848245	1.6418271976010717	0.0586058796750533	-0.2600117384740811	0.3186176181491345	63.99944496780574
4	2.0	perception	12	diff_vonmises	-0.0117218889820278	-0.6716147665910943	7.104198840713343	1.2990542353633836	0.3409969161151088	2.499986967881606	0.8114211823169549	-0.4240922713601715	1.2355134536771264	48.66184725950271
5	2.0	wm	12	diff_vonmises	0.0476279398121147	2.728879938137285	3.972287829904873	0.6643632069809303	0.1952267763448863	2.1090023552705386	0.1046816032854743	-0.3249845109476621	0.4296661142331364	63.177407508126265
6	3.0	ltm	12	diff_vonmises	0.0302701404563082	1.7343512934146694	3.3236894075123726	0.6360943676582442	0.2853414571283976	1.48477904181665	0.1334009186688241	-0.2161788819366759	0.3495798006055001	67.48350717220376
7	3.0	perception	12	diff_vonmises	-0.0077245240222984	-0.4425826252251194	4.391641058939697	1.925325746972513	0.2807414210151512	2.6979013236808345	0.999583190162456	-0.4032141448193709	1.402797334981827	61.86856620887588
8	3.0	wm	12	diff_vonmises	-0.0462212653732412	-2.6482834296408946	3.6067018231889834	0.6866272262395523	0.2141540297240822	1.776618428421571	0.1523872042787818	-0.2663519110025271	0.418739115281309	66.26204100695469
9	4.0	ltm	12	diff_vonmises	-0.0929237104468853	-5.324136425302244	1.5758207996724374	1.7802820276486857	0.4586505734634842	3.3832446349850254	-0.0141722887567853	-0.3479308322291436	0.3337585434723583	81.40008638901045
10	4.0	perception	12	diff_vonmises	-0.0654251307471466	-3.748583865903097	2.198481161596684	3.0499737706023518	0.3226772532820879	4.470887062725932	0.7081108411583807	-0.5339060123367595	1.2420168534951403	81.96744737893184
11	4.0	wm	12	diff_vonmises	-0.0647205371858403	-3.708213628568152	0.952574618551363	283.0040923378251	0.9407527020687872	284.8803871441777	0.0154174572672758	-0.4269082086714064	0.4423256659386823	82.3881330801654
12	5.0	ltm	12	diff_vonmises	-0.0060503742340231	-0.3466609080842223	0.6887205291962479	69.13533804539817	0.6552805703807603	70.34082183009367	0.1072330132307293	-0.3191221419212402	0.4263551551519695	102.4763793999391
13	5.0	perception	12	diff_vonmises	-0.0035328579217597	-0.2024178485361937	1.594340180734904	3.742144580637692	0.3767403447836284	4.8756207457735	0.5901310333659342	-0.4668669045692734	1.0569979379352077	91.85942043792951
14	5.0	wm	12	diff_vonmises	0.053943121309652	3.0907131848052782	0.5597483480708783	91.42743179649048	0.5333440271462426	92.77144412245944	0.1141567153100915	-0.3782063823060708	0.4923630976161623	114.15849764972246
15	6.0	ltm	12	diff_vonmises	-0.144528985927498	-8.280900910951305	0.4557412214711488	210.20232298314335	0.445793867017257	211.4378225708465	0.0951550376898495	-0.3658681937613508	0.4610232314512004	124.7769877254485
16	6.0	perception	12	diff_vonmises	-0.0147936663231613	-0.8476146438419635	0.6077989274664649	302.1709798080336	0.5952266892923259	303.4368615282575	0.3841156511465442	-0.4924570716045977	0.876572722751142	113.22705824839086
17	6.0	wm	12	diff_vonmises	-0.0360997746773673	-2.068364730386392	0.4416922485763602	192.3090354886798	0.4282121590077437	193.6727776906788	0.1607274820130442	-0.4441982865561691	0.6049257685692133	127.71752526941792
18	7.0	ltm	12	diff_vonmises	0.0463053467538554	2.6531009378857253	0.8227213300571181	220.0980535053029	0.809786741773789	221.85320403638053	0.0073532871344497	-0.3924427532896111	0.3997960404240608	88.82847059115255
19	7.0	perception	12	diff_vonmises	0.0462772833859702	2.6514930253469773	1.9432091308125752	1.8245568629611884	8.297697212422904e-18	3.5318492332433657	0.3628512151215161	-0.543130864894864	0.90598208001638	98.34874602674616
20	7.0	wm	12	diff_vonmises	0.1919942436042494	11.00045984933009	0.745119693551505	96.937968293423	0.7189538757095798	98.74868007985138	-0.0377910739870834	-0.3881204986990774	0.3503294247119939	92.37732593059285
0	1.0	ltm	231	diff_vonmises	-0.0347109586580026	-1.9887914339566368	3.09023074830859	0.2952456612613877	2.0950610648424336e-22	2.6874791425125677	-0.2310661003982763	-0.4273186085178836	0.1962525081196072	78.14249208252778
1	1.0	perception	231	diff_vonmises	-0.0054940095505148	-0.314783559849068	12.523559624663624	0.7892542257624704	0.0428327183950992	3.321359865371033	0.5510234445103912	-0.5377189230992592	1.0887423676096504	38.03044290574948
2	1.0	wm	231	diff_vonmises	0.0285852750508539	1.6378156166345397	4.3506130828891445	0.3519318333558927	2.306925485642094e-18	2.875891656001817	-0.17451734893229	-0.4576652461951405	0.2831478972628504	65.57511641304185
3	2.0	ltm	231	diff_vonmises	0.0355232908193649	2.035334638365435	4.212004083065241	0.4392370658263152	0.0481991870465946	1.780406638917335	0.0501556048349918	-0.2784594983160891	0.3286151031510809	64.65628556639393
4	2.0	perception	231	diff_vonmises	-0.0148971159497722	-0.853541870838972	7.298536679684938	1.3811243721514004	0.2925635382145514	2.6666581732046613	0.9045162886307068	-0.4487392686231402	1.353255557253847	48.34949038492323
5	2.0	wm	231	diff_vonmises	0.0349158247433195	2.000529396010661	4.049095523968672	0.5734988598047408	0.1048369656618722	2.071244255604177	0.0788019529779239	-0.3210396246024268	0.3998415775803508	64.40173651860562
6	3.0	ltm	231	diff_vonmises	0.0794656130224506	4.553044242606255	3.7670843218510366	0.4380143291040214	0.0719251491488807	1.1212004852076016	0.1343364953932589	-0.1721274910079392	0.3064639864011981	68.28648106127233
7	3.0	perception	231	diff_vonmises	0.0017417351232932	0.099794071594399	4.523845434671728	1.8907192228067595	0.2567402723075287	2.479326979757152	1.05214481593862	-0.3720830051739447	1.4242278211125647	61.41573062413548
8	3.0	wm	231	diff_vonmises	-0.0752279285696166	-4.310242808550663	3.781895563187952	0.6054847996092358	0.1402603290384826	1.451944763299327	0.186846471624254	-0.2198318359017276	0.4066783075259816	66.73416429597634
9	4.0	ltm	231	diff_vonmises	-0.0882749430154829	-5.057781671545015	2.2128515082910227	0.8108094866363271	0.2481286941926386	2.5202609679519576	-0.0617390989585319	-0.3466057926076521	0.2848666936491201	76.72729114330451
10	4.0	perception	231	diff_vonmises	-0.057910247261921	-3.318012758667108	2.196462058825096	3.018654092785163	0.3090930729361066	4.715217083572176	0.6492690950403702	-0.573155700426313	1.2224247954666834	81.7978641228506
11	4.0	wm	231	diff_vonmises	-0.0528730170486296	-3.0294007270097247	0.914914977599404	288.0180268053397	0.904505173748166	289.9596575502378	-0.0575166509837856	-0.4165844426040834	0.3590677916202978	81.82540410149679
12	5.0	ltm	231	diff_vonmises	-0.0190009965743752	-1.0886769102542388	1.8172566725361927	0.8560546373321695	1.09005668088858e-16	1.7560025945057436	0.1372145779863013	-0.2684771436787211	0.4056917216650224	101.47077386688711
13	5.0	perception	231	diff_vonmises	-0.0228181357282608	-1.3073828735860198	2.111153690784539	2.548344949616576	0.1741460172047303	3.2658775847595907	0.7441970914474358	-0.4191355079801828	1.163332599427619	88.42156653110092
14	5.0	wm	231	diff_vonmises	0.0531608115868791	3.045890139418339	1.4862639501635824	1.1764131332009673	7.161946386524357e-19	2.181602466443812	0.1595228605951059	-0.3212812093593883	0.4808040699544943	110.87357711052304
15	6.0	ltm	231	diff_vonmises	-0.1000073989683928	-5.730001880969896	0.4447642831213685	120.9621121519156	0.4327469470037246	121.7046562035139	0.0948739263899121	-0.2459356464239697	0.3408095728138818	127.43837699106176
16	6.0	perception	231	diff_vonmises	-0.0538938002875837	-3.087887298399492	0.4519502230916283	116.73616071394282	0.4281929752860824	117.46237698029228	0.3434772581958434	-0.4011809274296887	0.7446581856255321	130.4313629846594
17	6.0	wm	231	diff_vonmises	-0.0133735856287965	-0.7662500134868533	0.4361475292276826	160.99737493949445	0.4242278435853537	161.82143171055552	0.1625437189979308	-0.3117382021903712	0.474281921188302	129.53530141714117
18	7.0	ltm	231	diff_vonmises	0.1348529243370557	7.726503419510322	0.8594043342348042	152.15541948716302	0.8441655266491831	153.36933371019092	0.0635759817712013	-0.2926792584772393	0.3562552402484407	89.14636014980067
19	7.0	perception	231	diff_vonmises	0.0557644920211293	3.195070039501664	0.7637450877430909	157.1674709957952	0.7398132835619373	158.25671820112674	0.3998212848079063	-0.4149334987169535	0.8147547835248599	101.71844856924102
20	7.0	wm	231	diff_vonmises	0.0671423943865298	3.846975824751032	0.684327855575498	128.7950530389238	0.6693242723323731	130.07617988100645	0.0108212877284188	-0.291748312279763	0.3025696000081819	98.35495967072067
0	1.0	ltm	352	diff_vonmises	-0.130047848695771	-7.451192865023589	2.4770485516957588	0.430455004297652	9.92527248544688e-21	1.892507458297907	-0.0488996692585126	-0.2994217906138898	0.2505221213553772	87.38989567870695
1	1.0	perception	352	diff_vonmises	-0.0509964372459792	-2.921880624398365	13.727027402432483	0.7362080875148483	1.0230942047331496e-19	2.400379081782195	0.6958769701116436	-0.3820321961587345	1.077909166270378	36.57594799324107
2	1.0	wm	352	diff_vonmises	0.0093115049618007	0.5335099352263071	4.924721230545319	0.3889725250001402	4.0481057542599704e-20	1.95160483794904	0.0239116189975062	-0.3105898963692452	0.3345015153667515	61.542679264606704
3	2.0	ltm	352	diff_vonmises	-0.0630752425184737	-3.6139451880726674	3.07126885179382	0.782965738602149	0.3394526803517489	1.688669682888246	0.1529257719906407	-0.2375891814629299	0.3905149534535707	68.91314753681331
4	2.0	perception	352	diff_vonmises	-0.0341766788999234	-1.9581794587394248	7.077575005616523	1.2261410057086684	0.1929242347195183	2.094784312110923	0.8760526346089391	-0.3410081745945138	1.217060809203453	49.81433868664769
5	2.0	wm	352	diff_vonmises	0.0027089811844183	0.1552131886475235	4.401822879117836	0.5111420630827592	0.1230527877350242	1.451304806569674	0.1537047742267269	-0.2252104826489814	0.3789152568757084	62.18934973931607
6	3.0	ltm	352	diff_vonmises	-0.0007590946046899	-0.0434929170998873	1.902983065727739	1.397403670637762	0.5637607497567497	1.898900948739688	0.2082491399824431	-0.1785306011445859	0.386779741127029	80.80631089113106
7	3.0	perception	352	diff_vonmises	-0.0250415570373207	-1.4347755306746066	4.152129430480309	1.963575775113669	0.2910967923091835	2.3881499333435503	1.0426251758362353	-0.3479902992005289	1.390615475036764	63.74644510440331
8	3.0	wm	352	diff_vonmises	-0.103052828636272	-5.9044921477433	2.0630409724741545	1.7937926112201217	0.7659793774429969	2.3412172540512843	0.2471999410442081	-0.2036003878386774	0.4508003288828856	74.99619481196424
9	4.0	ltm	352	diff_vonmises	-0.1653493410790841	-9.473819389100653	2.0672864352576963	1.566061614903543	0.641511823734789	2.607516891328912	0.1111952402742347	-0.2721019860874643	0.383297226361699	73.327775534164
10	4.0	perception	352	diff_vonmises	-0.1089167245413023	-6.240468634605583	2.260631991352044	2.8416670630355494	0.2937183163784961	4.031620133669138	0.7354220369668723	-0.492095944600285	1.2275179815671573	82.07054094238362
11	4.0	wm	352	diff_vonmises	-0.1536597303725968	-8.804054031467986	1.1713158148860308	266.16000582579534	1.1601418098551772	267.3948709357464	0.0930209298536652	-0.3180867835771011	0.4111077134307663	76.30074704200658
12	5.0	ltm	352	diff_vonmises	-0.0054789676429505	-0.3139217220298085	1.5290658009621192	1.0956827264130211	4.947441495288204e-14	1.549300472492253	0.233562569962302	-0.2240229676140394	0.4575855375763415	109.5645355084748
13	5.0	perception	352	diff_vonmises	-0.0388838521487481	-2.227880619333964	2.23433646032385	2.165508284237989	0.1271328272055402	2.404117685075322	0.7613122562460346	-0.3229177412408382	1.0842299974868728	88.12612507987572
14	5.0	wm	352	diff_vonmises	0.0091335018399654	0.5233111076049944	0.7204335664709955	116.88889864484516	0.7044665597635256	117.33508249051394	0.2285448277064361	-0.2045231095344615	0.4330679372408976	105.73366779803958
15	6.0	ltm	352	diff_vonmises	-0.1138661522721511	-6.52404995458823	0.3785236183036166	87.6916847411647	0.3659479468482945	88.04412034561167	0.1227978610172115	-0.1758927971442112	0.2986906581614228	137.00478770425093
16	6.0	perception	352	diff_vonmises	-0.0641914227224437	-3.6778976029362007	0.6780584756089882	5.870844146944728	0.2949422401925382	6.222875450448679	0.3443509224871519	-0.2975249069222406	0.6418758294093926	127.5006759413607
17	6.0	wm	352	diff_vonmises	-0.1053880761850595	-6.038291976407092	0.515419213141515	98.68985386372653	0.5005943039801795	99.01297252186124	0.1940255385589324	-0.1931589065466266	0.387184445105559	124.1221539156416
18	7.0	ltm	352	diff_vonmises	0.1119505666931249	6.414294985613902	0.9148588519306272	47.997576100830784	0.8682177098355054	48.6893676733151	0.2074343538856453	-0.2313996202080037	0.4388339740936491	92.47930334542966
19	7.0	perception	352	diff_vonmises	-0.0038653426292025	-0.221467819025305	0.915720607018196	72.61576638505787	0.8644863143120182	73.17843698385397	0.531087565574861	-0.3337862945860976	0.8648738601609587	96.26234380667356
20	7.0	wm	352	diff_vonmises	0.0930639429819012	5.332171157709079	1.3676886473971348	1.5427880258333957	0.3480935484354711	2.177781002881583	0.1556834127850138	-0.2021014757026275	0.3577848884876413	96.25677620423052
0	1.0	ltm	398	diff_vonmises	0.0104997337791111	0.601590431554013	3.680821776918395	0.2025892497004472	3.028571732819115e-17	2.1882124696743968	-0.1994660938528778	-0.3481703041948388	0.148704210341961	71.4509222859279
1	1.0	perception	398	diff_vonmises	-0.0189390944061151	-1.0851301772702238	14.220312598303542	0.6426172355861514	0.0307265883564712	2.8292198741857777	0.4937346495896599	-0.4563901543850931	0.9501248039747532	35.752242554306434
2	1.0	wm	398	diff_vonmises	-0.0058249638810099	-0.3337458461980159	4.745864133269079	0.2706538495523619	1.2170570774645884e-17	2.45466644465885	-0.1624482643691717	-0.3906550706568453	0.2282068062876735	62.71469467474529
3	2.0	ltm	398	diff_vonmises	0.0859541915106084	4.924812405017075	4.618287472060219	0.3892856136017323	0.0559084069188211	1.6351893176281829	0.0485221865949552	-0.2568523740421	0.3053745606370552	61.59886029732658
4	2.0	perception	398	diff_vonmises	-0.0039237227725513	-0.2248127548465635	7.365944319779831	1.3745721226489214	0.3840464203021756	2.6876058798598303	0.8556940549027918	-0.464772909735885	1.3204669646386769	47.57886592326523
5	2.0	wm	398	diff_vonmises	0.0560099016706667	3.2091309766719447	4.137215382934272	0.4890454809586066	0.1198558068852873	2.0260232275092998	0.0207597919802897	-0.3159226733873286	0.3366824653676183	62.96922428873083
6	3.0	ltm	398	diff_vonmises	0.1330490380037371	7.623148345889836	2.7553213873964424	0.9760379732393148	0.6504286224770977	1.8205178985489383	0.1078945486734566	-0.2305939222376109	0.3384884709110675	66.1873818482004
7	3.0	perception	398	diff_vonmises	-0.00236324934214	-0.1354042132416955	5.157247412157055	1.9441244308282728	0.3137198351262376	2.8047645262630185	1.117686202036043	-0.4361402329677535	1.5538264350037965	57.14576548836851
8	3.0	wm	398	diff_vonmises	0.0023964291731478	0.1373052775233989	5.054257339251191	0.4458504456255659	0.1390405053905029	1.677756327092108	0.0834599161519406	-0.2664460363560872	0.3499059525080278	57.464633269039695
9	4.0	ltm	398	diff_vonmises	-0.0543113332899189	-3.111810177240724	0.9163308973242338	103.96565688050777	0.893062949103184	105.75192164781748	-0.1134863620889135	-0.3656428348260387	0.2521564727371252	79.25835077771717
10	4.0	perception	398	diff_vonmises	-0.0311117765669702	-1.7825734904414108	2.5735654278205504	2.229003553203825	0.1754356189924116	4.100501068626375	0.5643739144480807	-0.567651845008165	1.1320257594562455	79.25590418373244
11	4.0	wm	398	diff_vonmises	-0.0521875328450772	-2.990125375223289	0.9435434025042184	275.3785792835732	0.9321485235069964	277.5251973534578	-0.1095123491734	-0.450016817926695	0.340504468753295	78.93150617182326
12	5.0	ltm	398	diff_vonmises	0.0288564541172663	1.6533530326322676	2.2965287151546505	0.8327027302752888	0.1162586669533724	1.664032541587465	0.1702296419812041	-0.2343410672991822	0.4045707092803863	84.93378757554697
13	5.0	perception	398	diff_vonmises	-0.0302466044080825	-1.7330027771849206	2.132485846344612	2.372436200358673	0.179198627885285	3.142587711533332	0.6785640250277506	-0.4039107248226604	1.082474749850411	87.69920087317792
14	5.0	wm	398	diff_vonmises	0.0806311819201717	4.619826421177388	1.6592007754540514	1.0467071115567097	1.6357889528160716e-18	2.123509450386448	0.1440573347695853	-0.3205113273245453	0.4645686620941307	105.71331376493217
15	6.0	ltm	398	diff_vonmises	-0.1620665758312875	-9.285730795269686	0.504999263932322	109.90389262272949	0.4905882639535911	110.6051090686824	0.124130524992033	-0.243367934514163	0.3674984595061961	121.7591053053883
16	6.0	perception	398	diff_vonmises	-0.0356143873353285	-2.040554084258497	0.8177792902011041	6.348095757499704	0.4047438347797508	7.170264141937855	0.3065388360491317	-0.3513156281500841	0.6578544641992158	113.84910157246442
17	6.0	wm	398	diff_vonmises	0.0520167716156116	2.9803414774704446	0.4452874621607595	130.6937133922085	0.431325466059846	131.55300566452118	0.1363523175873808	-0.3017701046730536	0.4381224222604345	128.058611425791
18	7.0	ltm	398	diff_vonmises	0.0136667160874664	0.7830451516153699	1.060155310337125	211.38298164395815	1.0459869415898675	212.7982777533777	0.0677789480551354	-0.3451100719106073	0.4128890199657427	79.57256833274482
19	7.0	perception	398	diff_vonmises	0.0306989643839428	1.758921094622354	1.3940250465277215	2.052925738799492	5.1929088879034735e-11	3.4483381172610814	0.3019291962207086	-0.4964627228267035	0.798391919047412	113.86028733271216
20	7.0	wm	398	diff_vonmises	0.0544554348842029	3.120066590414304	0.6715419827354205	77.22095505768036	0.647736095330981	78.75673661958946	-0.07212402339891	-0.3144732822847942	0.2423492588858842	95.24146660571566
0	1.0	ltm	329	diff_vonmises	-0.0084908998455794	-0.4864927254199866	6.068432107439082	0.3342139382188332	4.819812049343143e-15	3.7993884909918094	-0.283684845988432	-0.6046897382660923	0.3210048922776602	55.315990337741255
1	1.0	perception	329	diff_vonmises	-0.0286308920207321	-1.6404292764827395	16.70306196462672	0.6335934589802816	0.0208603576266795	4.113658545664594	0.3563222016022307	-0.6616877258261241	1.0180099274283547	33.00744476651357
2	1.0	wm	329	diff_vonmises	-0.0425380059529654	-2.437248210007291	3.4079440815472046	0.4859030787318507	0.0244836362394969	4.280258024639583	-0.3560589453487952	-0.6721359901037572	0.316077044754962	71.2520949871523
3	2.0	ltm	329	diff_vonmises	0.0024158449839389	0.1384177215375534	3.327777013352186	0.5687208872962324	0.0132156493753844	2.3285189268052813	0.0194580419743629	-0.365789610016021	0.3852476519903839	74.2140390682323
4	2.0	perception	329	diff_vonmises	-0.038286470607005	-2.1936531782330686	7.224561776914664	1.219567527102401	0.232550858664926	3.0410956565461547	0.6808746971896934	-0.5072539089840512	1.1881286061737446	48.58132143105732
5	2.0	wm	329	diff_vonmises	-0.0210510463486015	-1.2061361101091488	3.225070287972191	0.9881165683133591	0.2055175500684843	3.1123293062740705	0.0722548167037488	-0.4637216040823676	0.5359764207861165	68.5461435595492
6	3.0	ltm	329	diff_vonmises	-0.0314820293733785	-1.80378741360148	3.127513034410582	0.9143603167089632	0.1462603199849261	2.5000721806498927	0.155072729151118	-0.3704308606505039	0.5255035898016219	71.92717232405286
7	3.0	perception	329	diff_vonmises	-0.0312254654772169	-1.7890873851759834	3.765398124758077	2.5250018102359704	0.2895277759923827	3.9870952268571354	1.047901821267632	-0.5781969142048548	1.6260987354724867	65.76516615186739
8	3.0	wm	329	diff_vonmises	-0.0842045925607694	-4.824567769350775	3.244232537539982	0.9768963687200176	0.1352744882823488	2.912113519078052	0.140622641310632	-0.4363076545211296	0.5769302958317617	70.773339232197
9	4.0	ltm	329	diff_vonmises	-0.0893524781488185	-5.119519886962213	2.1861284971212087	0.9931920076832276	0.015184891213477	3.335631674965596	0.0015819095093682	-0.5160283025027292	0.5176102120120974	91.4764816506438
10	4.0	perception	329	diff_vonmises	-0.0559836256662389	-3.2076254725157614	1.8157029157502715	4.326517364042578	0.3751613963837451	6.314899579234748	0.6924188692775082	-0.6698498027737289	1.3622686720512371	86.36622897847622
11	4.0	wm	329	diff_vonmises	-0.1091500794582149	-6.253838886473298	0.7293419440971353	256.8514009970974	0.7145976486130438	259.4951877957808	-0.0372425631858845	-0.5739279043351395	0.5366853411492549	93.56078688266967
12	5.0	ltm	329	diff_vonmises	-0.0285760097723456	-1.6372847552800034	0.6603215892074805	121.78349198343946	0.6356857753542869	123.32811741168892	0.1494935906036474	-0.4188782942643847	0.5683718848680321	104.72695568105122
13	5.0	perception	329	diff_vonmises	0.0100292632907055	0.5746344581829183	1.261203589842653	6.11243824027092	0.4608339343106373	7.622954404543564	0.5609224070163674	-0.5559812692822315	1.1169036762985989	96.31003400133235
14	5.0	wm	329	diff_vonmises	-0.0706652636463462	-4.048821365114884	0.5672338393656933	232.55441470451493	0.5541109010817747	234.325125838315	0.1202804512322615	-0.4764315686373983	0.5967120198696598	111.94176830442242
15	6.0	ltm	329	diff_vonmises	-0.1426981489552505	-8.176001679465013	0.5333119396114697	5.515727006204695	0.1839398963725153	6.9929427286559305	0.0688928093254481	-0.4379429660477935	0.5068357753732418	136.54007017860766
16	6.0	perception	329	diff_vonmises	0.0444508676295044	2.546847110865293	1.1065650795829631	3.1297662821812766	0.1007027673817153	4.659236498168998	0.3141708558233781	-0.5449843901784793	0.8591552460018574	117.66066876683186
17	6.0	wm	329	diff_vonmises	-0.0625488295574617	-3.583783947125696	0.3783706659532921	312.6861375352749	0.3699462241035092	314.3671614438283	0.1060435940320019	-0.5084159890309508	0.6144595830629527	133.75263948203138
18	7.0	ltm	329	diff_vonmises	-0.0567265194588796	-3.25019015146054	0.780477196305117	212.76951639229807	0.7657496338886622	214.7344269228589	0.0145977688972251	-0.441812579682054	0.4564103485792792	91.5984777594287
19	7.0	perception	329	diff_vonmises	0.1311987885867181	7.517136863248102	1.2194513894048349	2.948289766887234	0.118681059108324	4.855599923846394	0.2612219184143066	-0.5854396738483671	0.8466615922626738	111.64048481253934
20	7.0	wm	329	diff_vonmises	0.0700362591064467	4.012782059684079	0.7675200251153125	193.2255687194222	0.7523448156132218	195.3555554385252	-0.0675157208484265	-0.4480497040293798	0.3805339831809533	89.7234612618046
0	1.0	ltm	87	diff_vonmises	0.0461043214182887	2.6415830345825486	3.764667230975383	0.2437386161349151	1.019609796166558e-16	3.2692041638840847	-0.3390485879962597	-0.5202126336081454	0.1811640456118857	70.62800116360117
1	1.0	perception	87	diff_vonmises	0.0080758037431634	0.46270947065922	12.993958135189832	0.7120794315881046	0.0597630067715797	3.7520374993859873	0.3800147252506434	-0.613629342742424	0.9936440679930674	37.18552640028125
2	1.0	wm	87	diff_vonmises	0.0606448933815335	3.474696439782731	5.285848850681498	0.2925315906045688	4.816337698748196e-19	3.496893676099237	-0.2953183233245113	-0.5565412159435799	0.2612228926190685	59.35448561206616
3	2.0	ltm	87	diff_vonmises	-0.0120023310463356	-0.6876829132738673	3.901933441382568	0.4261226166968321	6.466427130562768e-19	2.3137099877729885	-0.045046236287934	-0.3681064540898182	0.3230602178018841	69.34052310981954
4	2.0	perception	87	diff_vonmises	-0.017960224124501	-1.0290450414429522	7.954925598116	1.2319219001240451	0.1958705456803482	3.264731111550858	0.7369642612499593	-0.5452687845789211	1.2822330458288804	46.628979629403005
5	2.0	wm	87	diff_vonmises	0.0590054685628948	3.3807643168457333	4.089464746223293	0.5849926408953361	0.0909707869524932	2.770646307483676	-0.0267680584010206	-0.4327155200621302	0.4059474616611096	63.764051079751
6	3.0	ltm	87	diff_vonmises	0.0359890817396907	2.062022492235618	2.656221911944484	0.8288244515321245	0.3185030675376039	1.9453116975528075	0.0909638529450211	-0.2663678581559572	0.3573317111009784	72.51422590755857
7	3.0	perception	87	diff_vonmises	-0.0073394661726395	-0.4205204355712811	4.105107029806794	2.1180765177058625	0.2507641008926712	3.270357662475164	0.9930593857578994	-0.4854731413083652	1.4785325270662646	63.84954044455944
8	3.0	wm	87	diff_vonmises	-0.0539032242453038	-3.0884272514031648	3.315243665845768	0.6943255163992995	0.1654386508453015	2.1102603486812264	0.0875960884714846	-0.3161141285150085	0.4037102169864931	69.13676741471858
9	4.0	ltm	87	diff_vonmises	0.0472730689659263	2.7085473363784485	0.7672620105035994	113.67267292375008	0.7442742925404778	115.9326796332222	-0.1633122202779873	-0.444292627685293	0.2809804074073057	85.8710660654123
10	4.0	perception	87	diff_vonmises	-0.078507269298886	-4.498135191923152	1.676601838219736	5.268237417983019	0.555096300999951	7.342409552939884	0.5539699299240737	-0.6431862120737017	1.1971561419977754	83.5286391719851
11	4.0	wm	87	diff_vonmises	-0.0501606476681368	-2.873993409026977	0.7460452183139564	219.63812253555	0.7335842792914633	222.13150330477785	-0.2031209402085494	-0.4820171570408753	0.2788962168323259	85.57437622092357
12	5.0	ltm	87	diff_vonmises	0.0280356408912249	1.60632389901158	1.833960977394432	1.0565486148103609	0.1176366064651612	2.780217010817734	0.0211266637416464	-0.3834382451467417	0.4045649088883881	91.36451994306653
13	5.0	perception	87	diff_vonmises	-0.0366390892723348	-2.099265180507839	2.256193749592766	2.5760437685543973	0.1628471807499673	4.303419274459327	0.6280023401125661	-0.5788650334711303	1.2068673735836963	84.80254136745899
14	5.0	wm	87	diff_vonmises	-0.0113488001327496	-0.6502383501440623	0.5213533896425179	153.83818250665283	0.5051948773891048	155.85980333597047	-0.0352491377026282	-0.4600986652646295	0.4248495275620012	112.13436472521153
15	6.0	ltm	87	diff_vonmises	-0.1384830699822812	-7.934495443999533	0.4629047391539315	164.67342996405893	0.4511892415840369	166.52270753058065	-0.081502252712859	-0.4040238046382249	0.3225215519253659	116.71190305515827
16	6.0	perception	87	diff_vonmises	-0.096980007367696	-5.556545119316614	0.3718404793519239	94.91000091235595	0.3414737687837318	96.71290316543391	0.1312144386809386	-0.5638539079252407	0.6950683466061793	136.10757470033104
17	6.0	wm	87	diff_vonmises	-0.0799605683922953	-4.581403096345694	0.4526095416909925	243.6171515367824	0.4435404715485535	245.61688665887357	-0.0631318056492986	-0.4550733135816323	0.3919415079323336	119.32608657267453
18	7.0	ltm	87	diff_vonmises	0.0777340859176423	4.453835047388234	0.7722066943205422	186.69344528396343	0.7576208284294117	188.65804952827423	-0.0607064524753013	-0.4139085329152223	0.3532020804399209	89.48589398650014
19	7.0	perception	87	diff_vonmises	0.01013718212042	0.5808177516555492	0.7117238195258104	270.01445426977966	0.6957066020320177	271.81906396992593	0.3123854860556179	-0.5418092366794873	0.8541947227351052	102.3237905167764
20	7.0	wm	87	diff_vonmises	0.0716410475864573	4.1047296665999005	1.168897275403074	3.8386387668895767	0.5628541674290902	5.902199417363137	-0.0926840058253231	-0.4253810170422635	0.3326970112169404	84.00887040740116
0	1.0	ltm	496	diff_vonmises	-0.0150981156334125	-0.865058304395024	4.864372315254712	0.3753429803747815	7.134839560978655e-14	3.850670737158063	-0.2921263754202304	-0.6128341831973433	0.3207078077771128	61.92431287840478
1	1.0	perception	496	diff_vonmises	-0.0166289605247589	-0.9527692557583388	14.056659834865748	0.7221041599799168	0.0239275937481285	4.179996629708896	0.3888538321177071	-0.672248288937217	1.061102121054924	35.954491343894205
2	1.0	wm	496	diff_vonmises	0.0036003048832977	0.2062822747732996	4.131057748287232	0.4603629154514433	0.0125473726354763	4.154453681189233	-0.3093084373888053	-0.6570454396962362	0.3477370023074308	65.9994157931311
3	2.0	ltm	496	diff_vonmises	-0.0647166540992219	-3.7079911440934383	3.0739268267399127	0.6913957653522288	0.0643513906731526	2.60206927104411	0.0179303618564355	-0.3973513610169861	0.4152817228734216	74.3761653220403
4	2.0	perception	496	diff_vonmises	-0.0433025490480037	-2.481053302608853	7.135795922398176	1.2235435741930811	0.1501812588473237	3.156778970056158	0.6985294576457731	-0.5142531344541524	1.2127825920999256	49.47486663276146
5	2.0	wm	496	diff_vonmises	-0.0080660267120405	-0.4621492880397073	3.538311169956881	0.867633346631852	0.1464558466297825	2.9748640174764183	0.0782565493242981	-0.4528650509482209	0.5311216002725191	67.29326693274967
6	3.0	ltm	496	diff_vonmises	-0.0519083949401672	-2.9741319513698183	2.701508370327075	0.8988536712630509	0.055349846422536	2.29379928657844	0.1687267324529813	-0.3455209114561872	0.5142476439091686	80.55775065652227
7	3.0	perception	496	diff_vonmises	-0.0266052335767206	-1.5243675969058406	3.461725454987236	2.472157861556489	0.2544348123594525	3.7430629787439074	0.998921271556637	-0.5326440192185298	1.531565290775167	68.91582952603139
8	3.0	wm	496	diff_vonmises	-0.1008206290973849	-5.776596535134019	2.8644346238060527	1.112622331042607	0.1754465060114023	2.6448463470626766	0.2118459539505043	-0.3805802846315195	0.5924262385820238	74.44203212866
9	4.0	ltm	496	diff_vonmises	-0.0894067377627371	-5.122628733837758	2.410933821096632	0.8407839362585389	2.2327953925745868e-18	3.146697530407032	-0.0157679779112164	-0.4969069734044783	0.4811389954932619	88.57565151335447
10	4.0	perception	496	diff_vonmises	-0.0854920978443804	-4.89833638820248	1.4922718122924372	6.85149297257238	0.5584568073676859	8.867669004273553	0.6731803916733767	-0.680800554822955	1.3539809464963315	87.65488081630446
11	4.0	wm	496	diff_vonmises	-0.1210673726465246	-6.936649489383449	0.7339652489791935	295.8089313134519	0.7224985563486492	298.2803386112499	-0.0666763819620115	-0.5240313611475642	0.4573549791855527	92.15132674709734
12	5.0	ltm	496	diff_vonmises	-0.0503886758457007	-2.887058461211447	0.7825708093603149	5.63597508204207	0.3512931803784558	7.175331713271997	0.1188427245892944	-0.4256254987888324	0.5444682233781268	113.24875657430684
13	5.0	perception	496	diff_vonmises	-0.0161022635224497	-0.9225917404438312	1.6807012635189529	3.669971571798078	0.2839996251649273	5.101059563613789	0.6463597874729128	-0.5553592905046923	1.201719077977605	92.542375619527
14	5.0	wm	496	diff_vonmises	-0.0708029793297521	-4.056711892546805	0.5940553503570088	294.972985713092	0.5842418319679419	296.59572753382224	0.1211989409053444	-0.4350343603348534	0.5562333012401979	109.30239437164126
15	6.0	ltm	496	diff_vonmises	-0.0862893001293197	-4.944012714547688	0.7940231130643317	1.6921786832744594	1.0248049021152275e-16	3.1186819749942147	0.0155354230136355	-0.3917621316099069	0.4072975546235425	137.5765438392313
16	6.0	perception	496	diff_vonmises	-0.0293272853872726	-1.680329677266413	0.3852528843572303	73.33152942426346	0.3437450358854265	74.69309748564163	0.2570920141893715	-0.5331493510130718	0.7902413652024434	136.90047109224932
17	6.0	wm	496	diff_vonmises	-0.1072505386760427	-6.145003216641854	0.4293381363219227	299.8552596146713	0.421492178225138	301.35238998155336	0.0863362828011133	-0.4322701051078645	0.518606387908978	127.24995763897353
18	7.0	ltm	496	diff_vonmises	0.0615976901341228	3.5292876724398687	0.656431098203485	165.16585518251756	0.6404225845746357	166.89237714791608	0.0307330401078118	-0.4031253762778846	0.4338584163856964	101.19840497358882
19	7.0	perception	496	diff_vonmises	0.0886581978216116	5.079740554414294	0.7593139353604944	292.02373483128554	0.7441613322280811	293.5678641768907	0.3923456422647575	-0.510048046117884	0.9023936883826416	100.3261738349364
20	7.0	wm	496	diff_vonmises	0.0511355004173545	2.929848357203875	0.8218123025666355	148.42197801057313	0.8018461790116097	150.2031750191302	0.0243886142003404	-0.4043712912010768	0.4287599054014173	89.61181110786092
0	1.0	ltm	185	diff_vonmises	-0.1286093683702169	-7.368774013456734	1.8653226020533629	0.411497472703216	3.504491791576092e-15	1.815197506128747	-0.0854021154603792	-0.2840179927953558	0.1986158773349765	100.22748999217004
1	1.0	perception	185	diff_vonmises	-0.0474696745246662	-2.71981200512306	14.782015047585777	0.6498382567167753	8.240478756622117e-21	2.2479411106896467	0.6300969133324053	-0.3577709395455997	0.9878678528780048	35.23920213170146
2	1.0	wm	185	diff_vonmises	0.0502565275813338	2.879486923393246	3.7940149180100633	0.3732691904351364	1.3936208834681105e-22	1.870827635555462	-0.0189555408510928	-0.2976102595222938	0.278654718671201	70.3435514984615
3	2.0	ltm	185	diff_vonmises	-0.0061222938081441	-0.3507815961457345	5.107622650414489	0.3560482045882506	0.0008902745651528	1.3095736425257751	0.1036235547985409	-0.2082452478490593	0.3118688026476003	60.35828497890353
4	2.0	perception	185	diff_vonmises	-0.0202810338881069	-1.162017645950325	7.501687058054181	1.1830267157291707	0.2359173572846007	2.1166511119742726	0.8489598844340185	-0.3512911233617252	1.2002510077957438	48.16273621396834
5	2.0	wm	185	diff_vonmises	0.0427091552692192	2.447054343495184	4.866615406585929	0.4184466652237626	0.1215074109826964	1.4493445200832518	0.0980858129792838	-0.2283334346945543	0.3264192476738382	58.9930028707291
6	3.0	ltm	185	diff_vonmises	0.0329446771223704	1.887590956533024	1.3337341073165614	100.05039564220289	1.312167877564003	100.62096714691464	0.1625960353308002	-0.1886739270909192	0.3512699624217195	75.03381662572895
7	3.0	perception	185	diff_vonmises	-0.0240151546495599	-1.375967005773762	4.231035795349855	1.9887806843387887	0.3188418556079635	2.5173205470989397	1.039025009874527	-0.3686597548355235	1.4076847647100506	62.82464227602969
8	3.0	wm	185	diff_vonmises	-0.0828186350449734	-4.745158253111233	2.207860672635703	1.4418045890415805	0.7234357539873039	2.155830585249445	0.1662748673042172	-0.2167274096655998	0.383002276969817	72.08816517620434
9	4.0	ltm	185	diff_vonmises	-0.1082977711661104	-6.205005218491706	1.275218255861568	123.75171836051784	1.2546093818539892	124.84104577387852	0.0423882890072633	-0.2761541160953094	0.3185424051025727	71.97585947529143
10	4.0	perception	185	diff_vonmises	-0.1091717618016925	-6.255081193244517	2.202442323389941	3.0372300147365543	0.3916414385178648	4.184889325204632	0.7117674942570648	-0.4756247473945261	1.1873922416515907	80.79338586290939
11	4.0	wm	185	diff_vonmises	-0.1278112059394826	-7.323042674809757	1.189868361645182	245.22360706231856	1.1780761551583012	246.54042639933868	0.0414886395548705	-0.3239687981342243	0.3654574376890949	74.24717550285445
12	5.0	ltm	185	diff_vonmises	0.0580528513140443	3.326183368995237	1.5035635886434917	1.280306664747174	0.2368583061318477	2.0685495896456887	0.1439373460249065	-0.2319471238656454	0.3758844698905519	96.47952125816838
13	5.0	perception	185	diff_vonmises	-0.0307694355313052	-1.7629587939436666	2.2192665482102854	2.171317638971809	0.1750201044645497	2.867534955523701	0.6528972959636562	-0.373602900623963	1.0265001965876193	86.31176334555181
14	5.0	wm	185	diff_vonmises	0.0412566398930065	2.3638313427603377	0.6231835353872794	87.72262915135548	0.6023380041621037	88.61289887853637	0.1096955760225597	-0.2579601349348914	0.3676557109574512	108.69413634336512
15	6.0	ltm	185	diff_vonmises	-0.2202881697741945	-12.621582404722693	0.4285550031013281	136.500787482109	0.4183263451093205	137.37849355788592	0.0541453010055441	-0.2560661381351607	0.3102114391407049	127.44146175559564
16	6.0	perception	185	diff_vonmises	-0.0652921613170562	-3.740965278754655	0.5735876381381536	244.4763639118171	0.5616575420103295	245.4107759153435	0.3087551909903254	-0.3880216069714421	0.6967767979617676	116.76099799502036
17	6.0	wm	185	diff_vonmises	-0.1085460961044382	-6.219233189405736	0.5017795077879549	96.4593628751721	0.4830963744661903	97.40052356740208	0.1071737268813528	-0.2918331453966711	0.399006872278024	121.05040601399698
18	7.0	ltm	185	diff_vonmises	0.07626669088859	4.369759505345061	0.965444951678422	141.10207796435245	0.9466482208305618	142.23216000557954	0.1287165871208984	-0.2973685290698267	0.4260851161907251	85.84481284143908
19	7.0	perception	185	diff_vonmises	-0.0254508966173948	-1.458228961000507	2.1769932152474483	1.688753581851887	3.65344169868746e-19	2.797787828869787	0.4714796388432971	-0.4334947293601285	0.9049743682034256	93.14458505961083
20	7.0	wm	185	diff_vonmises	0.1607302961334544	9.209167608334832	2.0917496529642405	0.8135103291385972	0.1803141305896221	1.9222567623178368	0.0677542731123582	-0.2593263927666992	0.3270806658790574	84.28328010364186
0	1.0	ltm	64	diff_vonmises	-0.1964865261082659	-11.2578486771907	2.4387416723967954	0.423237472535206	2.883466525335962e-13	1.176482157583446	0.0585745943689023	-0.1853706733073866	0.243945267676289	88.0538338607009
1	1.0	perception	64	diff_vonmises	-0.0635230930500907	-3.639605133387012	14.274030132064947	0.7277312418067792	2.0039839271298523e-14	1.7309646444739664	0.8111451351758348	-0.2754915794848968	1.0866367146607316	35.870099152398865
2	1.0	wm	64	diff_vonmises	0.0351714871485224	2.015177772808952	4.170815043813916	0.418355889107724	6.233924532920249e-23	1.2412621001324802	0.1315107924925212	-0.1974745555271283	0.3289853480196495	67.00723582142089
3	2.0	ltm	64	diff_vonmises	-0.0358801453184715	-2.0557808950644967	3.097146151902529	0.7714048539913173	0.6326708487832102	1.1329871155578637	0.2065864201184425	-0.1428286464420126	0.3494150665604552	66.60309943874796
4	2.0	perception	64	diff_vonmises	-0.0274608304612257	-1.573389687352527	7.084914680949359	1.2203294471495818	0.3747203822388825	1.4747322880357736	0.9413164602221732	-0.245768920323072	1.187085380545245	49.310320031517904
5	2.0	wm	64	diff_vonmises	0.0158873621992608	0.9102788016133287	4.81128537491035	0.4490272215915134	0.2884742363304299	0.8106276476544889	0.212817425614874	-0.1257515189902991	0.3385689446051731	58.61908550923059
6	3.0	ltm	64	diff_vonmises	0.0198033701434527	1.134649529355228	1.5080896073712555	71.15804662162654	1.485586287973713	71.30827477915912	0.2156122862492147	-0.1070070971749714	0.3226193834241861	74.60905891619996
7	3.0	perception	64	diff_vonmises	-0.0261648542127551	-1.499135717965962	4.407500184792378	1.7736880306705558	0.4322485816392831	1.8217580258409605	1.01064462304617	-0.2618935963427712	1.2725382193889412	61.34493028219498
8	3.0	wm	64	diff_vonmises	-0.0947042530478838	-5.4261540015827086	1.6588370131787449	90.30255047713013	1.6367469811595747	90.49337070178224	0.2507402549915341	-0.1301989741392422	0.3809392291307762	70.75143292442638
9	4.0	ltm	64	diff_vonmises	-0.1836973356902053	-10.525082042846677	1.6194271383053678	112.65003901340218	1.598502405371315	113.12821372504924	0.1874747496276185	-0.1840215793631667	0.3714963289907853	68.51859432365092
10	4.0	perception	64	diff_vonmises	-0.1131032380462995	-6.480338189316443	2.7268099413579705	2.198573322090392	0.2279452019721715	2.7826771313747725	0.8138636679002395	-0.3693165400419974	1.1831802079422369	77.82826839209162
11	4.0	wm	64	diff_vonmises	-0.1505708729827456	-8.627075539511718	1.410748559689558	206.2124841206825	1.39794195080555	206.8962898484123	0.1870665007758702	-0.2272079395483395	0.4142744403242098	72.55650436623125
12	5.0	ltm	64	diff_vonmises	0.0221943653712339	1.2716434647430126	1.1479876803830034	1.827554540601791	0.3119209393042391	1.9483431446748805	0.2617850103976246	-0.1535997788075092	0.4153847892051338	109.1552797082694
13	5.0	perception	64	diff_vonmises	-0.027950621140933	-1.601452626144599	2.262487908086034	1.9504087001802857	0.1593694071441482	1.9145986912506896	0.7283745547492226	-0.2480918506052758	0.9764664053544984	87.27335221907668
14	5.0	wm	64	diff_vonmises	0.0572085132429656	3.277806361040208	0.7834252424423068	86.2455223566678	0.7656259460588157	86.32193504856913	0.2704392649661251	-0.1380701366621188	0.408509401628244	105.35955922211244
15	6.0	ltm	64	diff_vonmises	-0.1468392032493077	-8.41326661324902	0.4241500266169141	100.25686780543391	0.4125955537856167	100.34791047874262	0.1923516419226878	-0.1491788401176581	0.341530482040346	134.27042372172144
16	6.0	perception	64	diff_vonmises	-0.0414433040589813	-2.374526411657022	0.6460256904953604	186.2866414569681	0.6322213247031077	186.4110389184037	0.4545560287072803	-0.2645524642117962	0.7191084929190765	115.34054402402371
17	6.0	wm	64	diff_vonmises	-0.13072369735174	-7.489916140600198	0.7787154260727414	3.564480586186279	0.3361724590313716	3.5857872619934144	0.2911884777983967	-0.1715091496189281	0.4626976274173249	122.70029854902894
18	7.0	ltm	64	diff_vonmises	0.1294755274190775	7.418401271343514	0.985939132830636	105.37511057846582	0.9657153716319804	105.798964527089	0.2618354954229929	-0.1903023132483063	0.4521378086712992	90.71923740835032
19	7.0	perception	64	diff_vonmises	-0.0370779241718316	-2.124408568152049	2.48350975158927	1.51412587040236	1.697531977963238e-15	1.8668008132078964	0.5917868581378904	-0.2909203359165535	0.882707194054444	87.281369599865
20	7.0	wm	64	diff_vonmises	0.186926096792734	10.710076427077576	2.190902409437069	0.7109577218575999	3.328712895186489e-17	1.0394901393763536	0.2220034638824358	-0.1605956046203737	0.3825990685028096	92.81332149705268
0	1.0	ltm	162	diff_vonmises	0.0600643931748222	3.4414362279317032	3.3313956215202465	0.2858722411663761	1.996736246851893e-15	3.439775213865061	-0.3488205167474806	-0.5472034048536384	0.1983828881061577	75.20063325936866
1	1.0	perception	162	diff_vonmises	0.0216468255361692	1.240271743078516	11.551153811732854	0.7780331815816658	0.0702420269260866	3.9016466058669694	0.3775916367720515	-0.6391985113538611	1.0167901481259127	39.32994192875799
2	1.0	wm	162	diff_vonmises	0.0946825952933127	5.424913103652051	5.379744310746184	0.329683551118226	1.2788917133243026e-23	3.573650804522582	-0.271586508759103	-0.5687578756451458	0.2971713668860427	58.82004300785346
3	2.0	ltm	162	diff_vonmises	-0.055302356482745	-3.1685916235892404	4.0859831857949125	0.4399849408741877	3.951726129501378e-23	2.379088984564646	-0.0364189551724023	-0.378547103007649	0.3421281478352466	67.71678674331142
4	2.0	perception	162	diff_vonmises	-0.0176573065632601	-1.011689143643456	7.764718695622532	1.2247349347477443	0.1497048803217096	3.245640298033855	0.7414894916040538	-0.5328953856565434	1.274384877260597	47.49593627245324
5	2.0	wm	162	diff_vonmises	0.0748430797676019	4.288192596444552	4.309502988748613	0.5845042052793777	0.0844359533707527	2.683584159815148	0.0040422461450319	-0.4203686563512637	0.4244109024962957	62.57073445001436
6	3.0	ltm	162	diff_vonmises	0.0104215675366059	0.597111835758071	2.595527246766102	0.7168064145288365	0.2166957654928171	1.7032668121833678	0.0990556596675301	-0.2375315928222875	0.3365872524898177	76.16727366309408
7	3.0	perception	162	diff_vonmises	-0.0023595451498693	-0.1351919786580785	3.825190046470865	2.023092613627117	0.2208337655221555	3.0395574219290267	0.9218434146325462	-0.4453208272220386	1.3671642418545848	66.38509782308705
8	3.0	wm	162	diff_vonmises	-0.0586084075587964	-3.3580143971016665	2.922106827362867	0.7716102580176873	0.2120426795008585	1.9168078327092068	0.1248831114358201	-0.2753888885894003	0.4002720000252204	72.52866976384317
9	4.0	ltm	162	diff_vonmises	0.0400873390558484	2.296835339810067	1.3365627165230236	2.005615807128883	0.4104117793745953	4.171607647459759	-0.1495444435086225	-0.42492968502916	0.2753852415205375	83.276355557075
10	4.0	perception	162	diff_vonmises	-0.100724306654569	-5.771077665688279	1.3600099887341557	10.360732398722606	0.7648436504571554	12.335275828060611	0.5677028768784713	-0.6356833903334752	1.2033862672119464	84.75402570505324
11	4.0	wm	162	diff_vonmises	-0.0509455828557869	-2.9189668824706345	0.7692138565812419	193.5022396914205	0.7557117819410567	195.798878996394	-0.1790754184033858	-0.4479485175670774	0.2688730991636916	84.7434324199657
12	5.0	ltm	162	diff_vonmises	0.0064347516363409	0.3686841109772373	1.7367877239393308	0.933536934951958	0.0377826918744369	2.7412560641131702	-0.0108833636829845	-0.4062515935708967	0.3953682298879121	99.78351560777652
13	5.0	perception	162	diff_vonmises	-0.0482886955107245	-2.76673845095684	2.330125268004774	2.5989829820311057	0.1628066903258751	4.352225284861686	0.659575772315382	-0.5897309498746311	1.2493067221900132	83.61960370634199
14	5.0	wm	162	diff_vonmises	-0.00123232285706	-0.0706068987070465	0.543125684045516	216.6408478921853	0.5315503298027353	218.60322159159816	-0.0245660585158518	-0.4467319077798741	0.4221658492640223	109.77018319721724
15	6.0	ltm	162	diff_vonmises	-0.0675491841925762	-3.870283163786436	0.4761828170066653	164.66137688001214	0.4647151716688189	166.62059350518828	-0.1193133618944344	-0.4050087990815036	0.2856954371870692	112.57865099066244
16	6.0	perception	162	diff_vonmises	-0.1445754257276943	-8.283561715503986	0.6600699158787897	3.572252404553667	9.04167451807085e-17	5.379595385245332	0.133156064387942	-0.5919328332670348	0.7250888976549769	143.7949895688464
17	6.0	wm	162	diff_vonmises	-0.1381361462920605	-7.914618180736785	0.5150999505145059	241.22471377124032	0.5053710904038835	243.2153558807752	-0.0538497776884696	-0.4427569934728943	0.3889072157844246	111.60894196163966
18	7.0	ltm	162	diff_vonmises	0.2158403741428011	12.366742486907128	0.5959764283206502	60.42627545053447	0.5580939381184303	62.37095819975869	-0.0688264130344364	-0.4135008866264353	0.3446744735919989	103.58460194123344
19	7.0	perception	162	diff_vonmises	-0.0039906007271786	-0.2286445793891724	0.8487012095999985	332.39040996665506	0.8337937365920121	334.09447815884346	0.417282986452804	-0.5394041614366074	0.9566871478894114	94.52442998037762
20	7.0	wm	162	diff_vonmises	0.0882601470532531	5.056933925355413	1.8042792418729985	1.4648126715705705	0.3319741610288482	3.409829511069208	-0.0260328412347209	-0.4133242529492867	0.3872914117145657	81.2196986121024
0	1.0	ltm	41	diff_vonmises	-0.0287942637821289	-1.6497897889023925	5.098060978713699	0.2619209062930867	2.856475524508779e-17	2.4740862934738783	-0.1643019545403801	-0.393754499328167	0.2294525447877868	60.45926195444079
1	1.0	perception	41	diff_vonmises	-0.0362626008355428	-2.07769398204418	15.451080580072851	0.6473015542673674	0.0210414474061334	3.0337518604815727	0.5135445588852994	-0.4874916090582962	1.0010361679435955	34.34234883494065
2	1.0	wm	41	diff_vonmises	-0.0268222610499658	-1.5368023551611774	4.796249957528958	0.3313223293930057	2.0390353835773297e-17	2.7824422166901543	-0.1618951154000941	-0.44282025539159	0.2809251399914959	62.38117759625851
3	2.0	ltm	41	diff_vonmises	0.020970630500569	1.201528621410925	3.878352243429642	0.4954666518823856	0.0785314487534769	1.7468177834640468	0.074288310085975	-0.2701678079600951	0.3444561180460701	66.50609634147929
4	2.0	perception	41	diff_vonmises	-0.0242753506974798	-1.3908751411655542	7.379400743554121	1.2596864336926146	0.3202975768150304	2.572708035674107	0.7903261616100381	-0.4381219709960202	1.2284481326060583	47.851527445008
5	2.0	wm	41	diff_vonmises	0.0038757959339191	0.2220667492675309	3.733462564072717	0.6544378805326024	0.1799703529839132	2.158281249066716	0.076560353371206	-0.3300967623626538	0.4066571157338599	65.04258572471988
6	3.0	ltm	41	diff_vonmises	0.0481528283511663	2.758953836139729	2.574788135538932	1.1266888648688322	0.5382758498569028	2.063928790901631	0.1515288478410663	-0.2562735983588513	0.4078024461999176	70.24414655122689
7	3.0	perception	41	diff_vonmises	-0.0201251675232286	-1.1530871610747546	4.526777553199299	2.1127812492170466	0.3387328846538877	3.022623741104109	1.080977607780821	-0.4548712509775748	1.5358488587583958	60.40485976162526
8	3.0	wm	41	diff_vonmises	-0.0495402599720489	-2.8384478123792936	3.4872366914262787	0.7549234696389856	0.2574540174923545	2.0129969902529115	0.1304956994204886	-0.3000319542240103	0.430527653644499	66.06543196894057
9	4.0	ltm	41	diff_vonmises	-0.12239201211472	-7.0125457402875	1.5234056384327723	2.264556163353433	0.5183477440419488	3.8875052164999775	0.0176021058591211	-0.3645863989240879	0.3821885047832091	81.55493531078108
10	4.0	perception	41	diff_vonmises	-0.0566322891263735	-3.2447911511058267	2.4250952676163218	2.5412393025664795	0.2124746587175568	4.163207916867135	0.6608024275270928	-0.5525862363858488	1.2133886639129416	80.87101618775006
11	4.0	wm	41	diff_vonmises	-0.1154263735914562	-6.613444051290746	0.9661213696011536	346.4606845848559	0.9561911968304986	348.38842372489506	0.0100959758513852	-0.4377876558645468	0.447883631715932	81.5851817970215
12	5.0	ltm	41	diff_vonmises	0.0150790869839569	0.8639680430913856	1.6633086012555145	1.4103100216315445	0.1989743049580991	2.284564324205991	0.211180634556483	-0.274755295185071	0.4859359297415541	94.76806026926138
13	5.0	perception	41	diff_vonmises	-0.0172686815023206	-0.9894225678386048	1.947944969049431	2.596955437663438	0.2134740433002701	3.415905445298101	0.6530909025428497	-0.4149142157720981	1.068005118314948	90.13191031531292
14	5.0	wm	41	diff_vonmises	0.0054027178294284	0.3095529295263317	1.594522258668002	1.2256026005937632	0.0173982965074913	2.2575845537187247	0.1853402670594055	-0.3303765477754232	0.5157168148348288	106.45199314451884
15	6.0	ltm	41	diff_vonmises	-0.152738025789697	-8.75124424890996	0.4360327679931635	120.98173094316888	0.4219760374451302	121.70624044723212	0.1456065159779314	-0.2760773063099808	0.4216838222879122	129.58133283384262
16	6.0	perception	41	diff_vonmises	3.1068117140713086e-05	0.0017800719895809	1.080947307963659	3.0037597707047974	0.1905615697633501	3.842446019292609	0.3389820919917909	-0.3774590650685336	0.7164411570603246	114.55528345762964
17	6.0	wm	41	diff_vonmises	-0.0394269649168454	-2.2589986887456086	0.4236788739592759	180.82044970260168	0.412688214443191	181.64870941073437	0.1750444895426923	-0.3238377454791212	0.4988822350218136	131.0276940768132
18	7.0	ltm	41	diff_vonmises	0.0099315868302081	0.5690380092386363	0.9543745483182764	191.7002726239849	0.9393733007389452	192.96288412304884	0.1292733719314043	-0.327095077893567	0.4563684498249714	85.96380708892525
19	7.0	perception	41	diff_vonmises	0.0289436561574222	1.6583493414981327	1.374206143721862	2.3407107835804117	0.0825526332681126	3.570260893527785	0.3456205534589301	-0.46073105361986	0.8063516070787902	109.5975107821699
20	7.0	wm	41	diff_vonmises	0.1023124361637845	5.862070783886508	0.762614997847592	129.88046613145002	0.7458835078554487	131.2051227626385	0.0263391551792153	-0.3046225758169072	0.3309617309961226	93.49966779190392
0	1.0	ltm	450	diff_vonmises	0.0233043302937934	1.3352397702132326	6.838620171425899	0.240420682450103	0.0249382695759297	3.4350089356281	-0.3145624553138292	-0.548668899286054	0.2341064439722248	50.64497138522668
1	1.0	perception	450	diff_vonmises	0.0285578266020195	1.6362429363621516	11.204167818907248	0.7940284627560749	0.0983782144727718	4.024006759748048	0.3427970918547544	-0.6676992696687822	1.0104963615235367	39.71458192112459
2	1.0	wm	450	diff_vonmises	0.0515080490562699	2.9511938218770712	4.879501695646055	0.3788784377243224	0.0401368999488858	3.780238435978681	-0.3017413818417925	-0.5999097010945961	0.2981683192528035	59.09128890416693
3	2.0	ltm	450	diff_vonmises	0.0181003545371344	1.0370739226682744	3.5539798072755	0.5518373370797021	0.1264679677626085	2.088954326821166	0.0217763085868266	-0.3197720565983646	0.3415483651851912	67.37556170811123
4	2.0	perception	450	diff_vonmises	-0.0092272528144215	-0.5286826427665681	7.32740395528976	1.3323878239539	0.3165366311809736	2.9848077204945427	0.7763076631883065	-0.509255295202	1.2855629583903063	47.8667416310866
5	2.0	wm	450	diff_vonmises	0.0631721309135237	3.619496484192826	3.943022028839809	0.6811511872781302	0.1644200128855353	2.491795214713871	0.0552641458646922	-0.3856034718699653	0.4408676177346575	63.53546827965468
6	3.0	ltm	450	diff_vonmises	0.0648620534565811	3.7163219136140353	3.20833184596824	0.597090786701125	0.2844723802312813	1.4763002864171064	0.1001716592334812	-0.2143546670971993	0.3145263263306805	68.09188672123335
7	3.0	perception	450	diff_vonmises	0.0052600815359631	0.3013804719053797	4.806945554254277	1.7431379279855477	0.2569185063150834	2.6632530811995823	0.9408842776965696	-0.4085299580181286	1.3494142357146983	59.383658849409954
8	3.0	wm	450	diff_vonmises	-0.005849319326692	-0.3351413104437605	3.812476338603182	0.5675338392670708	0.1439634183303534	1.728840798188069	0.1088828963988011	-0.2643904983285927	0.3732733947273938	65.66478555370739
9	4.0	ltm	450	diff_vonmises	-0.025254275333152	-1.4469633912509536	0.7308141245087899	115.97979923277737	0.708912415380078	118.04000311906924	-0.1052372466398523	-0.4183846350959666	0.3131473884561142	90.5199980530933
10	4.0	perception	450	diff_vonmises	-0.045491586304946	-2.606475898628544	2.2060003383836224	2.8569338670769096	0.299542810256673	4.7605711559593	0.563568721617524	-0.5885006144934156	1.1520693361109395	81.3554704816381
11	4.0	wm	450	diff_vonmises	-0.0334250530677126	-1.9151144707807424	0.8024068032534035	295.15002155898253	0.7918998376733607	297.445322765523	-0.1011788738457397	-0.474317624157841	0.3731387503121013	86.4566619478604
12	5.0	ltm	450	diff_vonmises	-0.0151368436597011	-0.867277256850237	2.074067226055698	0.93688598631402	0.0087778206023142	2.251776166653145	0.1325122340086281	-0.3474394522867243	0.4799516862953524	94.71752655530877
13	5.0	perception	450	diff_vonmises	-0.0402073646320277	-2.3037122987587635	2.106256529439643	2.764287422960339	0.2152503568934276	4.011115887823235	0.6886072048700033	-0.5043978634771915	1.1930050683471949	86.50099072966654
14	5.0	wm	450	diff_vonmises	0.0483560321397178	2.7705965556047945	1.3906927103587146	1.6765518916688595	0.1034224939558848	3.119512674410636	0.1446659953191866	-0.4035272898540357	0.5481932851732224	106.35639608219762
15	6.0	ltm	450	diff_vonmises	-0.0649266618834774	-3.7200237037961714	0.5206920412854306	146.97385869007775	0.5063057381978243	148.07819576818994	0.1222065730714518	-0.3351073962814883	0.4573139693529402	118.63770239132006
16	6.0	perception	450	diff_vonmises	-0.0696032293905655	-3.987971284560332	1.0598764796747835	2.500319430721255	0.004762269529514	3.626582545048658	0.3026870741053769	-0.4684736794278974	0.7711607535332743	125.79106463048907
17	6.0	wm	450	diff_vonmises	-0.0440426084024523	-2.523455580207934	0.493364721048008	199.87579616910003	0.4812887472765417	201.0465590645712	0.1654128879661769	-0.3840009571864193	0.5494138451525963	122.2853952635853
18	7.0	ltm	450	diff_vonmises	0.0689587294187874	3.951044156281151	0.755338905078608	230.6863091467223	0.7436909085957413	232.357322858676	0.0235264866019946	-0.3805910552655334	0.404117541867528	93.49259409984762
19	7.0	perception	450	diff_vonmises	-0.0110003047086881	-0.6302710331657203	0.7727008676669881	274.526659449007	0.7570859137643723	275.98320186314504	0.3881599040726655	-0.4864183101726844	0.87457821424535	99.61799792028006
20	7.0	wm	450	diff_vonmises	0.1425691269115827	8.168609260898693	0.7869276686866592	133.41597621663314	0.7669236189063502	135.08668894052832	0.0129053791763169	-0.3757964893813739	0.3887018685576908	91.37705791596466
0	1.0	ltm	139	diff_vonmises	-0.2085436520621047	-11.948671107403309	1.4584230376470533	0.430706037898001	5.141141500026093e-15	1.1157799049291968	0.0058334587279875	-0.1676583610255859	0.1734918197535735	111.61491903684356
1	1.0	perception	139	diff_vonmises	-0.0467297868413368	-2.677419563554573	13.345117874752704	0.7106033164038185	1.783608195817466e-24	1.6134613019487023	0.7685611389582823	-0.256790341689993	1.0253514806482753	37.10403650208133
2	1.0	wm	139	diff_vonmises	0.054208668111062	3.105927895789269	4.078538837392649	0.348883467541919	7.091634055110105e-27	1.082219792618947	0.098858101715051	-0.1721629046886645	0.2710210064037155	67.77914519583234
3	2.0	ltm	139	diff_vonmises	0.0363080107002769	2.080295775641701	4.05514322311618	0.508118883106342	0.4903054496081382	0.8962722426768854	0.174075923510863	-0.1331793931713736	0.3072553166822366	60.7253589068533
4	2.0	perception	139	diff_vonmises	-0.0058028855456701	-0.332480850764369	7.135403763520061	1.3269389615056897	0.4812796533104633	1.5308582869494325	1.014940226192979	-0.2597975030437911	1.27473772923677	48.76329848786531
5	2.0	wm	139	diff_vonmises	0.0714401893710041	4.093221338573899	5.417298004647916	0.3291619468282804	0.1937957474487144	0.7348274655745685	0.157207166041508	-0.1165523909373634	0.2737595569788714	56.05074210431084
6	3.0	ltm	139	diff_vonmises	0.1197333282219995	6.860214374175204	1.7414172549551394	62.813330576935854	1.7191346458247538	62.95869068011492	0.1642717676151903	-0.0916193769853137	0.2558911446005041	68.62037136312784
7	3.0	perception	139	diff_vonmises	-0.008832291230351	-0.5060530109295223	5.045800484896094	1.612179784195361	0.3899869253631509	1.627535836997344	1.0360958350876843	-0.245246122209413	1.2813419572970974	57.99830443500895
8	3.0	wm	139	diff_vonmises	-0.0584136838222678	-3.3468575488275643	2.56373760271625	1.095071896901086	1.0675341405307552	1.3086629974443789	0.1911190455997754	-0.113264031050057	0.3043830766498325	67.13355927021937
9	4.0	ltm	139	diff_vonmises	-0.1628575164116124	-9.331048352367937	1.6977523727707904	124.46818593729424	1.680031060832062	125.07436548911367	0.0888839029213173	-0.1937799909224971	0.2826638938438144	64.06709711466189
10	4.0	perception	139	diff_vonmises	-0.0934800340193687	-5.356011418049187	2.86855561652946	1.9607461589789037	0.1889862972864988	2.7687402565267205	0.7240295220368437	-0.3827700233306784	1.106799545367522	76.3916093507336
11	4.0	wm	139	diff_vonmises	-0.108188721126741	-6.198757111480104	1.430134659695807	194.80697785692183	1.4170447574069256	195.63403498425643	0.1068987076712915	-0.2404716731286882	0.3473703807999797	69.86341193763374
12	5.0	ltm	139	diff_vonmises	0.0516111982063021	2.9571038328342785	2.098208342124795	0.6538952930582849	5.848411905224689e-18	0.8370945605999949	0.2140018872438401	-0.1280021310360593	0.3420040182798994	94.81409568169224
13	5.0	perception	139	diff_vonmises	-0.0406842266581925	-2.331034480268064	2.4510868983295966	1.8345754129752945	0.1273997034680273	1.7501861432988663	0.7535688526205038	-0.2375767136473525	0.9911455662678564	84.81964853912402
14	5.0	wm	139	diff_vonmises	0.1434372371592298	8.218348314240929	1.44217981338473	1.1207975393769598	0.1932878537588466	1.2609117349417744	0.2328542446132216	-0.1373792886413499	0.3702335332545716	104.2598223529636
15	6.0	ltm	139	diff_vonmises	-0.15987914333399	-9.160400145204775	0.510074863330665	74.45960922531557	0.4959859744779422	74.59102770777281	0.1638346920966427	-0.1299885079579885	0.2938232000546312	125.77953501210324
16	6.0	perception	139	diff_vonmises	-0.0754973876871525	-4.325681678736789	0.6663772006794874	175.96119833304255	0.6526594599105255	176.09294511039718	0.422747515963799	-0.2444648617056071	0.6672123776694061	113.62661252772187
17	6.0	wm	139	diff_vonmises	-0.0453945921123416	-2.600918540755032	1.122095399184417	1.2428850393787496	3.573296294628768e-13	1.3327427568271368	0.241113941314161	-0.1640619445618022	0.4051758858759633	123.653885392749
18	7.0	ltm	139	diff_vonmises	0.126523261213059	7.249248877739553	1.1098024268663602	120.56769777897652	1.091683921647336	121.13964269638484	0.2036312141909491	-0.198722282472346	0.4023534966632951	83.46631642355203
19	7.0	perception	139	diff_vonmises	-0.0488504920833511	-2.7989270235132624	2.395161324918966	1.523327458895395	6.302082977290235e-14	2.0234254953034783	0.5533517177684303	-0.3147636612709003	0.8681153790393306	88.86926795147974
20	7.0	wm	139	diff_vonmises	0.1562149813368906	8.950459127318757	1.9951918993244973	0.6037356049902629	4.806608893636661e-20	1.1112275455049496	0.1341479506391964	-0.171106046676687	0.3052539973158835	97.08950385543278
0	1.0	ltm	18	diff_vonmises	0.0382860492923618	2.193629038682168	5.508059273521567	0.2723733169529373	0.0094451988267766	3.3680899707836818	-0.2924930647441882	-0.5350321773000031	0.2425391125558148	57.28168285041451
1	1.0	perception	18	diff_vonmises	0.0275673693203661	1.5794939143354074	10.540536575301031	0.8042098189920427	0.0792710471500754	3.929637871645402	0.3524518277718794	-0.6444127188482988	0.9968645466201782	41.06770539444565
2	1.0	wm	18	diff_vonmises	0.0546818410588679	3.133038708678309	4.975683979294346	0.4110967879874011	0.0381920435148547	3.629409996027034	-0.2443607336087848	-0.5756207730912696	0.3312600394824847	58.89435008092107
3	2.0	ltm	18	diff_vonmises	-0.0268601124389823	-1.5389710800005318	3.1271673812687437	0.7521154629183558	0.2113038509970629	2.419200232750753	0.0339565871920977	-0.358948941286663	0.3929055284787607	69.07320221659393
4	2.0	perception	18	diff_vonmises	-0.0113386105826939	-0.6496545319307369	7.05469906113424	1.3089317607612383	0.2215403685564693	3.0533957785799823	0.7612782909130104	-0.5050814144345286	1.266359705347539	49.3081183595271
5	2.0	wm	18	diff_vonmises	0.0677864912871513	3.883879858754097	4.14909162969269	0.6498457644734521	0.1326843886278205	2.448075461609992	0.0667381591108414	-0.3809236600872758	0.4476618191981173	62.85523469623189
6	3.0	ltm	18	diff_vonmises	0.0401088212315525	2.29806617781267	2.8976466484152232	0.6559414489626549	0.1844934298219353	1.611458122404054	0.1153290957944242	-0.2323388619592114	0.3476679577536357	73.64444401104188
7	3.0	perception	18	diff_vonmises	0.0035929366172028	0.2058601042237364	4.522675257693959	1.7348111938578248	0.1761766364241943	2.71482463841832	0.9142321884574048	-0.4133090036316607	1.3275411920890656	61.87585918068061
8	3.0	wm	18	diff_vonmises	-0.0151170648153484	-0.8661440125451767	3.1136443917418672	0.719157252883342	0.1841462503315939	1.8229103418087684	0.1352240254351182	-0.2668072806897003	0.4020313061248186	71.32279349055634
9	4.0	ltm	18	diff_vonmises	-0.0341540056836741	-1.956880379140352	1.4836522481957657	1.4096885809595423	0.2614992405329189	3.561900640690024	-0.1173245199771879	-0.4271698125923004	0.3098452926151125	87.82631940137497
10	4.0	perception	18	diff_vonmises	-0.0694796211590368	-3.980889054580665	1.849071485141901	3.719685022667631	0.3796985007551242	5.765992136789207	0.5353557608620527	-0.6248175873494	1.160173348211453	84.88726395694368
11	4.0	wm	18	diff_vonmises	-0.044082182865459	-2.525723029914716	0.7944957828368615	256.98167723069804	0.7828714334664767	259.27912546714106	-0.1196357935552043	-0.4683338363749598	0.3486980428197554	86.20026249164346
12	5.0	ltm	18	diff_vonmises	-0.0313576764601975	-1.7966625165060517	1.7654857645043875	1.051857136816048	4.51497067015217e-21	2.308571925405099	0.1356497935566139	-0.3526921851277855	0.4883419786843994	102.8221384908958
13	5.0	perception	18	diff_vonmises	-0.0585022073979796	-3.351929576103256	2.139371973874382	2.78879770532633	0.2064959256458835	3.9259061331466354	0.7382198988876821	-0.4974751921057921	1.2356950909934743	86.40229354741584
14	5.0	wm	18	diff_vonmises	0.0346036631746601	1.982643855600292	0.6500791781349512	122.38345685575632	0.628432685897573	123.6698252114426	0.1545767391256731	-0.3652185064506792	0.5197952455763524	106.21306688120124
15	6.0	ltm	18	diff_vonmises	-0.0301265060668925	-1.7261216491082103	0.4991244394467019	78.31384901697076	0.4761039714159745	79.33241402094404	0.0895038637083374	-0.3007589541498525	0.3902628178581899	120.89074158936585
16	6.0	perception	18	diff_vonmises	-0.118243269509508	-6.774840298722741	0.8661025220389725	2.740442939073012	3.1386127572405806e-20	3.7185870512144503	0.274860629006627	-0.4385168892854101	0.7133775182920371	134.24148312910577
17	6.0	wm	18	diff_vonmises	-0.0621066020591087	-3.558446177885437	0.5431564658431522	195.2840775503009	0.5321711335722572	196.2905344767551	0.1487218529544307	-0.3217353575210886	0.4704572104755193	116.97347160021874
18	7.0	ltm	18	diff_vonmises	0.0880545298069076	5.045152924944717	1.3841442952608365	1.7303529314556454	0.2394241906036479	3.3603705194796065	0.0441598173051951	-0.3787267440160109	0.422886561321206	96.03416608914188
19	7.0	perception	18	diff_vonmises	-0.0122545307376957	-0.7021328911833034	0.86678260833788	427.4758553238108	0.8555639767427845	428.8369321769805	0.4870537934872345	-0.4904935905731094	0.977547384060344	94.7956504227436
20	7.0	wm	18	diff_vonmises	0.104260786912466	5.973703058797111	1.424068386580671	2.1240351297415137	0.3907187354572386	3.67760388617328	0.058583199061295	-0.3612685318654897	0.4198517309267848	88.79611398950652
0	1.0	ltm	358	diff_vonmises	0.0053402679613155	0.305974815652312	6.190818354304309	0.4148093138766036	0.046401416010887	3.9323254242088175	-0.2525512687353524	-0.6290241574582379	0.3764728887228855	52.77783476758705
1	1.0	perception	358	diff_vonmises	0.0100083835648869	0.5734381380161173	11.453620367846966	0.7685310230167356	0.0714941092744871	4.253761268620862	0.2992501635124436	-0.6975548151153257	0.9968049786277692	39.44101343465081
2	1.0	wm	358	diff_vonmises	0.0451660010927905	2.587821240100164	3.3441502696624443	0.7319469420959084	0.1150548234474373	4.440755417807779	-0.2806424541870184	-0.6874619202066394	0.406819466019621	67.27082080931089
3	2.0	ltm	358	diff_vonmises	-0.0588208318207463	-3.370185410777581	2.5491298676537437	1.0470874935419867	0.3021958648924469	2.6349506586957467	0.0695742564061118	-0.3611687319190005	0.4307429883251123	73.41082136664147
4	2.0	perception	358	diff_vonmises	-0.028700292685836	-1.6444056416885922	6.806777952237633	1.2093839715803	0.2234564643664373	2.811826708459125	0.6810411293065913	-0.4631722114550344	1.1442133407616255	50.12470272926495
5	2.0	wm	358	diff_vonmises	0.0338204470449535	1.937768876921536	3.8197732530283015	0.8424634250408694	0.2117574571605903	2.556153850850473	0.1344022053536709	-0.3907645590722343	0.5251667644259053	64.03760555128025
6	3.0	ltm	358	diff_vonmises	-0.0416706490529884	-2.3875523203070577	2.577380325223869	0.9490109722327894	0.2166863429329987	2.0834044347904945	0.1623404325601648	-0.2879950241775748	0.4503354567377396	76.9224989792674
7	3.0	perception	358	diff_vonmises	-0.0149729646127694	-0.8578876791104202	4.005032452095009	1.883106385505757	0.2231634336073353	2.940944089450072	0.8709401168461874	-0.4358941427703173	1.3068342596165048	64.87548048239583
8	3.0	wm	358	diff_vonmises	-0.0345455516637966	-1.979314311286687	2.6012445263772666	1.127479758676949	0.3065601788001009	2.371946438791005	0.1790307339678974	-0.3189088505308702	0.4979395844987677	74.35088130831429
9	4.0	ltm	358	diff_vonmises	-0.1081292576545666	-6.195350105489321	1.7743722232771884	1.3945607205784576	0.1816985983231176	3.34039554406698	0.0366758931641132	-0.4348421163925838	0.4715180095566971	89.2911672816432
10	4.0	perception	358	diff_vonmises	-0.085114186075249	-4.87668363880293	1.8561557624417115	3.907804433015082	0.3873866080403545	5.588291969722869	0.6644001388450984	-0.5910523616294826	1.255452500474581	85.60773789507911
11	4.0	wm	358	diff_vonmises	-0.1062634273288016	-6.088445902535467	0.8401593144631839	363.3324098140148	0.8305312750469711	365.4012855323558	0.027480845348009	-0.4695379126556318	0.4970187580036409	88.2506500024206
12	5.0	ltm	358	diff_vonmises	-0.0512486013101972	-2.936328561022922	0.5773241089740684	103.66114996568412	0.5498822937297464	105.0785441698414	0.1733117007704798	-0.4238684194991364	0.5971801202696163	113.5577423518918
13	5.0	perception	358	diff_vonmises	-0.0364544402991918	-2.088685573655316	1.7147258779153678	3.646818575641361	0.3264844473988353	4.937585191026471	0.6526853900488523	-0.5194154769557036	1.1721008670045558	90.69743327800845
14	5.0	wm	358	diff_vonmises	-0.0179311574037002	-1.0273796410167837	0.6699583839368344	296.54198627215607	0.6596259527293784	297.8821844532576	0.2118593509999584	-0.4003300574421473	0.6121894084421058	105.04999505491509
15	6.0	ltm	358	diff_vonmises	-0.0298901011976009	-1.712576647841461	0.5751942194288763	7.36287401925342	0.2934309970546945	8.538465185154072	0.1369610703729371	-0.3839571842382423	0.5209182546111795	128.44410852230916
16	6.0	perception	358	diff_vonmises	-0.0534286292505765	-3.0612349612272567	1.0090286793785057	2.948509045439536	0.0219179872073653	4.083757897211097	0.3482965993916013	-0.5011990006511324	0.8494956000427337	126.81936678805113
17	6.0	wm	358	diff_vonmises	-0.1286234238111842	-7.3695793309033535	0.539151319860094	232.29035932796072	0.5273373332321983	233.4012497166345	0.2355953367364307	-0.3979584386596002	0.633553775396031	118.65481650958137
18	7.0	ltm	358	diff_vonmises	0.0348038506127467	1.9941137509141929	0.575678026040341	208.11247677867365	0.5623881338667049	209.79228502562643	0.0876214319468289	-0.4351020363037108	0.5227234682505397	110.36459700682222
19	7.0	perception	358	diff_vonmises	0.001184394269314	0.0678607929111748	0.8882433388837109	322.8156102443987	0.8726552854983695	324.2317927061466	0.5095680301582632	-0.5085891338168373	1.0181571639751006	93.7419927358261
20	7.0	wm	358	diff_vonmises	0.1569768414229556	8.994110494829757	1.2890948223859413	3.55977808483384	0.4979822904106267	5.112213092191487	0.1483731570344895	-0.3959796596105429	0.5443528166450324	90.08879802987454
0	1.0	ltm	404	diff_vonmises	0.0247579748109583	1.4185274659591147	6.016418230377248	0.3441769161567417	0.0449775894612685	3.437045873730848	-0.24279562745761	-0.549352082026544	0.3065564545689339	53.45436412109373
1	1.0	perception	404	diff_vonmises	0.01722590269041	0.986971522463545	10.798792244060923	0.7629205230122158	0.0773137723507045	3.889951847932417	0.3202052224063145	-0.6380806426151684	0.9582858650214828	40.57385563732586
2	1.0	wm	404	diff_vonmises	0.0337642092090746	1.9345466862767235	4.166821934378159	0.560264043655233	0.1006292639600022	3.833300370457804	-0.2325185785577062	-0.6052247218026433	0.3727061432449371	61.62586208474952
3	2.0	ltm	404	diff_vonmises	-0.0384315384498869	-2.2019649533732704	2.614886369561769	1.072896886391662	0.3619899797509632	2.608341433278975	0.0720251691790792	-0.3551227853074786	0.4271479544865578	71.28836953589916
4	2.0	perception	404	diff_vonmises	-0.0168531639804181	-0.9656151675198578	6.869131127429653	1.2518838508901702	0.2408719395660507	2.879422466116591	0.7085787102179594	-0.4768684005372876	1.185447110755247	49.79043188210031
5	2.0	wm	404	diff_vonmises	0.0535142647736355	3.0661415152749307	4.015705455865472	0.7166407466951951	0.1826068096358253	2.385293874958104	0.1002603439264134	-0.3687675445772653	0.4690278885036787	62.98112308649462
6	3.0	ltm	404	diff_vonmises	0.0147723810584921	0.8463950880105987	2.513732313104682	0.9713181179905152	0.3269723110841108	2.0313167928746654	0.1377120223878437	-0.2687176463539281	0.4064296687417718	74.75772100943183
7	3.0	perception	404	diff_vonmises	-0.0059798379607639	-0.3426194773238886	4.5946269717913895	1.718291962651372	0.1976514257421936	2.7831374969106	0.8894433861430494	-0.424928125217836	1.3143715113608854	61.1183573433313
8	3.0	wm	404	diff_vonmises	0.0035701547615787	0.2045548000469985	2.8087026342210115	0.9000426130782917	0.2667421858970205	2.1167402777995528	0.1354746996158093	-0.296884950549694	0.4323596501655034	72.47344057400241
9	4.0	ltm	404	diff_vonmises	-0.0891493445145224	-5.107881187039895	1.4617541911197582	1.808725455070768	0.3019256718221135	3.83022334168133	-0.0346816486320297	-0.4290487849462777	0.3943671363142479	88.98065916207827
10	4.0	perception	404	diff_vonmises	-0.070286418675099	-4.027115147172669	2.0074430177597598	3.092728653241032	0.2882635639090937	5.009653725342913	0.5571371181396505	-0.5997950047764765	1.156932122916127	84.90313388480806
11	4.0	wm	404	diff_vonmises	-0.086418654620391	-4.951424180947138	0.846757664485093	299.7279644201924	0.8356584352789452	301.89747392647325	-0.0385899384827723	-0.4692632625096564	0.4306733240268841	86.06817203632423
12	5.0	ltm	404	diff_vonmises	-0.0321614335648915	-1.8427144063586731	1.7317885367918446	1.252761019366873	3.67061396820406e-24	2.3997780510035347	0.2102347835769051	-0.3633909502259951	0.5736257338029003	103.72343825321528
13	5.0	perception	404	diff_vonmises	-0.0605986541139289	-3.472047124901214	2.016932146698638	2.897971851546809	0.2425454867452636	3.926922448373912	0.7176049316775137	-0.4730477015597673	1.1906526332372809	87.74090643247641
14	5.0	wm	404	diff_vonmises	0.0155610338741614	0.891581565849557	0.703637074657349	180.9913413870184	0.6880479410516649	182.10243959232625	0.2240410551636742	-0.3496710841708879	0.5737121393345621	103.50488381817686
15	6.0	ltm	404	diff_vonmises	-0.0298950306481242	-1.7128590845517675	1.157732785462856	1.3928567505008258	6.939494767904187e-17	2.210191941627458	0.1654047896779451	-0.300706576975498	0.4661113666534431	122.28591580108105
16	6.0	perception	404	diff_vonmises	-0.0919439867267457	-5.268002391049389	1.04535212310042	2.325354752268744	4.2358040998310305e-20	3.148470351965604	0.3134029907096802	-0.4004203634033676	0.7138233541130479	126.65967761045869
17	6.0	wm	404	diff_vonmises	-0.0844673565720312	-4.839623038204004	0.5657065003221373	183.3934757113553	0.5536891451469174	184.15394672788656	0.2200130344454933	-0.3001343928944351	0.5201474273399285	117.07491087694136
18	7.0	ltm	404	diff_vonmises	0.0185535512943427	1.063040184145323	0.6916547400202411	133.50515279452648	0.6704072042733886	135.0361594015235	0.1131404955694534	-0.3932726786137248	0.5064131741831783	101.20333204781625
19	7.0	perception	404	diff_vonmises	-0.0359948502194212	-2.062353001778381	0.878342104385806	383.62534147662944	0.8657799580008134	384.88692422890745	0.5200201933188282	-0.4807279427964275	1.0007481361152557	94.69352879387526
20	7.0	wm	404	diff_vonmises	0.1342508894091018	7.692009359019097	1.623758617669739	1.8439883712067384	0.3379735950281052	3.241508761908872	0.1349863260413282	-0.3519303346105455	0.4869166606518738	88.0879284993232
0	1.0	ltm	479	diff_vonmises	0.000342480850208	0.0196227072809709	5.456302393675678	0.2509554772879314	9.832837616454138e-17	3.2810613078401385	-0.2942522872190817	-0.5221929709697766	0.2279406837506948	58.39186500975353
1	1.0	perception	479	diff_vonmises	-0.0092475927503838	-0.529848035252773	13.649060711219976	0.7349633833167568	0.0455293644852064	3.839937642537105	0.4332057918561082	-0.6240160716063365	1.0572218634624448	36.385861186671605
2	1.0	wm	479	diff_vonmises	-0.0209692625893629	-1.2014502458720675	5.9296142629484505	0.2966120488123478	0.0004110644573312	3.596459280935797	-0.291133447233538	-0.5722380183592668	0.2811045711257288	55.91651276885148
3	2.0	ltm	479	diff_vonmises	-0.0247763777917164	-1.419581879087015	3.9393989406322896	0.4934857416721795	0.0112652130656697	2.317630958442668	0.0031991044299954	-0.3657579047972625	0.368957009227258	68.23124530074278
4	2.0	perception	479	diff_vonmises	-0.0304532177695278	-1.744840850786746	7.724789373762197	1.2791944302225575	0.2126587766540284	3.2637766134319026	0.7584521767356459	-0.5458200790788154	1.3042722558144613	47.20658592862452
5	2.0	wm	479	diff_vonmises	-0.0027901465930095	-0.1598636240022533	3.5661195165601667	0.7038814730447	0.1094427178218135	2.846709986791899	0.0040936554081013	-0.4373611946737782	0.4414548500818795	67.59676550615396
6	3.0	ltm	479	diff_vonmises	0.042444479823967	2.4318895575414894	2.9449747461108	0.7759936770382475	0.195096448380926	1.9639961341291443	0.126531017170617	-0.2839424732384325	0.4104734904090495	72.68330557206096
7	3.0	perception	479	diff_vonmises	-0.012676394159596	-0.7263038847891397	4.264369730111382	2.2152463865626584	0.2692874666427656	3.3876554768302976	1.0702850675178237	-0.5061800705612804	1.576465138079104	62.57259476942593
8	3.0	wm	479	diff_vonmises	-0.0702941709610949	-4.027559320441812	3.532155901513725	0.7388466394182692	0.1200110219217722	2.225571118752613	0.1325293990920072	-0.3378723657762779	0.4704017648682851	68.59360427951489
9	4.0	ltm	479	diff_vonmises	-0.0490417643060611	-2.809886114612632	1.7581117454680617	1.1208935272104974	0.1667317936384134	3.463893466526019	-0.11209256241102	-0.4666424707469494	0.3545499083359293	87.50645998810691
10	4.0	perception	479	diff_vonmises	-0.0528680536300979	-3.029116344075906	1.971300362329521	3.570123005268662	0.3450467517824039	5.829519003897078	0.5537841862438468	-0.6714539464347107	1.2252381326785575	83.52958966251404
11	4.0	wm	479	diff_vonmises	-0.0905140208013411	-5.186071378676191	0.7252184346552563	277.1215587404391	0.7142804389145829	279.71018455803727	-0.165476112399844	-0.5139742091686159	0.3484980967687718	89.10078362597866
12	5.0	ltm	479	diff_vonmises	-0.0036461503672105	-0.2089090275112397	2.0845978080366754	0.946408272743078	1.2967745643543616e-13	2.1727808275695035	0.1547790395061808	-0.3380671561837471	0.4928461956899279	95.1175342966163
13	5.0	perception	479	diff_vonmises	-0.0314356963321059	-1.8011327258845549	2.1920366400044524	2.5605276497128844	0.1307582543530255	3.726304904823896	0.7228127485821512	-0.505306086353651	1.228118834935802	87.68239840289405
14	5.0	wm	479	diff_vonmises	-0.0301069447732159	-1.7250008695387244	1.3341340015810654	1.6504940199207596	0.1057505144957245	3.08747903869668	0.1215392127641297	-0.3946253337373883	0.516164546501518	107.84535509121876
15	6.0	ltm	479	diff_vonmises	-0.1061022524072183	-6.079211259765389	1.046453023713292	1.1497833858474873	4.563498673099035e-16	2.1226750240805456	0.065140851257416	-0.2881359259360472	0.3532767771934633	126.59450222813656
16	6.0	perception	479	diff_vonmises	-0.0517649671186615	-2.965914142532789	0.7895516297123211	2.6899529551383625	2.591369374798065e-12	3.707007654617107	0.2214333096815853	-0.4227058977179966	0.644139207399582	137.83299910021174
17	6.0	wm	479	diff_vonmises	-0.046875375176478	-2.6857611607044998	0.4205772134923876	214.07828575768457	0.4120823313948397	215.17389333372876	0.0823215252250051	-0.3308539468478315	0.4131754720728366	128.90991823339348
18	7.0	ltm	479	diff_vonmises	0.0571271998091582	3.273147444465328	0.8401463857164383	174.57119451786951	0.8253911052908725	175.96821520516613	0.0607311441372075	-0.3323868954489057	0.3931180395861133	89.84102884911977
19	7.0	perception	479	diff_vonmises	0.0491730401334749	2.817407665475528	0.6683194158329516	250.22849197974227	0.6540606822961087	251.47297471070456	0.3353896285080537	-0.44103483999708	0.7764244685051338	107.41752174228398
20	7.0	wm	479	diff_vonmises	0.0133088545218888	0.762541194257833	0.813711712357479	131.29072845770423	0.7956728936371655	132.78670735748784	-0.0007518642234813	-0.3318810938451868	0.3311292296217054	89.21963124935746
0	1.0	ltm	168	diff_vonmises	-0.0158759591195984	-0.9096254532752186	3.358719426928982	0.2459489494629004	1.9744539670090256e-18	2.4460500225554176	-0.2176048937373544	-0.3890932613069963	0.1714883675696418	74.88383210505583
1	1.0	perception	168	diff_vonmises	-0.0124312899947179	-0.7122604506005474	13.550435669427827	0.6931677690102727	0.0431813488319243	3.037911697250862	0.5034554555242664	-0.4927387246729856	0.996194180197252	36.56143578183466
2	1.0	wm	168	diff_vonmises	0.039360538781441	2.255192751537574	4.620153386267921	0.3086038925414123	1.092911956201942e-18	2.6653257715612435	-0.1676861153637311	-0.424174875122865	0.2564887597591339	63.582160614372384
3	2.0	ltm	168	diff_vonmises	0.0374745392850433	2.147132940230186	4.874536224832252	0.3578148047358003	7.82884430855413e-18	1.6847041372655842	0.0379606743971265	-0.2681111305666294	0.3060718049637559	61.85833002854989
4	2.0	perception	168	diff_vonmises	-0.0117169184063867	-0.6713299735851107	7.592641689653241	1.2934639684564158	0.3027651564590034	2.6513534787558397	0.8383823695108784	-0.4513887977968558	1.2897711673077343	47.32632246434736
5	2.0	wm	168	diff_vonmises	0.0558920417672804	3.202378101634087	4.258905067485716	0.5146201309798906	0.1193799999461688	2.059587232626688	0.0413419633806027	-0.3216990148541109	0.3630409782347136	62.290869364807605
6	3.0	ltm	168	diff_vonmises	0.0760907411324761	4.359678326913375	2.7206022326740134	0.8124642487360301	0.4894346744160232	1.5836790630893625	0.1154025044535269	-0.2060788788139359	0.3214813832674628	69.43180299041649
7	3.0	perception	168	diff_vonmises	-0.0060024741195081	-0.3439164336843217	4.611508790258207	1.9284645667835636	0.2955877703956791	2.6767299015187977	1.0410604814911424	-0.4042317065572957	1.445292188048438	60.38973722879359
8	3.0	wm	168	diff_vonmises	-0.0460606156247017	-2.6390788770697458	3.6497368118056968	0.6112900353301781	0.2328209689933253	1.6485706581338824	0.1201742093251289	-0.2482174032702053	0.3683916125953343	65.34024621009226
9	4.0	ltm	168	diff_vonmises	-0.0512560683100436	-2.936756388599747	0.9556903457538533	115.34556097264306	0.934207053608198	116.9923610609904	-0.0714348666385547	-0.349235136538315	0.2778002698997603	79.23556381389199
10	4.0	perception	168	diff_vonmises	-0.066868642689429	-3.831291007872613	2.265697221181058	2.8523847524278656	0.3264562461504443	4.479930035991019	0.623509301994535	-0.5465733716916257	1.1700826736861607	80.32352487389011
11	4.0	wm	168	diff_vonmises	-0.0720260891665668	-4.126790924077222	0.9630107658085708	271.143788843942	0.9519854869764705	273.0637417217972	-0.0711795828680834	-0.4116715134370352	0.3404919305689518	79.16759472319353
12	5.0	ltm	168	diff_vonmises	0.0315351489451947	1.8068309408760883	1.9056961543319209	0.9684635249878736	0.1300172733346189	2.052426575552212	0.1147668454593164	-0.2780150578095004	0.3927819032688169	90.9067702423504
13	5.0	perception	168	diff_vonmises	-0.0281602696841678	-1.6134646028530173	2.199941708339612	2.3856976894221305	0.1747138725925956	3.397470415110696	0.6642258953936039	-0.4446329815297107	1.1088588769233143	86.25149166707749
14	5.0	wm	168	diff_vonmises	0.0570742327989277	3.2701126583256945	1.5565743054641077	1.0398164581151672	5.593722674116256e-15	2.321564569378209	0.0911329312497513	-0.3490081973877528	0.4401411286375041	108.71292762407252
15	6.0	ltm	168	diff_vonmises	-0.1568019186589911	-8.984088158713826	0.4804472104924142	161.36590108263786	0.4698084950389162	162.42964932402504	0.0630866400790779	-0.2980587763660764	0.3611454164451544	121.30817939666863
16	6.0	perception	168	diff_vonmises	-0.0584826364128728	-3.3508082412557245	0.5201089182560302	178.92336296271097	0.5034494241707433	180.0414862697218	0.2814907595432245	-0.4337684414897769	0.7152592010330014	121.45022224244372
17	6.0	wm	168	diff_vonmises	-0.032018798344558	-1.8345420102236425	0.449227848173461	161.1862611340592	0.4367427766192713	162.3822565311378	0.0914094345516076	-0.3556263821689089	0.4470358167205166	125.7562408819492
18	7.0	ltm	168	diff_vonmises	0.0714961803407253	4.09642938482977	0.9185388978163692	185.01240740541832	0.9038934960851048	186.4727031581912	0.0434160463710213	-0.3411447124489477	0.3845607588199691	85.09151971529656
19	7.0	perception	168	diff_vonmises	0.007422259460922	0.4252641415618817	1.667210314475585	2.0546554849078458	0.0694017391767089	3.4379656407967323	0.3631831457865285	-0.4760495181411923	0.8392326639277208	101.46897838175036
20	7.0	wm	168	diff_vonmises	0.1240686856223714	7.108612055897323	0.7672015600801343	56.40165600591031	0.7288736830258095	57.92785547030493	-0.0300420387194861	-0.327721935587359	0.2976798968678729	91.41993090163088
0	1.0	ltm	289	diff_vonmises	0.050334554544469	2.883957539069115	3.019281314752879	0.3060181382384864	2.2302897958242706e-13	2.227257162266137	-0.1533183956280137	-0.3539992160657448	0.2006808204377311	79.07597459544866
1	1.0	perception	289	diff_vonmises	-0.0156736979399366	-0.8980367413212641	12.620650414478185	0.5743109013933566	2.7373308984788563e-19	2.634685149381081	0.3862431727019377	-0.4193231650060183	0.805566337707956	38.15712783421032
2	1.0	wm	289	diff_vonmises	0.0853731649927115	4.891522037756401	4.297436190092693	0.366718611638515	3.1722376491408608e-21	2.346143468842915	-0.0802396464114414	-0.3733460793914186	0.2931064329799772	65.9848282072677
3	2.0	ltm	289	diff_vonmises	-0.0039850356104415	-0.2283257216876409	3.335104930541171	0.6938125419399567	0.2596694396340066	2.0031896065175228	0.0759615638582793	-0.2978006663419243	0.3737622302002037	66.7099002873299
4	2.0	perception	289	diff_vonmises	0.0028064492755466	0.1607976989063683	6.626548505328461	1.2185756746068634	0.2069569279936425	2.558554357361644	0.7303746863865765	-0.4169248434313486	1.1472995298179252	51.03542392840782
5	2.0	wm	289	diff_vonmises	0.1016572342457678	5.824530479255277	4.713418733053241	0.5100867372240706	0.1533650871155335	1.900809608603921	0.077966749758364	-0.3002501988431966	0.3782169486015607	59.01581921211943
6	3.0	ltm	289	diff_vonmises	0.0406466399446122	2.3288809202141496	1.2261023986979358	49.08709270244566	1.1699358892833516	50.13578387765792	0.1176412776276585	-0.2835447900211161	0.4011860676487746	76.17941246778216
7	3.0	perception	289	diff_vonmises	-0.0122894598854496	-0.7041341839315949	4.574876547145281	1.758406132206719	0.1436579282659464	2.8679690973787446	0.9296043943951552	-0.4391371483711774	1.3687415427663323	61.84323281999846
8	3.0	wm	289	diff_vonmises	0.0267330446160357	1.5316906300337776	2.646040737287048	0.9291150232779356	0.357851524762537	2.1657169134155603	0.0884532443833683	-0.2940982100059626	0.3825514543893309	71.5576631363281
9	4.0	ltm	289	diff_vonmises	-0.0827069695968644	-4.7387602942171485	0.9795080336744874	76.50354426425706	0.9460982741445888	78.22904206907424	-0.0870466964710772	-0.3641237294351267	0.2770770329640495	77.93263555822483
10	4.0	perception	289	diff_vonmises	-0.101342618200167	-5.806504307675254	1.726695582572463	3.958547380245012	0.4136888422119913	5.692273037603179	0.5544657599314269	-0.5698065662200482	1.124272326151475	86.76901104440333
11	4.0	wm	289	diff_vonmises	-0.081722998225199	-4.6823828874590205	1.0097044671815871	277.1625585764094	0.9982576580723186	279.1134242656108	-0.0660336684088633	-0.4245579817778235	0.3585243133689602	77.48680202354998
12	5.0	ltm	289	diff_vonmises	0.0174854978965658	1.001845232158103	1.677459015822517	1.1923179285612429	0.1302293508311455	2.306645073656206	0.1363629274148445	-0.302442857126343	0.4388057845411875	96.4892114305805
13	5.0	perception	289	diff_vonmises	-0.068507862464641	-3.92521138268664	1.8603016895372395	3.0069687412818187	0.3206203535918556	4.0621615464864345	0.6162200429620518	-0.4457280176410885	1.0619480606031404	88.2215397898
14	5.0	wm	289	diff_vonmises	0.0763528520296494	4.374696175085793	0.6655418664546507	128.33978946856442	0.6472659260183868	129.53965356715165	0.1165872235743705	-0.3243809270277715	0.4409681506021421	104.03125327483062
15	6.0	ltm	289	diff_vonmises	-0.1274707625480556	-7.303536705317868	0.5009564503622574	188.2605484300605	0.4912302117658366	189.4332337437216	0.0545922742457918	-0.3148258277976659	0.3694181020434577	118.33107725396538
16	6.0	perception	289	diff_vonmises	-0.127433825805271	-7.301420385847347	0.6274725850822903	194.33256349829452	0.611300466722199	195.5259137891947	0.2764243157837853	-0.411999084705366	0.6884234004891514	110.49500344308
17	6.0	wm	289	diff_vonmises	-0.0398865774096424	-2.2853325447943638	0.6037586044843386	149.0992927949926	0.5891781211885921	150.27914594573187	0.100410838741233	-0.3214763461606491	0.4218871849018821	108.9884246874159
18	7.0	ltm	289	diff_vonmises	-0.0620550788292075	-3.5554941142652194	0.9105711210018828	142.5814377808377	0.8859249709070687	144.5672786566681	0.0337516700750626	-0.4549350707555462	0.4886867408306088	85.13791851864579
19	7.0	perception	289	diff_vonmises	-0.0614162892367497	-3.518894166620505	2.47342635673094	1.924927783434498	0.0089019838136608	3.841282618230902	0.5104602547202892	-0.5979176381992782	1.1083778929195676	86.9970031723073
20	7.0	wm	289	diff_vonmises	0.1665054487121798	9.540059477139891	2.892057547683179	0.7379673280588525	0.1081929498643624	2.618368341039526	0.0102861835250734	-0.3919003550944907	0.4021865386195641	74.5829152589422
0	1.0	ltm	47	diff_vonmises	-0.0282801924575032	-1.6203356716326411	6.1677092268041065	0.3092029444115901	0.0182912547281606	2.694979864959426	-0.1372494818350459	-0.4285102513756665	0.2912607695406206	53.979150938392365
1	1.0	perception	47	diff_vonmises	-0.0203500703650786	-1.1659731447132595	12.97466370145119	0.7439367562544126	0.0609213325585785	3.264690178946485	0.5065861477430329	-0.5337693704402187	1.0403555181832516	37.258461027298296
2	1.0	wm	47	diff_vonmises	0.0116148963516297	0.6654845404302803	5.543266468588151	0.3864740350894046	0.0172198349683483	2.968077767874686	-0.1266004783529211	-0.4709661780407305	0.3443656996878094	57.01472053418962
3	2.0	ltm	47	diff_vonmises	-0.049956308094333	-2.8622856138605157	3.03725389233122	0.7622802415988904	0.2658624395507019	1.9514871803093952	0.1046640247937495	-0.2812040750470467	0.3858680998407963	69.77898535685242
4	2.0	perception	47	diff_vonmises	-0.0302661252199279	-1.7341212373163346	7.323222931930289	1.208408147443873	0.284583078081609	2.426658314833091	0.7775198915422862	-0.4083372881666108	1.185857179708897	48.26448305465115
5	2.0	wm	47	diff_vonmises	0.0197558270252867	1.1319255093394205	3.984952641571885	0.6813840353675915	0.2108270419475383	2.007328808046784	0.1326947172387731	-0.3084393080510148	0.441134025289788	63.06489106991555
6	3.0	ltm	47	diff_vonmises	0.0002277627075163	0.0130498418711583	2.172259082910309	1.2603816044782303	0.5696994735765326	1.9825747924414745	0.1682376013300002	-0.2135719317958347	0.3818095331258349	75.26633938891544
7	3.0	perception	47	diff_vonmises	-0.0190384820393742	-1.0908246691917636	4.370449604578708	1.8569516249390337	0.3327507066967483	2.5341726867128083	0.9507607452183	-0.3763697732806295	1.3271305184989295	61.55991054897447
8	3.0	wm	47	diff_vonmises	-0.0523025579414408	-2.996715827783008	2.5661288953287484	1.1043856305593167	0.4862182999781664	1.9830985246182775	0.1767179592898023	-0.2473550434591572	0.4240730027489596	71.74457836974241
9	4.0	ltm	47	diff_vonmises	-0.1448039194689583	-8.296653442523567	1.248986346179877	5.245279835537883	0.7594978656707069	6.583562569010177	0.0878099381274033	-0.329528207595121	0.4173381457225243	82.69556646482883
10	4.0	perception	47	diff_vonmises	-0.0849779720698239	-4.8688791511815	2.369265708984692	2.6337271470612214	0.2765598248066162	3.948937323406773	0.6906956890547495	-0.4985040783156456	1.1891997673703951	80.54980802431362
11	4.0	wm	47	diff_vonmises	-0.1374576683389126	-7.875744257528734	1.0332517208529644	357.4837030231169	1.024262051304393	359.0059753814697	0.0791845502480441	-0.3716809399927996	0.4508654902408437	80.70583406898496
12	5.0	ltm	47	diff_vonmises	-0.0054722950985118	-0.3135394133948555	1.3627343550859357	1.7622335500347488	0.1789225582910264	2.6175197276472235	0.2261478423370523	-0.2983719891157538	0.5245198314528062	104.41076350294507
13	5.0	perception	47	diff_vonmises	-0.0354745076667851	-2.032539569611271	2.1731147282638603	2.3966615718557662	0.1801701192191794	3.1432722904336194	0.7055602631676704	-0.4053687744686427	1.1109290376363132	87.00290361456939
14	5.0	wm	47	diff_vonmises	-0.0019274094506066	-0.1104324269133914	0.7037328409962532	170.23250492198727	0.6892757172320861	171.07778608288265	0.230207781904923	-0.2942494769334534	0.5244572588383765	104.62095766100325
15	6.0	ltm	47	diff_vonmises	-0.0826620730012969	-4.7361879087766265	0.4576594067718633	108.60760164904764	0.4416551817536226	109.23442984239328	0.1742275426779542	-0.2658049123778863	0.4400324550558405	128.22565449431818
16	6.0	perception	47	diff_vonmises	-0.0437825143323778	-2.508553287716287	1.135037262676975	2.2493576990584057	6.919404905067324e-12	2.936489803463559	0.3583056375094938	-0.382055108126506	0.7403607456359997	123.1532034011925
17	6.0	wm	47	diff_vonmises	-0.1328704572956792	-7.612916425015658	0.5263480946089322	142.48563834501397	0.5116680191580019	143.07763675183332	0.2446831183164803	-0.2849424005501397	0.5296255188666201	122.1284901902492
18	7.0	ltm	47	diff_vonmises	0.0785508676746716	4.500633194849292	0.7817184070901289	169.58345350870775	0.7669289594063822	170.58153258174283	0.1821502387035494	-0.2959088488695691	0.4780590875731185	97.55547658146222
19	7.0	perception	47	diff_vonmises	-0.0352030991826261	-2.0169890089449147	0.8749367575157105	115.15741945205184	0.8409374114184821	115.99648051106342	0.4855839349663995	-0.3786019944435335	0.864185929409933	96.64013090187136
20	7.0	wm	47	diff_vonmises	0.1652845347393352	9.470106259347348	1.4409421151367838	2.0120059773866337	0.4208199882626328	2.9279614828730773	0.1711594322599231	-0.2638511631024146	0.4350105953623377	91.02191376774036
0	1.0	ltm	456	diff_vonmises	0.0835330393601504	4.786090605236804	3.700161683167535	0.3014269963134893	1.4968916809328732e-17	3.1843810546073663	-0.2847612017594396	-0.5066742944814976	0.2219130927220579	71.25529549986936
1	1.0	perception	456	diff_vonmises	0.0087671274687022	0.5023194024098506	11.82557605798261	0.675545250594967	0.0274745555199541	3.627689916651661	0.3228377115584803	-0.5830639548695392	0.9059016664280196	39.18090824381028
2	1.0	wm	456	diff_vonmises	0.0454890045140181	2.606327972904788	4.402177539984406	0.3751343681399163	0.0045623267119561	3.371249342091168	-0.2352137831195697	-0.5349360273175161	0.2997222441979464	64.66258667670743
3	2.0	ltm	456	diff_vonmises	0.0196031121454906	1.1231755912582566	3.2473103160493317	0.7064936585989198	0.1689437556624915	2.473217505130318	0.0211861198028621	-0.3720753664824215	0.3932614862852837	68.90485389915352
4	2.0	perception	456	diff_vonmises	-0.0043333039182803	-0.2482800258649689	6.64661861881935	1.342869800875807	0.2048907127768151	3.181639691819665	0.7379724985996894	-0.5204219616493967	1.258394460249086	50.7986695986958
5	2.0	wm	456	diff_vonmises	0.0700495535103518	4.013543772918981	4.092273349476603	0.6428186309411642	0.1125815925148156	2.586509723559528	0.0411648230780034	-0.4024713073772151	0.4436361304552185	63.56823322813296
6	3.0	ltm	456	diff_vonmises	0.0567636537807352	3.252317791377951	3.139073814710972	0.7192974530390945	0.1303218229426298	2.0815757984523424	0.1075663230267405	-0.3104318287363379	0.4179981517630785	72.07147763496195
7	3.0	perception	456	diff_vonmises	-0.0006065032887471	-0.0347500787060133	4.464584773308284	1.9348122690471832	0.1232142659881914	3.3045689642106155	0.9862846987960964	-0.5061940307841568	1.492478729580253	62.74328803879558
8	3.0	wm	456	diff_vonmises	-0.0040606803651755	-0.2326598468762009	3.541812477693592	0.6920570417613129	0.0644539813450233	2.2801244391878237	0.1109655735977919	-0.3508008977518849	0.4617664713496768	70.00319959378521
9	4.0	ltm	456	diff_vonmises	0.0396472169082305	2.2716181982813244	1.853705325062308	0.7182106169163907	0.0708914789621516	3.285242707593256	-0.2067360900765087	-0.4822558921757049	0.2755198020991961	90.4943528079913
10	4.0	perception	456	diff_vonmises	-0.0537219527406228	-3.0780411592389534	1.5074934411750556	5.180242442890284	0.4201268652800199	7.618972757027363	0.4836925566036525	-0.7085101890051215	1.192202745608774	89.71587828060137
11	4.0	wm	456	diff_vonmises	0.0149438230397034	0.8562179899653668	0.6997188070470481	199.2314202448161	0.6843356489017486	202.0410291421869	-0.2071671575464719	-0.5472057250597899	0.3400385675133179	89.68311456568816
12	5.0	ltm	456	diff_vonmises	-0.0316603056353796	-1.814001891001509	1.891467956966578	0.9823027475475328	9.213081589820337e-14	2.243418099624404	0.1328584897483251	-0.3459025812953645	0.4787610710436896	99.6036477397934
13	5.0	perception	456	diff_vonmises	-0.0522928757702974	-2.99616108023997	1.6636226771177594	3.8465983393672105	0.344831909342303	5.049978804714418	0.6726809757398409	-0.5109094933368166	1.1835904690766574	91.46818083877976
14	5.0	wm	456	diff_vonmises	0.0400896346685123	2.296966868727104	1.2095371683591098	2.070897826390835	0.1777679507943957	3.490031403547548	0.130481170058486	-0.3911340518743095	0.5216152219327955	107.29134389226856
15	6.0	ltm	456	diff_vonmises	-0.0776799381903213	-4.4507326111425165	0.4560728577709551	72.19732485803563	0.4319051160644817	73.3236266453922	0.0593183602995139	-0.317580871697789	0.376899231997303	124.85163505445324
16	6.0	perception	456	diff_vonmises	-0.0944771995363535	-5.413144793648396	0.6507416993918824	7.884651959670967	0.3076126456852581	9.007935644604622	0.2649900645951411	-0.439085637101001	0.7040757016961421	125.36620393237874
17	6.0	wm	456	diff_vonmises	0.0290081494570169	1.6620445353717836	0.5191717073430461	215.23923996348125	0.5091324712010915	216.44858899164623	0.1042643119806925	-0.3492168678992051	0.4534811798798976	117.81370392076266
18	7.0	ltm	456	diff_vonmises	-0.0340579256507405	-1.951375398757783	0.8138647535891449	124.5877583066636	0.7882332506226417	126.72622417831124	-0.0347024146383034	-0.4623621333072201	0.4276597186689166	88.41709681473915
19	7.0	perception	456	diff_vonmises	0.0468253548854689	2.682895209139664	0.7260014106818687	350.7053898888024	0.7118458776610695	352.6857677371823	0.3789002983401843	-0.60714123775929	0.9860415360994744	101.56925417027918
20	7.0	wm	456	diff_vonmises	0.0188999928670205	1.0828898241076403	1.1189814329742744	3.4907112374265257	0.4613552225278508	5.664410627736846	-0.085927097720402	-0.4484045103801785	0.3624774126597764	89.18063599054113
0	1.0	ltm	387	diff_vonmises	0.0115207555410052	0.660090669301557	6.248105915047592	0.3245467296375114	0.0548615981917851	3.319065037643288	-0.2410478295102884	-0.5326774472242551	0.2916296177139667	52.14586753159148
1	1.0	perception	387	diff_vonmises	0.0013673899416183	0.0783456726033721	12.701847320280107	0.6524563719328228	0.0762793802092391	3.6442078667807234	0.2931316890575988	-0.6009934100924362	0.894125099150035	37.46323169693415
2	1.0	wm	387	diff_vonmises	0.0394496322035458	2.2602974286065547	3.642015359919294	0.5992399724092569	0.1319587168804013	3.841904137099276	-0.2570971596467842	-0.601360492955532	0.3442633333087477	63.98752964807724
3	2.0	ltm	387	diff_vonmises	-0.0543641569233691	-3.1148367484959643	3.1837950123150183	0.6902344422318988	0.1765407524763224	2.249935543385436	0.0436598985014693	-0.3359451480269957	0.3796050465284651	69.59582188658035
4	2.0	perception	387	diff_vonmises	-0.0217783180527635	-1.2478057093169217	7.452357108769395	1.118019639049248	0.2390613093317472	2.8372658481412736	0.6302718917773631	-0.4763355456820822	1.1066074374594457	47.816658948185705
5	2.0	wm	387	diff_vonmises	0.0523863119888997	3.0015145812195403	4.031972402941237	0.7124803217733144	0.2027543944005907	2.523356513813512	0.0633229767764128	-0.3921238196163401	0.4554467963927529	62.1460366232493
6	3.0	ltm	387	diff_vonmises	-0.0089997041682153	-0.5156450657050357	1.573347968972939	4.397822327201413	0.9291239584343536	5.602749386783738	0.121684819768784	-0.3212004737011424	0.4428852934699265	74.65661004927381
7	3.0	perception	387	diff_vonmises	-0.0214221896074438	-1.227401052435548	4.361930251796658	1.8902685165255224	0.2737014276972678	3.1318031253548364	0.8800342213856966	-0.4727959377328115	1.352830159118508	61.65980236600046
8	3.0	wm	387	diff_vonmises	0.0127414671950151	0.7300322950787567	2.425719803276411	1.165198724648823	0.4058827809391022	2.6658124353020223	0.0633706575478039	-0.3483831377034752	0.4117537952512791	72.3276537290754
9	4.0	ltm	387	diff_vonmises	-0.0725411722758172	-4.156303012335743	0.8583847876665138	194.8150124496256	0.8429045201399381	196.6910877733893	-0.0095781246279145	-0.4141329874139252	0.4045548627860107	86.37553989877915
10	4.0	perception	387	diff_vonmises	-0.0885315579918293	-5.072484626649514	1.999403826640494	3.3115803081304818	0.3856002967527813	5.0003514474569215	0.5801385178329019	-0.5564067028041482	1.13654522063705	82.82170441288551
11	4.0	wm	387	diff_vonmises	-0.1222881613575901	-7.00659553020472	0.8953789357044057	294.3912498777067	0.8841199147695341	296.4614017556479	-0.0302384194632026	-0.4523958108410184	0.4221573913778158	83.78338007116892
12	5.0	ltm	387	diff_vonmises	0.0175546385124984	1.005806697643974	1.0820495958475709	4.18018559574737	0.4351834074532317	5.7670487862866615	0.1395747697871747	-0.4104059868141751	0.5499807566013499	97.79244520016567
13	5.0	perception	387	diff_vonmises	-0.0539091143899852	-3.0887647318341305	2.088057711121072	2.719071476584742	0.2331661193715762	4.29097895620742	0.5890025776115076	-0.536943485015595	1.1259460626271025	85.62016371872943
14	5.0	wm	387	diff_vonmises	-0.0201919595323917	-1.1569140613049975	0.6693476604102424	217.75560657171965	0.655546574315621	219.42447854891884	0.1108910619611833	-0.4256889058262771	0.5365799677874605	102.39731342927716
15	6.0	ltm	387	diff_vonmises	-0.089949327324172	-5.1537168257158354	0.5112077429406846	146.17659728490003	0.4946701094849735	147.67921775630882	0.0827674036436079	-0.4092369885453237	0.4920043921889316	117.91090062890008
16	6.0	perception	387	diff_vonmises	-0.0776024933436645	-4.446295348284043	1.196813915866465	2.293492962174644	0.0503560555802193	3.852610800121744	0.2237469952222343	-0.5034140928480532	0.7271610880702875	117.2157030614149
17	6.0	wm	387	diff_vonmises	-0.1617838861654649	-9.269533870506088	0.5682001659005733	192.15310545572305	0.5544869165662036	193.6563783096002	0.1103641680407179	-0.4089060603419483	0.5192702283826662	112.09921784344128
18	7.0	ltm	387	diff_vonmises	-0.0229734833529367	-1.316283636837333	0.7353378929793148	299.7013500196525	0.7246316049009545	301.55490775991154	0.0760849204775695	-0.4436577165117334	0.519742636989303	96.19650999809852
19	7.0	perception	387	diff_vonmises	-0.0878438445062901	-5.033081546413886	1.390799045677941	4.199714775415683	0.3681422172808902	5.874879525760778	0.4314964325904806	-0.5372224938718952	0.968718926462376	95.0461611834898
20	7.0	wm	387	diff_vonmises	0.1809420265988443	10.367214460657664	2.163875895747918	1.4189890822494988	0.2959548572303581	3.155647543630064	0.1068886656349219	-0.4063428013623236	0.5132314669972455	79.11381547951291
0	1.0	ltm	266	diff_vonmises	-0.1214289252788051	-6.9573649292849655	3.356699349159491	0.4004904796479866	4.191301703943981e-21	1.7454192181440908	0.0016956189327506	-0.2774526496897601	0.2791482686225107	74.90515989624228
1	1.0	perception	266	diff_vonmises	-0.0868627730676833	-4.976870293580892	18.488438637272683	0.6294822514203108	2.9325575279442964e-17	2.221938351319268	0.7186827066171484	-0.3536324718579177	1.072315178475066	31.481886962701537
2	1.0	wm	266	diff_vonmises	-0.0677199417403876	-3.8800668505960303	5.436809407198108	0.3696533487659476	1.2458993548408758e-18	1.9185844751239267	0.0297674142469892	-0.3053458517296234	0.3351132659766127	58.49945054778516
3	2.0	ltm	266	diff_vonmises	-0.0635463015588522	-3.640934882987839	2.819878141350183	0.8858736146847861	0.3486960730882461	1.7423521204934782	0.1786353702688681	-0.2356777718926989	0.4143131421615671	71.65211431674274
4	2.0	perception	266	diff_vonmises	-0.0544367781051058	-3.118997635712732	7.230217087350101	1.120685928917473	0.2141232344088855	2.0768000248753644	0.7750738403537342	-0.3414755587793862	1.1165493991331203	49.09647555868804
5	2.0	wm	266	diff_vonmises	-0.0744720155098963	-4.266932180549866	3.4631526902907157	0.6873565156578499	0.2497210430614277	1.6723190947236024	0.1517063854109849	-0.2471908725517279	0.3988972579627128	66.90710014478486
6	3.0	ltm	266	diff_vonmises	-0.0213767101721304	-1.2247952727374487	1.299335922984932	158.803873152932	1.2804352034382025	159.5191521500825	0.2647784032256624	-0.2547502041230665	0.5195286073487289	76.9126962665909
7	3.0	perception	266	diff_vonmises	-0.055430929957578	-3.1759583410545	4.059997138760924	2.4056246401850068	0.3997670234041413	3.1959453729936067	1.1354135046655935	-0.4606262139685186	1.5960397186341122	63.01400392152303
8	3.0	wm	266	diff_vonmises	-0.1172872653885304	-6.720065297393615	1.2945755418051	129.6185761585543	1.2698521521513224	130.5627056773328	0.2141915352255523	-0.2929242454084466	0.507115780633999	75.54828221751637
9	4.0	ltm	266	diff_vonmises	-0.1952147876108103	-11.18498342864218	1.893352344510849	2.3704598805063117	0.7045605207230656	3.3699471690490626	0.221076064600505	-0.2973711999500451	0.5184472645505501	76.32457782490198
10	4.0	perception	266	diff_vonmises	-0.0981712970171874	-5.62480098841009	2.4445373377333195	2.5045612279739147	0.1651802922933691	3.72014159388144	0.7629759811350788	-0.5042189887516471	1.267194969886726	82.40539101873432
11	4.0	wm	266	diff_vonmises	-0.1971517165946015	-11.295961284629984	1.183558317667721	322.7920973780745	1.1724472318554675	324.09162421717247	0.178551346482493	-0.3601116958924919	0.538663042374985	77.4290032147814
12	5.0	ltm	266	diff_vonmises	0.0206046476352861	1.1805593478561085	1.386128440121155	1.9860774830626555	0.2970637996699258	2.2775161593274875	0.3429756716401097	-0.2125177589809658	0.5554934306210756	101.45513118900038
13	5.0	perception	266	diff_vonmises	-0.0212848896639247	-1.219534345144518	1.9566164055941229	2.2637900353753984	0.1725024779776709	2.540373710916265	0.6755667544020723	-0.3157157297340192	0.9912824841360914	92.24419634500164
14	5.0	wm	266	diff_vonmises	-0.0594431992334646	-3.405844436832816	0.7686359448590698	91.77067800104204	0.7463030038384031	92.162725893223	0.2762579883886538	-0.2088190939906029	0.4850770823792567	103.5210486931746
15	6.0	ltm	266	diff_vonmises	-0.1800525905817628	-10.316253530731965	0.6680244006692042	1.739385362862057	3.638519360437003e-20	1.9785360535674872	0.1694649377381846	-0.1875618549137658	0.3570267926519504	143.2617717270625
16	6.0	perception	266	diff_vonmises	0.0203678357558154	1.1669910266238777	1.1931473341966106	2.172783665043246	0.1825715345693938	2.544221090004346	0.3390202985332169	-0.2590495225706423	0.5980698211038593	112.13828479126852
17	6.0	wm	266	diff_vonmises	-0.1062755778900235	-6.089142078412197	0.4384413192151714	112.83933422635155	0.4257544208933527	113.10002153753857	0.2036607467832176	-0.1969727863875761	0.4006335331707937	132.02538073741454
18	7.0	ltm	266	diff_vonmises	-0.0033084423899771	-0.1895597857078664	1.049555100365483	155.53631458462544	1.0321649074403236	156.1177681976001	0.3074951279367326	-0.2386766832532902	0.5461718111900229	87.27969989507181
19	7.0	perception	266	diff_vonmises	0.0074684364226255	0.4279098865782255	1.2055283440690925	3.092589813997734	0.2333649444770248	3.726023617337164	0.4368458560906435	-0.3577765661136602	0.7946224222043037	108.94514270547609
20	7.0	wm	266	diff_vonmises	0.0648164925529596	3.7137114661257193	0.8373296679918063	58.646394848222926	0.8061335890622948	59.22966324974416	0.1715085764618251	-0.1974992306360068	0.369007807097832	96.37383348664432
0	1.0	ltm	243	diff_vonmises	-0.0204674283041794	-1.1726972593160867	5.707777234611274	0.2317606205079706	2.621340075993714e-15	3.8970108162844026	-0.4046514652073546	-0.6202261583313049	0.2155746931239502	57.065502171852216
1	1.0	perception	243	diff_vonmises	0.0235854370719855	1.3513460021961623	12.319020967816314	0.8556001568157358	0.0901986101706501	4.453135552790203	0.4110673094518002	-0.7387006561734822	1.1497679656252826	37.9770164460972
2	1.0	wm	243	diff_vonmises	0.0832774670611047	4.771447391141032	4.757624712876869	0.329608002847283	4.872769979179705e-20	4.167442550913284	-0.3849524728200423	-0.663248563242366	0.2782960904223237	62.63387210134664
3	2.0	ltm	243	diff_vonmises	-0.0161573939151166	-0.925750479266542	3.0977371027364384	0.467756403728703	5.368699908757157e-21	2.349183108538296	-0.0618891474955303	-0.3732480564187213	0.3113589089231909	78.04606151388467
4	2.0	perception	243	diff_vonmises	-0.0256828936485868	-1.4715214117473752	8.120449949383335	1.279093472374918	0.2199801935678838	3.195753473934245	0.803780479551991	-0.5384167635058664	1.3421972430578577	46.10456965017445
5	2.0	wm	243	diff_vonmises	0.0352938172744439	2.0221867727315543	3.819264599388132	0.7052339021841956	0.1119349466742458	2.860533159031057	0.021070280437121	-0.4423666221053523	0.4634369025424733	65.51900270659726
6	3.0	ltm	243	diff_vonmises	0.0063514941012621	0.3639138056045579	3.427448107261053	0.4412413830234239	0.04275560201942	1.269738531754018	0.1006988325184575	-0.1960013763300587	0.2967002088485163	72.16038883397397
7	3.0	perception	243	diff_vonmises	-0.0002703729963487	-0.015491231585087	3.79158725528552	2.118281974469322	0.3039051466527391	2.9190268712993217	0.966328749709467	-0.4183534469138634	1.3846821966233305	65.86959942253799
8	3.0	wm	243	diff_vonmises	-0.0980964099823667	-5.6205102773746125	3.5435906501451924	0.6458389997163636	0.1280519498412318	1.6936909519254548	0.1593597974121987	-0.2556209076490627	0.4149807050612615	68.73260235379288
9	4.0	ltm	243	diff_vonmises	-2.09219958083678e-06	-0.0001198742058809	1.6562914797391834	1.2449386608747612	0.2570778626548496	3.3190975930622177	-0.0992353907185902	-0.4151287387445634	0.3158933480259732	84.91125079991181
10	4.0	perception	243	diff_vonmises	-0.077557177119421	-4.44369891989142	1.7287385570690506	5.681821849750155	0.6251893788550899	7.446475562187818	0.6697926697807581	-0.6137362086699694	1.2835288784507275	82.07673003389382
11	4.0	wm	243	diff_vonmises	-0.0523494479512731	-2.999402427447727	0.7441000287435433	230.42656248158667	0.7321188083539231	232.67788460005465	-0.1275208636357234	-0.4532558313357953	0.3257349677000718	88.75063869473834
12	5.0	ltm	243	diff_vonmises	-0.0188881593554981	-1.0822118138405876	1.0390951288389352	2.238090259202257	0.2345859480327679	4.130342827700795	-0.0385425986471444	-0.4170951368519541	0.3785525382048096	105.073161863841
13	5.0	perception	243	diff_vonmises	-0.00810168050648	-0.4641920999847181	2.2078456629811263	2.707433075004177	0.1641941785632633	4.525899999122267	0.639035097886514	-0.6053210644932071	1.244356162379721	85.54875734251118
14	5.0	wm	243	diff_vonmises	-0.0229180401089155	-1.313106972952404	0.4739773397771379	240.6036689441277	0.4634717404888668	242.7129378679645	-0.0360823912229264	-0.493171699566691	0.4570893083437646	117.85135098994252
15	6.0	ltm	243	diff_vonmises	-0.095158992982265	-5.452208680598804	0.4376153567401665	188.14649062432983	0.4268906487510109	190.18893277827829	-0.1035589072872582	-0.4438454947991737	0.3402865875119154	119.45785091709656
16	6.0	perception	243	diff_vonmises	-0.0535379846622331	-3.067500564782091	0.2852147892191246	222.12899652046104	0.2706984665590948	224.03939936285423	0.1818584642818734	-0.6614901494710601	0.8433486137529336	146.25184974853465
17	6.0	wm	243	diff_vonmises	-0.1344695254158776	-7.704536279456944	0.4101808511466039	241.85603649261284	0.3996231977599965	244.07036955484995	-0.0362471597626168	-0.5391120819915329	0.5028649222289161	126.43346381425722
18	7.0	ltm	243	diff_vonmises	0.2763983286487069	15.836457696040778	0.5992591505914506	158.7397135547798	0.5858655018585556	160.49616064260607	-0.0596291265193684	-0.3732256870184436	0.3135965604990751	102.2333328538776
19	7.0	perception	243	diff_vonmises	0.0599069379905254	3.432414710409044	0.7843616798245076	237.59047424908175	0.7667233411129407	239.1378191232192	0.3402180285403631	-0.4833397963333361	0.8235578248736992	98.17750337365032
20	7.0	wm	243	diff_vonmises	0.1194423392104838	6.843541931930669	0.7894991398678477	132.5721094766994	0.7692691036406624	134.4564010375249	-0.0489364020004501	-0.4005251777492429	0.3515887757487927	88.9895997083301
0	1.0	ltm	122	diff_vonmises	-0.0301925951169885	-1.7299082727507404	6.747407012077304	0.3633308062047115	0.0155226984404473	4.05105397141835	-0.2858302203714817	-0.6450509919509164	0.3592207715794346	51.59983716905222
1	1.0	perception	122	diff_vonmises	0.0008015245378501	0.0459239731949858	12.30114446654036	0.8528392342430459	0.0748532323287533	4.483226463910192	0.4127851164058836	-0.7378193122372487	1.1506044286431325	38.086563607967406
2	1.0	wm	122	diff_vonmises	0.0162100881955108	0.9287696391376108	4.837136531396331	0.4852219843238346	0.0426544382089522	4.400973168156215	-0.3172483799226436	-0.697861322734833	0.3806129428121894	59.39706203862414
3	2.0	ltm	122	diff_vonmises	-0.111515741178679	-6.389381318811547	3.0881487128953	0.7212970685626587	0.0969215608942507	2.5294397016564365	0.0377257398745095	-0.3821267384711789	0.4198524783456884	73.02595412681049
4	2.0	perception	122	diff_vonmises	-0.0477617436518892	-2.736546333439005	7.608840545841113	1.1959699510879964	0.1686054973788701	3.032293656090673	0.7257118257591112	-0.4993447783346566	1.2250566040937678	47.86637733295129
5	2.0	wm	122	diff_vonmises	-0.0038973852915694	-0.2233037283432959	3.642581584754327	0.8651622482917543	0.1644555357040437	2.8249149039033905	0.1054319403042183	-0.4304178772883422	0.5358498175925606	66.16805026451917
6	3.0	ltm	122	diff_vonmises	-0.0662576485690284	-3.7962836234663455	2.4454424117453413	0.857121507433746	0.1226173910321052	1.8520371174847916	0.1666655777654355	-0.2635166688866927	0.4301822466521282	82.00079079795259
7	3.0	perception	122	diff_vonmises	-0.0200867261153608	-1.1508846306453888	3.5592319545511204	2.196196962199694	0.3084113512945885	3.0911181065225564	0.9294375251842788	-0.4355478518678849	1.3649853770521636	67.59485021103922
8	3.0	wm	122	diff_vonmises	-0.0951781087016402	-5.453303930641364	2.7153066967349098	1.0775547169716198	0.2870531349786173	2.150683031354606	0.2195368958544607	-0.2922473936638583	0.5117842895183191	74.07378762451853
9	4.0	ltm	122	diff_vonmises	-0.1152848777193395	-6.6053369349999365	1.945531172852655	1.224368217013743	0.1426404698350652	3.142045336120085	0.0473224198639695	-0.429733041411086	0.4770554612750555	87.9255214368255
10	4.0	perception	122	diff_vonmises	-0.0962247345244384	-5.513271173017106	1.7912458187335023	4.846261612284263	0.518818469947264	6.507216829662874	0.7097427029749981	-0.602237374648425	1.311980077623423	83.72847484349504
11	4.0	wm	122	diff_vonmises	-0.1454188467270989	-8.331886179122577	0.8116072109735815	297.3036102631055	0.8009709192855293	299.295415331696	-0.0013251313286133	-0.4417825135787723	0.4404573822501589	89.1159753520408
12	5.0	ltm	122	diff_vonmises	-0.0544562919777436	-3.1201156982568343	0.5304898714614161	110.9592529361579	0.5065210282893438	112.48096333853732	0.121135062304674	-0.4321041767724551	0.5532392390771292	117.09255084927094
13	5.0	perception	122	diff_vonmises	-0.0240359649261846	-1.377159346794854	2.1295886446159846	2.762810997973268	0.1647133894220072	4.127331963306865	0.7109091455592754	-0.5421407427164876	1.253049888275763	87.52657644010463
14	5.0	wm	122	diff_vonmises	-0.0724963741382976	-4.153736268125827	0.6341449542014947	307.3664090221648	0.6246726458083073	308.8444711535331	0.153081319566283	-0.4094694036033957	0.5625507231696787	106.5668664058241
15	6.0	ltm	122	diff_vonmises	-0.0329360080618858	-1.887094255954912	0.9465978335657226	1.4945407229047398	4.284774654266816e-12	2.7900188928888694	0.0515234271375332	-0.369417426501495	0.4209408536390282	130.83618191266874
16	6.0	perception	122	diff_vonmises	-0.0537190902697174	-3.0778771517370997	0.590267348623995	4.377025340241619	1.479219758907464e-10	5.579214970854518	0.2663260319002574	-0.5334614085305904	0.7997874404308478	147.50733020993104
17	6.0	wm	122	diff_vonmises	-0.1921142545306214	-11.00733596890666	0.4863411267021068	217.8858727051344	0.475165686465442	219.15036830679884	0.1475545771559296	-0.3976067784414461	0.5451613555973758	122.3504164625924
18	7.0	ltm	122	diff_vonmises	0.1626687309022045	9.320231739445632	0.5642157410323825	108.34665535973144	0.5435941960165629	109.6213924062488	0.0957814745086906	-0.3497240518569366	0.4455055263656273	112.97074696861768
19	7.0	perception	122	diff_vonmises	0.0286618926087111	1.6422054793363583	0.8885768229224624	303.79969080389964	0.875007021080589	304.8028936872769	0.4667866681434987	-0.4024775484405722	0.8692642165840709	94.5816904114
20	7.0	wm	122	diff_vonmises	0.117904147404241	6.755410033351355	0.8697858930374986	137.6047226183115	0.8498592398819935	138.83134289895764	0.1389277580880659	-0.3235205896189317	0.4624483477069976	90.74165204714842
0	1.0	ltm	341	diff_vonmises	0.0885888045956639	5.0757646154406935	4.959542099765367	0.1914729637966802	7.125706658245343e-21	2.9000315331734647	-0.296239666755173	-0.4615462157396129	0.1653065489844399	61.314069188571295
1	1.0	perception	341	diff_vonmises	0.0094352889497234	0.5406022353055779	12.866684866420965	0.6442713279265567	0.0526722113889268	3.4666996266209966	0.3311140836620905	-0.5648168485391583	0.8959309322012488	37.404483332875685
2	1.0	wm	341	diff_vonmises	0.0255451851252883	1.4636312945593934	4.927319405630201	0.2804883169451261	0.0045832187589965	3.208533122433153	-0.2717065865831864	-0.5095575338404749	0.2378509472572884	61.00133520685168
3	2.0	ltm	341	diff_vonmises	0.0746009733981079	4.274320923279309	4.048401144447493	0.4614853686205928	0.0696029673983935	2.091372376642364	0.0007224782119309	-0.3262394911764064	0.3269619693883374	64.90489962592866
4	2.0	perception	341	diff_vonmises	0.0013555786002197	0.0776689325908461	7.241668064040092	1.359977409246267	0.3087431254004116	3.177672348025393	0.7604466957226528	-0.5409440515776202	1.3013907473002728	48.08625152264253
5	2.0	wm	341	diff_vonmises	0.0785063477382282	4.498082390386896	4.010864898708236	0.5874309275606527	0.1224729494287555	2.594082406577649	-0.0126537456695302	-0.4041551798037727	0.3915014341342424	63.53112904703559
6	3.0	ltm	341	diff_vonmises	0.1089945941502197	6.244930234548885	2.9851640462593485	0.8542001693010082	0.419829507856754	2.087393118805877	0.0738959480843765	-0.294768309881625	0.3686642579660016	66.70718732492915
7	3.0	perception	341	diff_vonmises	0.0032723931164448	0.1874943144799507	5.093426825749389	1.923878003136614	0.2209050236644253	3.2404601696556283	1.049300380315647	-0.5044759877922751	1.5537763681079222	57.95384667829293
8	3.0	wm	341	diff_vonmises	0.0374624899417807	2.1464425637153326	4.973136844365855	0.4541486628785748	0.0527989793135803	2.1473773432766228	0.032628497959152	-0.3389479332178612	0.3715764311770133	59.38415325071324
9	4.0	ltm	341	diff_vonmises	0.0942834790893217	5.402045429628089	0.6438407319456741	159.34559686838222	0.6292104826120921	161.81503881088594	-0.2268116195885454	-0.4635594202276643	0.2367478006391188	90.7077338999604
10	4.0	perception	341	diff_vonmises	-0.0226960565135729	-1.3003882498181345	2.131567048481797	2.813493133676851	0.2477455037599928	5.182368519517473	0.4675576713628502	-0.6599716346375293	1.1275293060003797	83.16318447685376
11	4.0	wm	341	diff_vonmises	0.0336856774928065	1.9300471503766423	0.71687866367034	136.78980246688658	0.6951842460809854	139.6303488632267	-0.2399251160698199	-0.54394804927351	0.3040229332036901	87.20125293436439
12	5.0	ltm	341	diff_vonmises	0.0064561182967636	0.3699083304417464	2.330201575421689	0.8746705058941783	0.0740758442599498	2.132564722736791	0.129491753613215	-0.3124368136583211	0.4419285672715362	85.45892797307295
13	5.0	perception	341	diff_vonmises	-0.0434032807892235	-2.486824806243757	1.9172711742431503	3.0083050542087757	0.2582170296435325	4.298622022164298	0.6415234847275498	-0.5063335047650241	1.147856989492574	88.60236528938555
14	5.0	wm	341	diff_vonmises	0.0666180182108669	3.816931283008337	1.6677895592479324	1.1487990318984351	2.5011921598556596e-14	2.7481427160314373	0.0933391131391958	-0.4184897595669474	0.5118288727061433	105.47487018866904
15	6.0	ltm	341	diff_vonmises	-0.1282034104205301	-7.345514336279893	0.5169808220545776	106.9845077827403	0.4986123087007155	108.14139875297684	0.0825706532439447	-0.3253122780222615	0.4078829312662062	117.9907526768156
16	6.0	perception	341	diff_vonmises	-0.0642645333819388	-3.682086535162687	0.8923023528315805	4.161267651139964	0.2533899498208332	5.418720500100502	0.2433185425293642	-0.4343546431369802	0.6776731856663445	116.91052786962234
17	6.0	wm	341	diff_vonmises	0.0661860388219243	3.792180687185285	0.4879384788798035	190.44353010483348	0.4764128516005058	191.80010651063515	0.0803232199310386	-0.3781996982918763	0.4585229182229149	120.51541133633904
18	7.0	ltm	341	diff_vonmises	-0.0451852775761414	-2.588925701240025	0.9436259755388704	275.0670247483008	0.9312823453430707	277.14657510503906	-0.0382029153290659	-0.4554163667191915	0.4172134513901255	81.30495696929404
19	7.0	perception	341	diff_vonmises	0.0252326757896498	1.4457258285688697	0.5857622026975321	142.65091482036487	0.5572966158016982	144.64435033671154	0.252921746101201	-0.5977835118522918	0.8507052579534928	112.86386903631733
20	7.0	wm	341	diff_vonmises	0.0508245814674556	2.912034013604029	0.7314355519123938	93.99742220649242	0.7048469787637615	96.21431288292054	-0.1561838821563697	-0.4351945175561855	0.2790106353998158	88.40205375756554
0	1.0	ltm	99	diff_vonmises	0.081118755890399	4.647762351871852	6.111973616347019	0.1698829116714964	1.5323656295471081e-18	3.312032746279587	-0.3633259089480298	-0.5271255785736624	0.1637996696256325	55.11031552262887
1	1.0	perception	99	diff_vonmises	0.0541797708590767	3.104272205210984	9.899915902606686	0.9072197025191664	0.1105771456971208	4.133554386626535	0.3911068016015904	-0.6851950688705565	1.0763018704721468	42.11688771997351
2	1.0	wm	99	diff_vonmises	0.0706042237930454	4.045324039138651	6.010996206121583	0.28081962170862	3.6210591963597286e-16	3.546124105583209	-0.2959475216896767	-0.5643815667658325	0.2684340450761558	55.57633429120028
3	2.0	ltm	99	diff_vonmises	0.0793341400609934	4.545511396794674	3.5648397554448543	0.5576993362939949	0.1694783292044735	2.0990836776133004	0.0094687902440498	-0.3210956786693405	0.3305644689133904	65.97472279827826
4	2.0	perception	99	diff_vonmises	0.0060874805703256	0.3487869445475529	7.089826701456511	1.540028099867838	0.3599480575196824	3.14995574881284	0.9089017631940878	-0.5385438036976707	1.4474455668917583	48.46874350198064
5	2.0	wm	99	diff_vonmises	0.0903030606241026	5.173984250875092	4.093387481410862	0.5955971532371526	0.1148063145406294	2.377296971247803	0.0407248471904398	-0.3698583716475679	0.4105832188380078	63.52364033330443
6	3.0	ltm	99	diff_vonmises	0.1549909187794865	8.88032550891951	4.901110447232711	0.2771358064215446	0.0569849704806084	0.9149838117946404	0.0837257888506813	-0.1437384099786828	0.2274641988293642	60.17260599487688
7	3.0	perception	99	diff_vonmises	0.0271649277279876	1.556435709591597	5.345961640674445	1.5847578027269935	0.2013774851918846	2.3093911789196557	0.9787053938092368	-0.3599054247900677	1.3386108185993046	57.079685744209456
8	3.0	wm	99	diff_vonmises	-0.0004626934294988	-0.0265103807187174	4.830488538420107	0.3788306829247882	0.0011013707069126	1.2758641663104646	0.1192201622869925	-0.2028277698111309	0.3220479320981234	62.09186252083802
9	4.0	ltm	99	diff_vonmises	0.1251594009114002	7.1711054386090645	0.5656907011812662	105.4270469246729	0.5475884049972572	107.72712741331652	-0.2285422273651427	-0.4239793289768219	0.1954371016116791	95.67727398867842
10	4.0	perception	99	diff_vonmises	-0.0089087212689572	-0.5104321295696828	2.202855830576304	2.7440445207770576	0.2602988243010307	4.981758404514592	0.4888009997084519	-0.6354445687766458	1.1242455684850978	81.84462797437453
11	4.0	wm	99	diff_vonmises	0.111590843683509	6.393684375369173	0.7162212296230636	204.3087187510653	0.7026181993200832	206.86547277519065	-0.1989033276676934	-0.4952794419898474	0.2963761143221539	87.97370966869397
12	5.0	ltm	99	diff_vonmises	-0.0384017935511684	-2.2002606962146567	2.129736546832571	0.7356301880532783	9.23887951976841e-16	1.741686851613092	0.1169473780878671	-0.271628751955653	0.3885761300435201	94.13755722949657
13	5.0	perception	99	diff_vonmises	-0.0459520297531106	-2.632857364912828	2.179574934140988	2.755951236617902	0.1962735275470744	3.650630859992309	0.7969513376798004	-0.4657403412292655	1.262691678909066	86.38043571644789
14	5.0	wm	99	diff_vonmises	0.1083485297610756	6.20791347175723	1.5875590270359516	1.2359703857008866	6.588544607399154e-19	2.41636687090775	0.1695386178532158	-0.3614202269719092	0.530958844825125	107.76001619368708
15	6.0	ltm	99	diff_vonmises	-0.0397131369736305	-2.275395139813973	0.5394570568717012	101.72704506636866	0.5235221004015409	102.45850716342714	0.1206610930183167	-0.2422611855697862	0.362922278588103	118.00845837858746
16	6.0	perception	99	diff_vonmises	-0.0980534160526463	-5.6180469066569545	0.8995414037936225	2.7427465797296966	1.7784103832757476e-11	3.464733993637924	0.3334601172675273	-0.4050181915625195	0.7384783088300468	132.80496234664548
17	6.0	wm	99	diff_vonmises	0.0482901695923212	2.766822909610989	0.4913169104796066	154.39619924423403	0.4778613876327436	155.22227660844675	0.1869151322148639	-0.314528765264134	0.5014438974789979	123.96938970751172
18	7.0	ltm	99	diff_vonmises	0.1340778767853734	7.682096465876976	1.1179460302217792	3.677872055280952	0.5636097729256142	5.181262012673472	-0.0019599495774795	-0.331723689924303	0.3297637403468235	88.20689233031982
19	7.0	perception	99	diff_vonmises	0.033186545331814	1.901448984132528	0.7732046766365863	314.6476066471733	0.7602121674357135	315.9597664372232	0.3921493080580518	-0.4565133522899742	0.8486626603480261	99.9299044773343
20	7.0	wm	99	diff_vonmises	0.0767586197604316	4.397944953522216	0.6736848931792979	130.36905104274203	0.6575683070830417	131.94127966597102	-0.0349513419228841	-0.3378940249845037	0.3029426830616195	97.05890521162188
0	1.0	ltm	197	diff_vonmises	0.0148424149778705	0.8504077360137419	5.783686336168238	0.3428517631709879	0.0256848739790115	3.36390863498496	-0.2280788754900916	-0.535007686249622	0.3069288107595304	55.25916916743199
1	1.0	perception	197	diff_vonmises	-0.0068736493252492	-0.3938310961897289	12.442648518738224	0.6925286325337476	0.0464964317789799	3.7492192187197673	0.3393301813191426	-0.6085245389025812	0.9478547202217238	38.06347235458267
2	1.0	wm	197	diff_vonmises	0.0121753376446723	0.6975954611864793	4.145830410163627	0.546133705949361	0.0922670480953907	3.7846618021830136	-0.2310200330698096	-0.5968556962498943	0.3658356631800846	62.05874381180715
3	2.0	ltm	197	diff_vonmises	-0.060369654118088	-3.4589263916310165	2.6903746652834832	1.0100473145656048	0.2868810662993276	2.6737959753769096	0.0658498612806637	-0.3748302065882906	0.4406800678689543	72.08175665570965
4	2.0	perception	197	diff_vonmises	-0.0287958459987538	-1.649880443237275	6.986726187843586	1.1940657022845222	0.1900255184526632	2.970982925387411	0.6680819854955546	-0.4876766656387821	1.1557586511343367	49.68360675428784
5	2.0	wm	197	diff_vonmises	0.0312885221703574	1.7927002675629888	3.9015733816264793	0.7467483144377945	0.1686815854390202	2.576242156478195	0.0844344347882138	-0.3971659352460008	0.4816003700342147	63.94403387079808
6	3.0	ltm	197	diff_vonmises	-0.0129775682036126	-0.7435598864101782	2.171031735206012	1.4219972624481938	0.3957683913978848	2.7148170901843267	0.1532764173808013	-0.3287950012163189	0.4820714185971202	77.44562197212608
7	3.0	perception	197	diff_vonmises	-0.0205207798015623	-1.1757540749468318	4.219870441715927	1.9787357740168996	0.2125169189715729	3.2614972677018854	0.9314733703505408	-0.4904197612099952	1.421893131560536	63.340709304256166
8	3.0	wm	197	diff_vonmises	-0.0192231419554799	-1.1014049030298605	2.516739965254214	1.1742481518919572	0.3086251399340048	2.65173220764634	0.1335898945835564	-0.3563989126221888	0.4899888072057453	74.55533408668163
9	4.0	ltm	197	diff_vonmises	-0.0955917536445457	-5.477004040086778	1.6672455878854375	1.5294964977857737	0.2352439127172283	3.6466898169684616	-0.0178388630436275	-0.4527954749923725	0.4349566119487449	87.93949518517172
10	4.0	perception	197	diff_vonmises	-0.0823863488318139	-4.720390077555498	1.8382096577265037	3.7034156047668745	0.345080606229954	5.707722278068191	0.5698241559238106	-0.6299459781081714	1.199770134031982	86.281665631761
11	4.0	wm	197	diff_vonmises	-0.1191594681987072	-6.827334616809278	0.8302850853939793	306.59480134856284	0.8191229683735948	308.8755147420166	-0.0474811936117163	-0.4902775042937008	0.4427963106819845	86.75719981766474
12	5.0	ltm	197	diff_vonmises	-0.0217455647329147	-1.2459290823245424	1.6752318282506922	1.3818929720943909	0.0298408570791801	2.612981810513363	0.2117619221945226	-0.3811037740921666	0.5928656962866893	103.32280452833236
13	5.0	perception	197	diff_vonmises	-0.0546676951549394	-3.1322282080858086	1.9548464094255664	2.947011335011178	0.2364998692440167	4.092216027633396	0.6858024533133193	-0.4916398972313731	1.1774423505446925	88.85420637787223
14	5.0	wm	197	diff_vonmises	-0.0239523923750298	-1.372370992330542	0.6919708427937303	236.048168711977	0.6798193380483327	237.29271809928292	0.1969665312228699	-0.3680318601653916	0.5649983913882615	103.35869588427498
15	6.0	ltm	197	diff_vonmises	-0.0568870103221775	-3.259385600577922	1.0651489183388856	1.4181775822959213	5.1161220148078276e-18	2.376018889377085	0.1238704117949237	-0.3185122558844753	0.442382667679399	125.89686342012658
16	6.0	perception	197	diff_vonmises	-0.0764075099157457	-4.377827841276222	1.0204059976329618	2.2681628802739886	5.263046620132407e-19	3.2388374909795887	0.2683084947454065	-0.4136405814807062	0.6819490762261127	127.6996399079286
17	6.0	wm	197	diff_vonmises	-0.1005187740549106	-5.759301515175499	0.5347066024176518	217.699799861072	0.524963243506203	218.62960602012055	0.164411036286495	-0.3147920750661441	0.4792031113526391	118.40321223597246
18	7.0	ltm	197	diff_vonmises	-0.0059762270988397	-0.3424125901752273	0.725053348472267	202.0122996115444	0.7102699190957783	203.57695232910905	0.121303075472305	-0.4000289391573695	0.5213320146296745	98.58061183501368
19	7.0	perception	197	diff_vonmises	-0.022422220724541	-1.284698614826971	0.8187983650529994	373.3126291853565	0.8063651357178315	374.6595239075965	0.4756585868056646	-0.4910251103375742	0.9666836971432388	97.61305418929658
20	7.0	wm	197	diff_vonmises	0.1003528698711013	5.749795905639663	1.3965838478477148	2.7931797059195587	0.4877159891006915	4.267863969065128	0.1155405651362098	-0.3648903306502639	0.4804308957864737	87.4719368665319
0	1.0	ltm	76	diff_vonmises	-0.1491214396796518	-8.544029128558737	2.079649176858789	0.4212979313508189	3.4196271275267337e-18	1.8954051378857628	-0.0791543935025829	-0.298187384082638	0.2190329905800551	95.2023619110322
1	1.0	perception	76	diff_vonmises	-0.0593915597668589	-3.4028857133399986	16.4385585503398	0.6295875638292855	7.407468467185988e-19	2.323215734645892	0.6402261502982127	-0.3697512680377574	1.0099774183359702	33.409169385208486
2	1.0	wm	76	diff_vonmises	0.0123281511311287	0.7063510290131064	2.8377490014498297	0.4434065844200247	6.165658630607405e-26	2.051534695340988	-0.0452118818426872	-0.3255472490609015	0.2803353672182143	81.61257323050546
3	2.0	ltm	76	diff_vonmises	0.0326209505557411	1.8690427905489075	4.728003755236743	0.3759213389877119	5.088513152597925e-19	1.3019919502895003	0.1091524154079327	-0.2071937081661239	0.3163461235740566	62.83437402842722
4	2.0	perception	76	diff_vonmises	-0.0243290335650996	-1.3939509429123276	7.314957157203217	1.2039640419762307	0.2928090541803174	2.095059231039578	0.8376196531640927	-0.3511679328463727	1.1887875860104655	48.459810689091
5	2.0	wm	76	diff_vonmises	0.0098019269784449	0.5616090469603139	4.290711593011937	0.5062200656435847	0.1695900435883778	1.5435106365187752	0.1153132975207466	-0.2396654421806033	0.3549787397013499	61.79978527041209
6	3.0	ltm	76	diff_vonmises	0.0204687717738818	1.1727742344599354	1.9929004702245785	1.8971419808145944	0.8428815745987456	2.568628481712901	0.1756207379717419	-0.2127254086114788	0.3883461465832207	73.0669161150268
7	3.0	perception	76	diff_vonmises	-0.0299633105463695	-1.7167712345468045	4.169998781607976	2.159369223303019	0.3510091424202366	2.776509428815589	1.0894037045360383	-0.4041661078328536	1.493569812368892	62.8741074937779
8	3.0	wm	76	diff_vonmises	-0.0950867542675047	-5.448069707125591	2.4897580021543715	1.2215473019656782	0.5785344254291016	2.0898811693115684	0.1716540502850739	-0.2482925112066148	0.4199465614916888	70.91971711732165
9	4.0	ltm	76	diff_vonmises	-0.1324800304474577	-7.590546614403971	1.3294018682612048	9.792385130646128	1.0676305341019732	10.92267490382552	0.0726125025110997	-0.2889505088097435	0.3615630113208432	74.9577032194799
10	4.0	perception	76	diff_vonmises	-0.092487549998742	-5.299146272433101	2.3244220964500086	2.825933779590152	0.302939071650645	3.9564949346356753	0.7620436574484448	-0.4844531533007998	1.246496810749245	81.0353773531858
11	4.0	wm	76	diff_vonmises	-0.125408946971854	-7.185403374667182	1.1509577660836985	287.11604422375973	1.1397107167627534	288.52120435481135	0.0840858022272925	-0.3539452588207581	0.4380310610480507	76.536325562238
12	5.0	ltm	76	diff_vonmises	0.0391488886286966	2.2430660910520164	0.7724042093199917	67.64567760272278	0.7421803522496597	68.40176612042819	0.1691024395071068	-0.2390226114530964	0.4081250509602032	99.45949171706005
13	5.0	perception	76	diff_vonmises	-0.0042095439803105	-0.2411891037464939	1.8037971728058768	2.7078579305615307	0.2814987381508901	3.415499135060547	0.6058450174058023	-0.3770156319656376	0.98286064937144	91.18576876131678
14	5.0	wm	76	diff_vonmises	0.0185936749470587	1.0653391001046029	0.5957386271750158	65.53002916080847	0.5663545672551676	66.42441951052959	0.1319096154839698	-0.2765194474952679	0.4084290629792377	112.44563289976564
15	6.0	ltm	76	diff_vonmises	-0.2364074853616111	-13.54515115652111	0.401795396430918	149.55847668330958	0.3914025209883169	150.40179380298133	0.0938060380285605	-0.278527184310164	0.3723332223387245	131.72657524367796
16	6.0	perception	76	diff_vonmises	-0.0037836586240548	-0.2167876702766199	0.6545963731101068	293.257980378786	0.6433649697610654	294.19953988659506	0.3681762868421145	-0.394909241826177	0.7630855286682916	109.87132684632176
17	6.0	wm	76	diff_vonmises	-0.0645652358068187	-3.699315514997656	0.4226350606277267	122.18322756219912	0.4066358590038171	123.14416733265637	0.139272356917516	-0.3347004711980688	0.4739728281155848	130.53961661181376
18	7.0	ltm	76	diff_vonmises	0.0239580429031136	1.372694743741768	1.012865970010643	167.5186675603094	0.9957709186183938	168.72702460927607	0.1295749251072848	-0.3159380140529606	0.4455129391602455	83.47288847619947
19	7.0	perception	76	diff_vonmises	0.0296936482295681	1.7013207219003657	1.7600216454557578	1.851394846555608	8.596125303651993e-16	3.1297140271036845	0.3856745241961861	-0.4719498325103022	0.8576243567064884	102.96527812817368
20	7.0	wm	76	diff_vonmises	0.1437961959748019	8.238915139392228	0.7825002996831372	29.60435975450002	0.7156047562304381	30.850676938136765	0.0196582041388264	-0.2847085753409968	0.3043667794798232	93.63748482221256
0	1.0	ltm	174	diff_vonmises	-0.2916959892592645	-16.71294908544925	1.5826883549697142	0.7424063027400674	0.3486949623934768	0.7690982722506162	0.163895011440253	-0.0706274519636546	0.2345224634039077	96.10710099896838
1	1.0	perception	174	diff_vonmises	-0.0807349978057878	-4.625774633269608	14.761308427771226	0.7355730346885433	1.0495231035180104e-18	1.0315608001616807	0.9530696795198784	-0.1641780004453937	1.1172476799652722	35.26641290955055
2	1.0	wm	174	diff_vonmises	0.0306767204278746	1.7576466098199748	3.422466382317272	0.4537245074190074	2.417916346735075e-32	0.5221134210814904	0.2369836765390304	-0.0827560770084135	0.319739753547444	74.16603228474935
3	2.0	ltm	174	diff_vonmises	0.0250399927964936	1.4346859062770712	2.54938129401958	69.55529172187246	2.527936289705842	69.42281887519309	0.2833263614928896	-0.0570280021803819	0.3403543636732715	60.99615787580749
4	2.0	perception	174	diff_vonmises	-0.0210634693660587	-1.2068478965782634	6.437300447686212	1.3905597465896609	0.975052779824622	1.0248969352437916	1.0324636393650777	-0.1634424769365018	1.1959061163015794	50.24681264053794
5	2.0	wm	174	diff_vonmises	0.0165503848634234	0.9482672019913648	3.0527381952616666	21.78454886594059	2.9977563997115912	21.602940177183253	0.267214477860751	-0.0340789017543519	0.3012933796151029	57.72034451398855
6	3.0	ltm	174	diff_vonmises	0.073437389330238	4.207652467081705	2.191032333178055	49.17525729017585	2.167600710974742	49.05175383213274	0.2389276505551798	-0.0458828918618818	0.2848105424170617	66.20224891382398
7	3.0	perception	174	diff_vonmises	-0.0251827691305388	-1.4428663876322088	4.751767274925414	1.694689501747572	0.647093726903434	1.4322017981320838	1.0367658322258282	-0.2023163891992936	1.2390822214251218	58.57207672084411
8	3.0	wm	174	diff_vonmises	-0.0768477541558658	-4.403051978190043	2.2690758878399877	61.74261367153012	2.24424268162552	61.64398623576529	0.2792534320894191	-0.065985204482482	0.3452386365719011	63.9846976522324
9	4.0	ltm	174	diff_vonmises	-0.2263469507398419	-12.96872498304849	2.134308478771275	90.53324330893874	2.1117102307114184	90.64502013479438	0.2500752325460738	-0.1167914376944754	0.3668666702405492	62.59645776259404
10	4.0	perception	174	diff_vonmises	-0.10173655912018	-5.829075459769499	3.263071698188502	1.732684733051277	0.0431642112756678	1.9625425603964035	0.8641500328074478	-0.298317112339233	1.1624671451466808	75.0405016869168
11	4.0	wm	174	diff_vonmises	-0.1449740629388385	-8.306401945259411	1.6341476933338024	157.94908075438894	1.618833906417152	158.27733809344943	0.2627767063720938	-0.1690407321460263	0.4318174385181201	70.1121941641762
12	5.0	ltm	174	diff_vonmises	0.0283088701105462	1.6219787801183458	1.3180193097716613	1.357013063001533	0.3292461429043507	1.013038599453244	0.3256443378414477	-0.07395775505054	0.3996020928919878	107.81935335525768
13	5.0	perception	174	diff_vonmises	-0.0188224704129198	-1.078448114670172	2.1829762909521926	1.7999243865396517	0.2010247993912271	1.2879934653136058	0.7306660942187814	-0.1538835663624967	0.8845496605812782	89.12000653832348
14	5.0	wm	174	diff_vonmises	0.1067545629421216	6.11658590034727	0.947809756150842	28.54887453567096	0.9097251141641628	28.10811121455186	0.3498146251802563	-0.0559198644949603	0.4057344896752166	104.9826069693818
15	6.0	ltm	174	diff_vonmises	-0.1539217120135537	-8.819064473804731	0.4497635341222152	91.53521013187247	0.4390788271802461	91.21220126812992	0.2570932549374092	-0.0840742606316276	0.3411675155690368	135.15623654934146
16	6.0	perception	174	diff_vonmises	-0.0143672453364491	-0.823182521007551	0.8254520122501735	165.62366277070697	0.8113062930524814	165.27203947046542	0.554863842841641	-0.1718122288930708	0.7266760717347118	106.50978609483128
17	6.0	wm	174	diff_vonmises	-0.0815706400928947	-4.6736534095034905	1.0129949983234952	1.6283427298472215	1.01289544497473e-15	1.1413714415362688	0.3787583744828487	-0.1077545703446355	0.4865129448274843	127.99864272064345
18	7.0	ltm	174	diff_vonmises	0.1163325618660435	6.665364814868838	1.178536184543359	97.35927650722194	1.1587937770019154	97.46307907367574	0.3180820191454643	-0.1346634236138504	0.4527454427593147	85.94043201587203
19	7.0	perception	174	diff_vonmises	-0.0422679713699438	-2.421776368077577	2.4854660361285066	1.4306715243188108	3.5872926537827705e-15	1.5071955887681383	0.6003636331497739	-0.2340483587248343	0.8344119918746082	87.24964997173336
20	7.0	wm	174	diff_vonmises	0.1711102865033752	9.803897247917735	1.681967237300149	0.7971406651291155	7.757229247412615e-22	0.8030604072264335	0.2423525812020581	-0.1150035410776093	0.3573561222796675	105.00904362884674
0	1.0	ltm	295	diff_vonmises	-0.1328506575724604	-7.611781984439691	2.827727175799012	0.3008552474321447	4.793152965220019e-20	1.6262536670720682	-0.0683553155743056	-0.2581598827937706	0.1898045672194649	81.75640403432209
1	1.0	perception	295	diff_vonmises	-0.0549563594974117	-3.1487674566053925	15.872796808466662	0.6466447745753343	2.83032919118321e-23	2.178559355709656	0.6726691049251705	-0.3467284902802698	1.0193975952054404	33.994002471290344
2	1.0	wm	295	diff_vonmises	-0.0057465370941301	-0.3292523223090285	5.716876407307754	0.2928227797881315	1.1724121960202765e-21	1.768282569099619	-0.0088452487116361	-0.2814279606552082	0.2725827119435721	57.02080627206814
3	2.0	ltm	295	diff_vonmises	-0.0388103269199046	-2.223667934033498	5.064297438139221	0.3720063427016615	0.0209621995027541	1.2698062941084385	0.1184169452339285	-0.2004880442008136	0.3189049894347421	60.016169898567
4	2.0	perception	295	diff_vonmises	-0.0303923472048993	-1.7413532243369565	7.9400037199555396	1.1625748754647314	0.2819745805639945	2.11909017724805	0.8465239988525026	-0.3593833498169883	1.205907348669491	46.630334407297056
5	2.0	wm	295	diff_vonmises	0.0040381241717562	0.2313674721913924	4.556514105755243	0.4190597480781908	0.1362921257060766	1.4481239868648226	0.0828346809987815	-0.2269602278388684	0.30979490883765	60.474308718708016
6	3.0	ltm	295	diff_vonmises	0.0533749762988024	3.05816087353218	1.4868067133902694	114.50448187684572	1.467253444598492	115.00864977330257	0.1780486487574251	-0.182506790578639	0.3605554393360641	71.41113526857441
7	3.0	perception	295	diff_vonmises	-0.0300048423546979	-1.7191508318795647	4.423731247827591	2.0588707879970984	0.4297430258608219	2.5450441785688707	1.077045567787874	-0.3738427664966265	1.4508883342845005	60.671516051810414
8	3.0	wm	295	diff_vonmises	-0.0822928120086468	-4.715030812358962	1.9569169443398389	2.173271921505608	0.9468702650772076	2.884338805175425	0.1499119832774185	-0.2180900254861927	0.3680020087636112	71.25945831174462
9	4.0	ltm	295	diff_vonmises	-0.1258270750698092	-7.209360349975848	1.327622479864394	142.0634434997539	1.3090560482031233	143.0463584195007	0.0856158218496858	-0.2661277298806865	0.3517435517303724	71.8120210098484
10	4.0	perception	295	diff_vonmises	-0.0983904114195588	-5.637355318896502	2.538895100060974	2.4280315442585185	0.2996574981127878	3.5655648687350845	0.6950946565059412	-0.4544611869687566	1.1495558434746975	77.93090801225696
11	4.0	wm	295	diff_vonmises	-0.1635973796984962	-9.37343939612305	1.2297775355823837	239.4892700296116	1.2177143321313293	240.7182830969641	0.0617399160536109	-0.3119644496520415	0.3737043657056524	73.61641507252142
12	5.0	ltm	295	diff_vonmises	0.0756157326877462	4.332462347797281	1.9061145356037197	1.0583686917617363	0.2034915849846348	1.6465391791242148	0.2124175568468149	-0.2044396542609475	0.4168572111077625	89.98832490590223
13	5.0	perception	295	diff_vonmises	-0.034288205801118	-1.9645694794800497	2.548539948716597	1.8504672961430515	0.0753162750844149	2.364254881293585	0.6978227012678184	-0.342578604479869	1.0404013057476875	83.77976204270814
14	5.0	wm	295	diff_vonmises	0.0056867170530463	0.3258248864246286	1.039145829354626	2.480154853832426	0.3765982220978898	3.1787170737750765	0.154011392109464	-0.2280313016265695	0.3820426937360335	104.73018765611896
15	6.0	ltm	295	diff_vonmises	-0.2112225047949782	-12.102158062934048	0.4308701019502687	85.16362552262824	0.4157631263172214	85.72032272716233	0.1085311946650762	-0.2108583678581457	0.3193895625232219	130.00945063403506
16	6.0	perception	295	diff_vonmises	-0.0476878761934426	-2.7323140398266554	0.5727293212781754	54.54852668296371	0.5280985437900022	55.22738492864404	0.2871524859926424	-0.3219759862728599	0.6091284722655024	119.20361431276554
17	6.0	wm	295	diff_vonmises	-0.1348643799434025	-7.727159777405752	0.4847449384951989	96.8986554876252	0.4690168163597345	97.50820000177612	0.1368983451237078	-0.2328498012933089	0.3697481464170167	124.71425059930964
18	7.0	ltm	295	diff_vonmises	0.0787586298423442	4.512537090199422	1.0383569157871586	153.5247686494546	1.0224852158683675	154.28181682545386	0.1977269781998245	-0.2383324654149987	0.4360594436148233	85.28955544990367
19	7.0	perception	295	diff_vonmises	-0.0512620773258331	-2.937100679843514	1.9445503839667275	1.594965788019449	6.222070710447565e-12	2.3202157862411883	0.4396632435914915	-0.3527198955248002	0.7923831391162918	98.3156322862264
20	7.0	wm	295	diff_vonmises	0.1435680196533088	8.225841599185852	1.759165579702929	1.0240326096047494	0.3084732103469243	1.7642851589461783	0.1153700228891181	-0.2007759802540519	0.31614600314317	87.45654953987648
0	1.0	ltm	462	diff_vonmises	-0.0078035446421176	-0.4471101732352663	3.907941070268333	0.1770486828807441	1.729935961180512e-21	2.268443245893997	-0.2266466348566991	-0.3609797472359384	0.1343331123792392	69.28891056757146
1	1.0	perception	462	diff_vonmises	-0.0055331047788209	-0.3170235514301092	13.493643617553303	0.6774617104170186	0.0757828613744127	2.8953606265007887	0.4866936423765844	-0.4775048728205252	0.9641985151971096	36.4858816600804
2	1.0	wm	462	diff_vonmises	0.0774109246007466	4.435319267828218	5.711163635079462	0.2472480179145279	3.9088455190243365e-20	2.50161282928428	-0.1681210231976037	-0.3981415282935077	0.230020505095904	57.05161297538484
3	2.0	ltm	462	diff_vonmises	0.0202917189027514	1.1626298521934944	5.322970886809182	0.3007568272333584	8.085700780708433e-23	1.6289387924313283	0.0103630804758517	-0.2592472444054063	0.2696103248812581	59.13656724105573
4	2.0	perception	462	diff_vonmises	-0.0094492716152629	-0.5414033830273314	8.229052519484437	1.2266869098977722	0.3170957694433337	2.657835154518156	0.8143269165675735	-0.4612718415888748	1.2755987581564483	45.44688964063005
5	2.0	wm	462	diff_vonmises	0.0858929131371361	4.921301412841685	4.58831711717092	0.4325122135156255	0.1199685605602684	2.022801139793877	-0.0034820841744695	-0.3194692705852908	0.3159871864108212	59.80523504117258
6	3.0	ltm	462	diff_vonmises	0.0827435385440774	4.74085554055369	1.4309226559476798	51.87325075978883	1.391374458975461	52.54184476280969	0.0885931220957942	-0.1943545794889374	0.2829477015847317	70.25665128617402
7	3.0	perception	462	diff_vonmises	-0.007218769452019	-0.4136050228786569	4.682876374064519	1.871423905182684	0.3583716356121253	2.575266898070116	0.9985950407785272	-0.3898105623382992	1.3884056031168264	59.437621016859055
8	3.0	wm	462	diff_vonmises	-0.0280732882381989	-1.6084809331030567	3.363819924839631	0.5984433589415461	0.3655170551145105	1.5843327817715664	0.0665195076007345	-0.234086631638436	0.3006061392391705	64.59984133760958
9	4.0	ltm	462	diff_vonmises	-0.0089212479371577	-0.5111498547889317	1.085278894032356	195.89031510731337	1.0729166687723446	197.3653942084045	-0.0698583703077417	-0.3223511938291672	0.2524928235214254	73.78642936725683
10	4.0	perception	462	diff_vonmises	-0.0799718970423469	-4.5820521801812335	2.3255696782457425	2.799527183749388	0.4146150555295682	4.253322401735431	0.5987562548776105	-0.5006348471742409	1.0993911020518514	77.70758497871583
11	4.0	wm	462	diff_vonmises	-0.0848823280220408	-4.863399150907984	1.0291128188931853	231.66164965197956	1.0173519796650583	233.4062489053674	-0.0875448748633118	-0.3740695974665868	0.286524722603275	75.57818497213995
12	5.0	ltm	462	diff_vonmises	0.0906844140004653	5.195834189843736	1.6809079032607432	1.3892186398769524	0.3499945514094337	2.7275360199887246	0.0472829522059199	-0.3069640677070946	0.3542470199130145	84.80254777223158
13	5.0	perception	462	diff_vonmises	-0.0377510939194144	-2.16297835358443	2.618087690793652	2.0347632902287014	0.1277627865489364	3.372068230301253	0.6246964125482949	-0.477150456412615	1.10184686896091	80.48420451634152
14	5.0	wm	462	diff_vonmises	0.0829353935153925	4.751848020688649	1.6739030065712668	0.7926487647538452	1.6150463666194762e-15	2.4130712807624346	-0.0170521173447475	-0.3711475748333744	0.3540954574886268	105.2966473654478
15	6.0	ltm	462	diff_vonmises	-0.1965945925141284	-11.264040426153768	0.5315743731692938	161.7765574081031	0.5198088476955821	163.27430564688166	-0.0180090885748498	-0.3433025914554903	0.3252935028806405	111.13166194007012
16	6.0	perception	462	diff_vonmises	-0.0949855818914409	-5.442272956973826	0.5162703618783879	142.88217675908848	0.494940165076195	144.45759507465633	0.1828615863853002	-0.4859400641014701	0.6688016504867704	119.65414304565142
17	6.0	wm	462	diff_vonmises	-0.1113992146154858	-6.382704838539414	0.4806924750690484	124.42251959247544	0.4642534524138961	126.08394314977834	-0.0183087454911934	-0.3938530650425687	0.3755443195513752	117.8491606701378
18	7.0	ltm	462	diff_vonmises	0.0833530182935947	4.775776157899724	0.9268316373638432	211.23318745217423	0.9139280844772002	212.77036196983036	0.0184082806101457	-0.3504004688497062	0.368808749459852	83.80332151924586
19	7.0	perception	462	diff_vonmises	-0.0694694003475579	-3.980303445219727	2.041361418947204	1.622915725280783	4.486974776248236e-19	3.0808567517378624	0.3573187016988143	-0.4760408953806034	0.8333595970794178	96.06988289561144
20	7.0	wm	462	diff_vonmises	0.205701717418758	11.785840246687528	1.7155469574835995	1.3062889360254433	0.3758184507516044	2.8876671383789763	-0.0322821618128356	-0.3343910208830992	0.3021088590702636	80.92085827976078
0	1.0	ltm	151	diff_vonmises	0.004527070621296	0.2593820401579338	6.554017970739217	0.2895248152345299	0.0255796462256247	3.290789349565617	-0.2476482165815294	-0.5248968853157174	0.277248668734188	51.89935524797929
1	1.0	perception	151	diff_vonmises	-0.0061737292848878	-0.353728631880396	12.971142935724398	0.7106332338609406	0.0632813409089975	3.769604445437027	0.3720885757793323	-0.6176293315382374	0.9897179073175696	37.189584346550646
2	1.0	wm	151	diff_vonmises	-0.0029189203188201	-0.1672418150033758	4.814661815413802	0.4390834175911712	0.0723792591840275	3.7217256500315017	-0.2628248026052369	-0.5923285504187378	0.3295037478135009	58.35416160505042
3	2.0	ltm	151	diff_vonmises	-0.0431552161891984	-2.4726117516157142	3.167091002949132	0.7166388785965883	0.1671932331492964	2.3506097081329327	0.0448610182632006	-0.3511346822768832	0.3959957005400839	70.02058734331689
4	2.0	perception	151	diff_vonmises	-0.0286418225617042	-1.641055550348232	7.4813738679418815	1.2139331240047204	0.2374306854974759	3.0162524487922906	0.7005685165249201	-0.5060247512026395	1.2065932677275597	47.77903826022137
5	2.0	wm	151	diff_vonmises	0.0209707887906507	1.2015376907645423	3.7667330163141775	0.7324697125148559	0.1649434976233774	2.638364109661438	0.0530507845415229	-0.4056366038591461	0.458687388400669	64.81487481070079
6	3.0	ltm	151	diff_vonmises	0.0188186505649878	1.078229253505285	2.323452701475272	1.264709472713881	0.4513058946609958	2.4323458349491665	0.135701866430182	-0.2982481376607616	0.4339500040909436	74.1130318649827
7	3.0	perception	151	diff_vonmises	-0.016884193205036	-0.9673930111320288	4.435756035922953	2.013087963014749	0.2770458553985597	3.19460438308048	0.9790309046060652	-0.4826532702952367	1.461684174901302	61.28300418312389
8	3.0	wm	151	diff_vonmises	-0.0254311153786208	-1.457095579505219	2.97445590373037	0.8955580929479866	0.252332198253423	2.347348933478492	0.1103883134273191	-0.3379311235602872	0.4483194369876063	70.55243160289751
9	4.0	ltm	151	diff_vonmises	-0.084151420584297	-4.821521239510542	1.209143172534834	3.149673956832528	0.4424367941257376	5.224092685956004	-0.0335784466123063	-0.4447220883835373	0.4111436417712309	89.3166213273602
10	4.0	perception	151	diff_vonmises	-0.0643698978302441	-3.688123473361303	2.122174238484052	3.0095565115295844	0.2919711616714276	4.993588182562657	0.5671279677213541	-0.6109553666463358	1.17808333436769	82.8147938497269
11	4.0	wm	151	diff_vonmises	-0.1182228175912311	-6.773668490122532	0.8268496199322877	275.629393776155	0.8148265608549905	277.9165673195826	-0.0682406872921177	-0.4845799821532566	0.4163392948611388	86.31004583044972
12	5.0	ltm	151	diff_vonmises	-0.0026001641915752	-0.1489784342183079	1.8948531882779676	1.2194060456597902	0.0471462758266532	2.429980315308656	0.2036357054328887	-0.3549671838704307	0.5586028893033195	96.51748210955634
13	5.0	perception	151	diff_vonmises	-0.0454929540413841	-2.606554264153932	2.1569084245405032	2.588407355375979	0.1731502955568739	3.740221910810334	0.6948606631800183	-0.4882496898874028	1.1831103530674212	86.96051730099137
14	5.0	wm	151	diff_vonmises	-0.0239914974647406	-1.3746115489284547	0.6746055541596815	105.00129365015002	0.6479064046439416	106.31021318115846	0.1737208006182378	-0.3755593894680284	0.5492801900862663	104.70163343883088
15	6.0	ltm	151	diff_vonmises	-0.0803409845319683	-4.603199335607618	1.131753108590601	1.329625012697596	9.551379315016373e-18	2.252709786747269	0.1287231061187131	-0.3078600221458419	0.4365831282645551	123.25107088057511
16	6.0	perception	151	diff_vonmises	-0.0573062649538657	-3.283407121514971	1.005964352829485	2.2287610732009777	2.176080581055501e-18	3.2076345425078565	0.2535848023582687	-0.4083254794135428	0.6619102817718117	128.31426833273963
17	6.0	wm	151	diff_vonmises	-0.0933983507350604	-5.3513313106015525	0.4903131468273022	200.32564282670523	0.4801201076367738	201.279892816763	0.1488232647062446	-0.3220476956159324	0.470870960322177	122.78806478517522
18	7.0	ltm	151	diff_vonmises	0.0169665304375807	0.9721105870536246	0.7900967751432431	234.49275773873063	0.7780570856698087	235.90281959155683	0.116906882167143	-0.3586054588757932	0.4755123410429362	94.2774892561741
19	7.0	perception	151	diff_vonmises	-0.0250203742050792	-1.4335618437890336	0.7509746988830491	287.7515472268508	0.7371478775741774	288.9721384492653	0.4034252676484726	-0.4466354788436035	0.8500607464920762	101.86704301050013
20	7.0	wm	151	diff_vonmises	0.0988376618463686	5.662980880738126	0.8697857484885575	112.39647157647092	0.8457965836948069	113.7805418391916	0.0819981777486589	-0.337150391064096	0.419148568812755	89.08753632535851
0	1.0	ltm	272	diff_vonmises	0.0134483689637212	0.7705347829559529	6.531990325121119	0.2396784210406906	0.0046819760429433	3.3617177297647656	-0.2982367721672437	-0.534684283365957	0.2364475111987132	52.89353893943019
1	1.0	perception	272	diff_vonmises	0.0055558222289472	0.3183251654436456	12.802959678277585	0.7228348971706622	0.0684366974938258	3.88241895052192	0.3602688720874835	-0.6376495637374214	0.9979184358249048	37.389449650044725
2	1.0	wm	272	diff_vonmises	0.0223663028687494	1.2814947576906883	4.775533060444656	0.3692811930451186	0.0315790145051648	3.735893619257183	-0.3010709724726867	-0.5920808232288777	0.2910098507561909	60.13518358517862
3	2.0	ltm	272	diff_vonmises	-0.0036770151913774	-0.2106774516714143	3.789241272747754	0.5058739628085238	0.0534522194446407	2.1745721545955505	0.0127349377771827	-0.3382483401029031	0.3509832778800859	67.66013626915944
4	2.0	perception	272	diff_vonmises	-0.0195308404232297	-1.1190347265945668	7.517060077287118	1.2652584365045132	0.2609700909118325	3.070510251128038	0.7355646086816583	-0.5187895380793834	1.2543541467610415	47.540089190413255
5	2.0	wm	272	diff_vonmises	0.0384236253765546	2.2015115676683523	3.818666442506973	0.702379797428316	0.1497003689291924	2.678512924832546	0.0340949050199867	-0.4133779961071455	0.4474729011271323	64.62631675174475
6	3.0	ltm	272	diff_vonmises	0.037112205724878	2.1263727564567656	2.854522667379109	0.825076559564128	0.3166473424699436	1.9373495907017129	0.1124387864683135	-0.2706833284781032	0.3831221149464168	70.71370329340422
7	3.0	perception	272	diff_vonmises	-0.0078480007178884	-0.4496573187506483	4.440402672113035	1.9982351895518085	0.2659352818076315	3.1202510128246352	0.9891212178242628	-0.471195146481312	1.4603163643055748	61.42457803654773
8	3.0	wm	272	diff_vonmises	-0.0299007579655674	-1.7131872356691915	3.4824260024420624	0.7036782227208048	0.1656262786937578	2.130260448372816	0.1038494256491449	-0.3213357801534338	0.4251852058025787	67.73393796497837
9	4.0	ltm	272	diff_vonmises	-0.0363751554813104	-2.084142888211249	0.960389783951497	5.597773256052054	0.535021337333064	7.759902292949518	-0.0947875038816161	-0.443849538201257	0.3490620343196409	90.32734050102287
10	4.0	perception	272	diff_vonmises	-0.0567500791735734	-3.2515400236790297	2.051899499697122	3.3009201389692078	0.3431992845031318	5.292512554856912	0.5763921676820223	-0.6180079268358282	1.1944000945178503	82.62670694526491
11	4.0	wm	272	diff_vonmises	-0.070230691822861	-4.02392223373388	0.7828494542848422	268.77332415874764	0.7710783774241844	271.1840916601858	-0.1145326152863646	-0.4944339379654039	0.3799013226790393	87.30674573546463
12	5.0	ltm	272	diff_vonmises	-0.00159031975469	-0.0911186100200195	1.8140791909539948	1.1964010992257552	0.0920898487890514	2.604324577238324	0.1282255049764289	-0.3622053545575679	0.4904308595339969	94.94006851287958
13	5.0	perception	272	diff_vonmises	-0.0334004437463807	-1.9137044605317437	2.0555782896760544	2.7774012059185087	0.2042980750971441	4.145713723661575	0.6557379046275983	-0.5234173515813806	1.1791552562089789	87.529319432265
14	5.0	wm	272	diff_vonmises	0.0007602554388673	0.0435594279989657	1.0057755594321942	3.146414634934412	0.2736301162752557	4.738807224324676	0.1053287665568616	-0.4191442039974575	0.5244729705543192	107.9950914881874
15	6.0	ltm	272	diff_vonmises	-0.0990994098587294	-5.677977937142339	0.4780302067986583	81.83242995835256	0.4533555190333558	83.09370203541785	0.0749919408192418	-0.3558256867652272	0.430817627584469	122.47592770928082
16	6.0	perception	272	diff_vonmises	-0.0519460115328081	-2.976287223367805	1.0128749557522894	2.536748915893883	0.0179977441585388	3.8323944680712807	0.2520374297626774	-0.4838711774811539	0.7359086072438313	126.80431869344186
17	6.0	wm	272	diff_vonmises	-0.0605594454039153	-3.46980063129728	0.4616040666033884	225.88086699345428	0.4514295782123468	227.25064428905057	0.1007994173512827	-0.4010648890471451	0.5018643063984278	124.05904909085908
18	7.0	ltm	272	diff_vonmises	0.0358056966378481	2.051515299874458	0.787125865235277	226.20962910139556	0.7746481428106092	227.92497693995003	0.0264760359675193	-0.3907994476887424	0.4172754836562617	91.56223992763546
19	7.0	perception	272	diff_vonmises	0.0069958613992707	0.4008333322367025	0.7089767798187686	256.7227110085356	0.6929740934578025	258.26718932845085	0.3456159472802227	-0.5008822497855512	0.8464981970657739	103.51764950410404
20	7.0	wm	272	diff_vonmises	0.1046535735256454	5.99620807398153	0.8116963029178733	152.3197123949537	0.7937341685846044	154.0800039308664	-0.009916940918174	-0.3872430363590844	0.3773260954409103	89.01662805288743
0	1.0	ltm	439	diff_vonmises	0.0054074074618053	0.3098216256689943	5.827277670559576	0.4551026938251131	0.0484458217141527	3.625113270647837	-0.1772903586443487	-0.5782605806700135	0.4009702220256647	54.490442933664326
1	1.0	perception	439	diff_vonmises	-0.0189115528681191	-1.0835521633817564	12.476118628158302	0.7007532047334011	0.0357687421286341	3.891695831649396	0.3354295271409534	-0.6284502267943608	0.9638797539353142	38.07133842226338
2	1.0	wm	439	diff_vonmises	-0.0003517023196807	-0.020151058562669	3.705466526837276	0.7476529941142865	0.1434843800239232	4.150693817529705	-0.2074030563547581	-0.6480045146755781	0.44060145832082	63.86672099432718
3	2.0	ltm	439	diff_vonmises	-0.0906495336431494	-5.19383569258163	2.08846711808365	1.873227248053968	0.516194655035256	3.502613047670846	0.1170814925627385	-0.3994210858327355	0.5165025783954742	74.81753256459334
4	2.0	perception	439	diff_vonmises	-0.043468352570752	-2.4905531446907325	6.575841245301309	1.159886682264511	0.1613208851787971	2.8587543537325115	0.6307505262416105	-0.4628077887565648	1.0935583149981754	51.38081196106441
5	2.0	wm	439	diff_vonmises	0.0113411167627725	0.6497981254719384	3.758223450091392	0.8564780344743301	0.2052369792543384	2.571058032817644	0.1391731206764948	-0.3917240261148144	0.5308971467913093	64.67199377708866
6	3.0	ltm	439	diff_vonmises	-0.0625153176758302	-3.581863857744666	1.8856376953330332	1.947943923387508	0.4018581692320464	3.334190637800158	0.2076234859121857	-0.3695767087404312	0.577200194652617	82.21759231802477
7	3.0	perception	439	diff_vonmises	-0.0323438420974607	-1.8531656454220615	3.964119322486051	2.0212406151188604	0.2030504076387755	3.3474740625381165	0.9003609669015461	-0.4980600834279708	1.398421050329517	65.28789957365629
8	3.0	wm	439	diff_vonmises	-0.0300379471279646	-1.7210475956694864	1.9934236902713856	1.981431763840521	0.4666598518579583	3.449399637650824	0.1904764987032752	-0.3827264539858106	0.5732029526890858	78.50580473415931
9	4.0	ltm	439	diff_vonmises	-0.1404038921950114	-8.044550449983953	2.040286910159436	1.3035722827997185	0.1083898197881269	3.3206264365055853	0.0933708699234174	-0.4677534256057238	0.5611242955291413	88.32760807711361
10	4.0	perception	439	diff_vonmises	-0.0963295831811218	-5.51927855853268	1.7885559448299997	3.817222477981146	0.3188514235951016	5.723898407061551	0.6182058610392711	-0.6319523250174117	1.2501581860566828	88.35708563648103
11	4.0	wm	439	diff_vonmises	-0.15052649261259	-8.624532731608573	0.8594414857367154	342.33550854512714	0.8485347882854581	344.46466026996507	0.046124852569477	-0.4898331903852124	0.5359580429546895	87.66070660834684
12	5.0	ltm	439	diff_vonmises	-0.0453545754565815	-2.598625755269753	1.2889794747400891	2.148825266084484	0.0878438100909891	3.223161911720863	0.2907447502075085	-0.4044138831176394	0.695158633325148	112.1178749954746
13	5.0	perception	439	diff_vonmises	-0.0564925647831016	-3.236785535941109	1.813504183187496	3.2058866361439566	0.2705034484105305	4.166147906270727	0.7051657756701697	-0.4679991256158293	1.173164901285999	91.0515999598206
14	5.0	wm	439	diff_vonmises	-0.0474902367812381	-2.720990135641894	0.7498048840064342	270.22955201612376	0.7388352328847634	271.2104113650234	0.2794387259631889	-0.3386350682006522	0.6180737941638412	101.28107408346548
15	6.0	ltm	439	diff_vonmises	-0.027884047522774	-1.5976382387971697	0.9038046411343608	1.738015778329158	3.250529376746348e-18	2.446132750513696	0.1728300050392665	-0.2970925944981955	0.469922599537462	132.69669657634677
16	6.0	perception	439	diff_vonmises	-0.063218212783938	-3.622136780879635	0.9951565995851396	2.3083182975623298	3.2360562877605527e-18	3.025800328750171	0.3050730400646496	-0.3740694469651767	0.6791424870298264	128.75926230397175
17	6.0	wm	439	diff_vonmises	-0.1309576881317304	-7.503322824738622	0.5611620819181773	178.7391712935681	0.5496322392320406	179.3534931879646	0.230829832522275	-0.2735757782437407	0.5044056107660158	118.33268813659318
18	7.0	ltm	439	diff_vonmises	-0.0235994368310719	-1.3521481293060107	0.6490812656972675	159.16672175002938	0.6301811679569667	160.49300978603412	0.2115166645241259	-0.4026593445213944	0.6141760090455204	107.2226730161187
19	7.0	perception	439	diff_vonmises	-0.0175451736963017	-1.0052644036220395	0.8881441430072704	351.521999228637	0.874591781056468	352.6016318161857	0.5648883386740664	-0.4583696070752232	1.0232579457492896	94.99904787592412
20	7.0	wm	439	diff_vonmises	0.1085363447473681	6.2186744778010965	1.4999943266440354	2.6060351897597127	0.4590990737215175	3.7836591874825096	0.2240539246729797	-0.3378090493282942	0.5618629740012739	88.54484264014721
0	1.0	ltm	249	diff_vonmises	0.0558476685567331	3.199835703946285	5.682738551268543	0.2199848977336787	5.752346328591763e-19	3.329211796635419	-0.3257128017863572	-0.5298581480572061	0.2041453462708488	57.19377723346295
1	1.0	perception	249	diff_vonmises	0.0186188276739705	1.0667802451998911	12.555676611541823	0.6707140939342616	0.0671056817114827	3.796063927814832	0.2929517132877494	-0.6228644686559098	0.9158161819436592	37.727614549944605
2	1.0	wm	249	diff_vonmises	0.0743134577429539	4.257847489695047	4.051713012575375	0.3725833835990317	0.0189151805242717	3.6672310407423567	-0.3062838494946059	-0.5792199666882146	0.2729361171936086	65.95365352397843
3	2.0	ltm	249	diff_vonmises	0.0529861299675346	3.035881619871391	4.375170876954563	0.4062794576041847	0.0120819726350248	2.035257569702884	0.0001051977433755	-0.3216496122731451	0.3217548100165207	64.65688818034013
4	2.0	perception	249	diff_vonmises	-0.0031359161040952	-0.1796747576717643	7.238730515724639	1.2879978718182847	0.289969928794435	3.026477769040697	0.7264411891008048	-0.512448360911579	1.2388895500123838	48.21851526120446
5	2.0	wm	249	diff_vonmises	0.0776980208477063	4.451768671093058	3.9660086128769336	0.6745283934442889	0.1617436462867726	2.627529289985461	0.0277423246976757	-0.4079364543928978	0.4356787790905735	63.195405329798064
6	3.0	ltm	249	diff_vonmises	0.0443359847875746	2.5402648088842485	3.0725569723828645	0.7639943719157064	0.339645166036396	1.9435359780341943	0.0850222104202534	-0.2791440212302827	0.3641662316505362	67.65793568965285
7	3.0	perception	249	diff_vonmises	-0.0005700588670842	-0.032661967157936	4.575765034588165	1.900747220385596	0.2225392442536955	3.1129481791359908	0.9604758656090964	-0.4748284015276905	1.4353042671367868	60.93434596141117
8	3.0	wm	249	diff_vonmises	0.0087328587927927	0.5003559519107357	3.933979479711207	0.5847655062180637	0.1188081181041192	2.1382884865934537	0.0635627892571563	-0.3305344839862383	0.3940972732433947	64.81926702466134
9	4.0	ltm	249	diff_vonmises	0.0306815626638387	1.7579240495041213	0.7073175337888364	178.27331042862704	0.6930768222246056	180.5178948417725	-0.1518642428919534	-0.4421478275999178	0.2902835847079643	89.93363509432965
10	4.0	perception	249	diff_vonmises	-0.0534640268340198	-3.063263093363518	1.9212586275890688	3.630314951266281	0.3832381444011398	5.612562688276787	0.5642083609263138	-0.6174355983684626	1.1816439592947765	83.73303201744184
11	4.0	wm	249	diff_vonmises	-0.0079214576262639	-0.4538660895766419	0.7691159089565057	180.8262114740617	0.7516402917181131	183.37952734115848	-0.1483880673830029	-0.5138280408461178	0.3654399734631148	87.23323101795273
12	5.0	ltm	249	diff_vonmises	0.0016871375172781	0.0966658591982198	1.4927033119120388	1.647353516935879	0.2313677968366241	3.311704943487819	0.0559682970897847	-0.3875895672840079	0.4435578643737927	93.82152120799094
13	5.0	perception	249	diff_vonmises	-0.0301878108047097	-1.729634151849295	1.720045513215154	3.614206478298531	0.3305545885213311	5.284060028194874	0.5622282883933534	-0.5649682508223488	1.1271965392157022	89.47932105248302
14	5.0	wm	249	diff_vonmises	0.0522389291874118	2.993070168721472	1.0948934857604309	2.265201455985393	0.1638432049262233	4.205947991867256	0.0312150062460175	-0.4732626291743982	0.5044776354204158	110.39368070022736
15	6.0	ltm	249	diff_vonmises	-0.1246399181205097	-7.141341267161358	0.500321617824616	288.61341530887967	0.491889376434995	290.38933680330763	0.0190841870075928	-0.4382383418433591	0.4573225288509519	116.39676540483164
16	6.0	perception	249	diff_vonmises	-0.0596639029364674	-3.418489827537782	0.5522637017252706	237.02607420014343	0.5366756742890232	238.82314214847392	0.2391528287774988	-0.5563139467732405	0.7954667755507394	115.88827181010195
17	6.0	wm	249	diff_vonmises	-0.0104929502960287	-0.6012017666029955	0.4799905991413342	251.98475356296345	0.4691106008739326	253.9458294783211	0.0376980677851506	-0.5010232723215253	0.5387213401066759	119.60048899613216
18	7.0	ltm	249	diff_vonmises	-0.0331693091094647	-1.9004614213371664	0.7998509966038843	285.8281591588783	0.788575095616384	288.21897717788244	-0.1052443403308984	-0.4939569439194784	0.3887126035885799	86.62961567250812
19	7.0	perception	249	diff_vonmises	0.0150357265976403	0.8614836759573913	1.67553277817815	2.2764581847987118	0.0647402150883347	4.548332223898326	0.2831510605090396	-0.6408367600941197	0.9239878206031592	100.7558950610572
20	7.0	wm	249	diff_vonmises	0.1588961112340219	9.104076554750725	0.7828006800861077	86.05158910919982	0.7476278648121397	88.52550779900149	-0.1485333304770968	-0.4965394236855491	0.3480060932084523	86.74015610845157
0	1.0	ltm	370	diff_vonmises	0.058223366417667	3.3359531647760536	4.802465581736471	0.2722695387643637	1.3018429000490207e-20	3.5071784634209378	-0.3271370262229896	-0.5581692145903309	0.2310321883673412	62.3361250299412
1	1.0	perception	370	diff_vonmises	0.0183334471254831	1.0504291442164355	11.650466535149626	0.7627821758859586	0.0478439347487312	4.069685520648059	0.3480053893364119	-0.6599920136553336	1.0079974029917451	39.301266294236825
2	1.0	wm	370	diff_vonmises	0.0198663897185147	1.1382602850329886	4.129005050233691	0.3806351796063007	7.58107770708506e-13	3.778304881821437	-0.3035801484311558	-0.6012587259831952	0.2976785775520393	67.3545295310185
3	2.0	ltm	370	diff_vonmises	0.0653919945347507	3.7466853007837626	3.326444219006671	0.6489318857781602	0.1508677797527635	2.3089441609346792	0.0256613330141057	-0.3492167799323476	0.3748781129464534	68.74312434601973
4	2.0	perception	370	diff_vonmises	-0.005244189900731	-0.3004699482770214	6.719011471321887	1.4522349273077302	0.2877412984495652	3.1382678316070765	0.8190477705624909	-0.522993253229696	1.342041023792187	50.05838965637295
5	2.0	wm	370	diff_vonmises	0.0472262974390276	2.705867525285775	3.7428205757749735	0.730963616222879	0.1342327664936613	2.6351224800401	0.064382760575233	-0.4048486518607284	0.4692314124359614	65.84859453197416
6	3.0	ltm	370	diff_vonmises	0.0864687941231303	4.954296962840984	4.157667349872393	0.4851465050244761	1.0211787453002606e-14	1.6454606097893996	0.1190613543442334	-0.2617899590138807	0.3808513133581142	67.11566764738635
7	3.0	perception	370	diff_vonmises	0.0093368181834219	0.5349602759910803	4.700920461029168	1.9055886721262345	0.1576255450959614	3.023542285288088	1.0386804070500697	-0.4637840971366143	1.5024645041866838	60.94183515432292
8	3.0	wm	370	diff_vonmises	-0.0248608052812454	-1.4244192179119122	4.219596204167424	0.6040039272585261	1.857925203976527e-25	2.023557157788899	0.1559812300370053	-0.3219557362233587	0.4779369662603641	66.61290431537242
9	4.0	ltm	370	diff_vonmises	0.0169118961732793	0.968980274292357	1.836415760320947	0.6574915439535763	6.083908020392586e-17	3.207239265043374	-0.1883611500162118	-0.5022655443553309	0.313904394339119	100.98007218037704
10	4.0	perception	370	diff_vonmises	-0.0168684484957633	-0.966490905741042	1.8106071251168807	3.756511547089525	0.2992120261457261	6.131606148198748	0.5371589762426401	-0.7022009625135351	1.2393599387561751	87.6484605548572
11	4.0	wm	370	diff_vonmises	0.0477641239400443	2.736682713904316	0.6703275399011996	202.6661634501167	0.6544514630990628	205.499068319978	-0.1695306740989579	-0.5655842968706359	0.396053622771678	93.58366903921058
12	5.0	ltm	370	diff_vonmises	-0.0543369276817596	-3.113276627872402	1.7952598149627632	1.0019135012688998	1.0937471635238596e-15	2.1151626553098457	0.1474505249125716	-0.3232853874097234	0.470735912322295	102.0341033840313
13	5.0	perception	370	diff_vonmises	-0.0270859832673008	-1.5519125251783046	1.579174388815582	4.119482770948014	0.3607953757882868	5.134565278843281	0.7058724631743802	-0.4900939607806572	1.1959664239550374	93.36157362375668
14	5.0	wm	370	diff_vonmises	0.0508305554316292	2.9123762965381403	1.5135060132692482	1.3967222165435762	4.95226885773552e-21	2.6778105465677338	0.1821018241833991	-0.396708881052982	0.5788107052363811	110.02555125912406
15	6.0	ltm	370	diff_vonmises	-0.0666739204976285	-3.8201342481049063	0.4471835443321739	70.7795023933069	0.4228854953833814	71.65496951625927	0.1143192943547859	-0.2923339789252033	0.4066532732799892	127.9485433409189
16	6.0	perception	370	diff_vonmises	-0.0431862911319299	-2.4743922146828403	0.8395801864305078	4.187815681278366	0.168808748926486	5.064528924829629	0.3557133905378787	-0.4329177681694428	0.7886311587073216	125.65001818397064
17	6.0	wm	370	diff_vonmises	0.050066355535479	2.8685908677843943	0.4668869826944768	220.01764460000783	0.4564532027127718	221.02503950374336	0.1859285379472695	-0.3640777189802087	0.5500062569274782	125.86261032903856
18	7.0	ltm	370	diff_vonmises	0.0228938540446199	1.3117212135452303	0.7959279378631542	170.91321123485238	0.7793433270949437	172.79155773506648	-0.0216345029037015	-0.409094946718028	0.3874604438143265	89.52826600060942
19	7.0	perception	370	diff_vonmises	0.108112170570169	6.194371087669154	0.6852241234157055	258.6542616879735	0.668299905790584	260.38118652124865	0.3524079358306551	-0.550962092827092	0.9033700286577472	105.05516833230529
20	7.0	wm	370	diff_vonmises	0.015031467793168	0.8612396644353574	0.6575475799503193	180.6878136204396	0.6439864488829296	182.68783409841987	-0.0820621533336023	-0.4146957674248561	0.3326336140912538	96.53548117283836
0	1.0	ltm	416	diff_vonmises	-0.2716375915963849	-15.563687555571171	1.0235894514393578	0.678872223543481	0.1057444396964279	1.3366031075598392	-0.0007966682057276	-0.1605079153179121	0.1597112471121845	117.44271410078323
1	1.0	perception	416	diff_vonmises	-0.0617347324239285	-3.537139617260545	15.473678660989632	0.6869762359649356	7.693152118270347e-15	1.5557211548012455	0.8209596601906672	-0.2476007118592092	1.0685603720498764	34.445629221348185
2	1.0	wm	416	diff_vonmises	-0.3076622701370234	-17.627749594265268	0.000287054290203	2388.76539333639	4.628367810821081e-28	2389.50738174256	-0.0089521988061846	-0.2272143840287981	0.2182621852226134	177.29486131677
3	2.0	ltm	416	diff_vonmises	0.0342090604532601	1.9600347850796964	6.925351810146929	0.2627961210937259	4.6086658543704126e-17	0.7003777560342684	0.1590705121119899	-0.1114683207199983	0.2705388328319883	51.70907533947505
4	2.0	perception	416	diff_vonmises	-0.0180494768849668	-1.034158847927534	7.72032189517247	1.2881298136706796	0.4840166891620917	1.6182018516350152	1.0087586348467623	-0.2821927138050846	1.2909513486518471	46.87129838719545
5	2.0	wm	416	diff_vonmises	0.0152348399748114	0.872892032113889	5.302429596377229	0.2685147612837137	0.0924539371640875	0.7629010291604817	0.1073255548745656	-0.1202553035209764	0.227580858395542	57.51167024205887
6	3.0	ltm	416	diff_vonmises	0.1321437396548176	7.571278571296582	1.8858372444962204	71.38195864212544	1.8634120907410665	71.54608023973908	0.1760645349311289	-0.1029830697175206	0.2790476046486496	65.62126319003929
7	3.0	perception	416	diff_vonmises	-0.0192048499046826	-1.1003568457205362	4.797676348717956	1.9341898427809583	0.5382736280126152	1.9550163572880583	1.144197733737277	-0.2873983254554987	1.431596059192776	58.3860152573105
8	3.0	wm	416	diff_vonmises	-0.0895461131080902	-5.130614352894669	2.4276959353153456	1.4275371704044877	1.177917538953766	1.721042946367538	0.1814378414573018	-0.1330777043702737	0.3145155458275755	66.28838100830447
9	4.0	ltm	416	diff_vonmises	-0.1388232326233547	-7.953985327681069	1.7087182169817206	140.7733356871132	1.692307050001071	141.40160324634246	0.0938681752137569	-0.2020537259445696	0.2959219011583265	63.87405598650625
10	4.0	perception	416	diff_vonmises	-0.0868662899061364	-4.977071793581483	2.9901695971180047	1.9698187666980187	0.2089375291649553	2.822113565228713	0.7402050625342218	-0.3910426938587616	1.1312477563929837	74.54363951644777
11	4.0	wm	416	diff_vonmises	-0.1310948738583832	-7.511182987885268	1.4241975347594995	193.57209351820688	1.4108205590306755	194.45981826821264	0.0900041837894889	-0.2506897619722643	0.3406939457617532	69.44481690504827
12	5.0	ltm	416	diff_vonmises	0.0955293451757558	5.4734282982192415	2.356924950279774	0.6556555344591041	0.13911770259434	0.8747974972443923	0.2139418390183991	-0.1189409591214339	0.332882798139833	84.9625041447566
13	5.0	perception	416	diff_vonmises	-0.0232296850289049	-1.330962911574485	2.623442658703765	1.6722145716533685	0.0331675674014231	1.6910873617821849	0.735544640615599	-0.2549565867163438	0.9905012273319428	84.08718602482631
14	5.0	wm	416	diff_vonmises	0.1041149927239817	5.965349667119427	1.7087659603186047	0.7480237383560376	1.7327134146902876e-15	1.014861429092054	0.1891979899687603	-0.1500190085420628	0.3392169985108232	104.31868560228082
15	6.0	ltm	416	diff_vonmises	-0.2414282330982326	-13.83281881182938	0.4654255074493496	60.86827344252741	0.4489056837418808	61.08663628259316	0.134784028863482	-0.1387672570146687	0.2735512858781508	128.87722445906343
16	6.0	perception	416	diff_vonmises	-0.0391895629368737	-2.245396557245179	0.6425245190452021	155.83025620309346	0.627562820446888	156.12554869804316	0.3626705210342109	-0.2549120803019473	0.6175826013361583	114.29529234663512
17	6.0	wm	416	diff_vonmises	-0.0470215336802044	-2.6941354261079664	0.8965458968423508	1.3382500169381242	3.7047329398684726e-09	1.5952324736061307	0.1771087184827793	-0.1821499653358919	0.3592586838186712	133.00205473644695
18	7.0	ltm	416	diff_vonmises	0.1133750424456033	6.495911434249639	1.213223538807305	131.6069980155927	1.1973126964574814	132.1145159943307	0.1942939599274851	-0.1814571227510981	0.3757510826785832	79.8360739541917
19	7.0	perception	416	diff_vonmises	-0.0299556080723133	-1.7163299152915727	1.876328771919301	1.5000944144105532	5.159725186437335e-20	2.003834360882666	0.4255799875917079	-0.3014568446950591	0.7270368322867671	99.97963364558998
20	7.0	wm	416	diff_vonmises	0.0762666486689188	4.369757086336085	0.7938375075771288	4.273519932766989	0.5341670278409075	4.78302484114025	0.0818160573589614	-0.1532495755445753	0.2350656329035368	105.5029988280172
0	1.0	ltm	7	diff_vonmises	0.0045153814175357	0.2587122981165978	6.165838250347628	0.394506083544071	0.0146691680760892	3.809237264803497	-0.2330266085107938	-0.6056296913635731	0.3726030828527792	54.0650449962875
1	1.0	perception	7	diff_vonmises	-0.0132593872520432	-0.759706928471647	12.79135463485549	0.7429146073445159	0.0319023983394259	4.202710125672155	0.3587496467988134	-0.6777140243105966	1.03646367110941	37.6318593240471
2	1.0	wm	7	diff_vonmises	-0.0172393052011612	-0.9877394297644702	4.00940081844371	0.5767123448562935	0.0604337882598809	4.242899449250264	-0.2727139059920468	-0.6668632836840407	0.3941493776919938	64.25110092409867
3	2.0	ltm	7	diff_vonmises	-0.0332744168645547	-1.9064836520979171	2.35382922313364	1.2819881030086169	0.3552825204721326	2.924563805158277	0.085609888544288	-0.3818412583154083	0.4674511468596964	74.65153458296606
4	2.0	perception	7	diff_vonmises	-0.0356452881625624	-2.042324571242459	6.596756409221386	1.2945636771795468	0.2191539233699639	2.9587778611301347	0.7199910673611535	-0.4845890819377672	1.2045801492989208	50.91512005945469
5	2.0	wm	7	diff_vonmises	-0.0036199040268779	-0.2074052229825156	3.454550080744663	0.9329213579096848	0.1975645119666725	2.7440625591508585	0.1345976693819651	-0.4119442708062464	0.5465419401882117	67.25025704914373
6	3.0	ltm	7	diff_vonmises	-0.0221224035848549	-1.2675203580972705	2.937308890075454	0.8436437304854367	0.0254197622600016	2.1930979693678125	0.1879390633890895	-0.3392075228468575	0.527146586235947	78.74992842476908
7	3.0	perception	7	diff_vonmises	-0.0183715425110669	-1.052611849029311	4.0999566015050695	2.097807771033079	0.2009139570910014	3.3294585121895315	0.9934332866350242	-0.497534905175499	1.490968191810523	64.42552358815345
8	3.0	wm	7	diff_vonmises	-0.0566612877903234	-3.2464526521616768	3.041085227688097	1.044937716479641	0.1498517711692504	2.5319048793692964	0.224199942905075	-0.3709851952966368	0.5951851382017119	73.22044404560091
9	4.0	ltm	7	diff_vonmises	-0.1273135915092045	-7.29453146813001	2.0508916417903	1.0746039937815428	2.6877207270541134e-18	3.338564418135974	0.0314827787443734	-0.5220375154655162	0.5535202942098897	95.84543266838818
10	4.0	perception	7	diff_vonmises	-0.0535182377958616	-3.0663691526803967	1.8430984896789195	3.715309619534027	0.2683988757266416	5.8080580578476	0.6365614205704826	-0.679019657525122	1.3155810780956043	88.70673662605239
11	4.0	wm	7	diff_vonmises	-0.1009504389871406	-5.784034093956082	0.7616150624220417	356.0618742525411	0.7508939787337521	358.51533004943434	0.0068413591465343	-0.5477154092465426	0.554556768393077	92.39334051339593
12	5.0	ltm	7	diff_vonmises	-0.065381351094745	-3.746075476591938	1.4441849866498444	1.5942084141533874	8.212034054467195e-19	2.6080021447186312	0.2597944684304653	-0.3775074116997218	0.6373018801301871	112.21378698555353
13	5.0	perception	7	diff_vonmises	-0.0278000258873105	-1.592824153697323	1.521407981325832	4.227612401146958	0.3673921397063864	5.0913528700008825	0.7153819840047788	-0.4671223887307411	1.18250437273552	94.87955250151344
14	5.0	wm	7	diff_vonmises	-0.025522323378343	-1.4623214129471311	0.6815496311595387	177.40255499391623	0.6651930227816822	178.39924285701684	0.2752844208022793	-0.3537383183159512	0.6290227391182306	106.51303738106084
15	6.0	ltm	7	diff_vonmises	-0.0410833701422847	-2.3539037173266943	0.8232085233288685	1.8162907890605369	1.2574124506435935e-17	2.4523957409659207	0.1692362739658747	-0.2824608145456263	0.451697088511501	136.2963617878695
16	6.0	perception	7	diff_vonmises	-0.0169225296722952	-0.9695895289074228	1.0338444336607302	2.4940449567793745	1.2495987139033461e-18	3.1271056732757376	0.370490571793532	-0.3878882201915832	0.7583787919851153	127.18621838965824
17	6.0	wm	7	diff_vonmises	-0.0517206862635132	-2.96337703641956	0.4682244584816762	222.50536018926888	0.4585379649505651	223.1349172134307	0.2499126121922756	-0.311015926871395	0.5609285390636707	127.66187292682154
18	7.0	ltm	7	diff_vonmises	-0.0156700301849735	-0.8978265944415876	0.6910800167297787	168.32990583205182	0.6745324414022457	169.7467584877522	0.1341687179861566	-0.3773108991643816	0.5114796171505382	101.80774804713296
19	7.0	perception	7	diff_vonmises	0.0742669570173965	4.255183194376317	0.7769478929788574	296.42199899665724	0.7624881578780769	297.63423275315336	0.4590470270603504	-0.4638644818645723	0.9229115089249228	100.61522397971603
20	7.0	wm	7	diff_vonmises	0.0663562312298608	3.801931993865212	0.7797722070605866	177.9788484211413	0.7642446700871568	179.3788529268373	0.1121784117122999	-0.3551884518516282	0.4673668635639281	94.95457181116636
0	1.0	ltm	105	diff_vonmises	-0.0227650693101722	-1.3043423917956645	4.12353789151337	0.2695130547587245	3.448116950941993e-20	2.751634145886504	-0.2272684177105646	-0.4378809695402761	0.2106125518297114	67.40167006250937
1	1.0	perception	105	diff_vonmises	-0.0044404974982382	-0.2544217655874515	12.76965798916444	0.76037975638169	0.0480679587150826	3.383848338974868	0.508108915750082	-0.5495466128355941	1.057655528585676	37.6196057080511
2	1.0	wm	105	diff_vonmises	0.0344084697013996	1.9714600933939688	3.733830055531478	0.3867995824499253	1.1522002780723917e-17	3.0163802816870304	-0.193698914664023	-0.4799082375495935	0.2862093228855705	70.92465968155906
3	2.0	ltm	105	diff_vonmises	0.0623180314582569	3.570560190121616	4.171102955508937	0.4386174086728604	0.0570096077821668	1.7022802714558354	0.0583862310822143	-0.2656612164536556	0.32404744753587	64.74783080365756
4	2.0	perception	105	diff_vonmises	-0.0115240752700004	-0.6602808757621088	7.120281264740279	1.3857105378959813	0.3483063253895351	2.5784595169866265	0.8830279426116795	-0.437662249859877	1.3206901924715564	48.62948535279827
5	2.0	wm	105	diff_vonmises	0.040469533851231	2.318733488537358	3.9490872849474528	0.6315590411905475	0.1539241985867359	2.07504716570696	0.0992261266819307	-0.319629788491674	0.4188559151736047	64.16168116260124
6	3.0	ltm	105	diff_vonmises	0.0713484786686202	4.087966702391124	3.873117053919826	0.4553297363018849	0.1212061869385524	1.1762961810657575	0.133399679733957	-0.1795083849785018	0.3129080647124589	66.21741917709949
7	3.0	perception	105	diff_vonmises	0.0013100964682801	0.0750629983874474	4.586778801378424	1.8661621981130203	0.2699327581106206	2.492776123962997	1.0348629537189935	-0.3754083299829843	1.4102712837019775	60.8640622351158
8	3.0	wm	105	diff_vonmises	-0.0585003795987317	-3.3518248509205515	3.9429197492379737	0.5978008233121014	0.1395726918503082	1.519455937776169	0.1792934386810881	-0.2318184938545342	0.4111119325356224	65.3395832846764
9	4.0	ltm	105	diff_vonmises	-0.0987137544318155	-5.6558815088338585	2.083684214975431	0.9183966924210836	0.260199550390658	2.586798995783195	-0.0394947648192622	-0.3453443675458302	0.305849602726568	78.76433270543623
10	4.0	perception	105	diff_vonmises	-0.0511094726019031	-2.9283570732285624	2.2685878490032567	2.872679248021554	0.2792993936070493	4.450111844714706	0.6800005411150847	-0.5552539647835897	1.2352545058986744	81.64740728330716
11	4.0	wm	105	diff_vonmises	-0.0469048247386788	-2.6874484963271112	0.9234085210696156	335.77351252819494	0.9138594107264632	337.7024085969588	-0.0175186264259679	-0.4266264256117722	0.4091077991858043	82.73552486784206
12	5.0	ltm	105	diff_vonmises	-0.0224132943076632	-1.2841871688136968	1.7642576236567993	0.943798508707728	0.0231624933315672	1.909396598222108	0.1402243300546627	-0.2836498076279025	0.4238741376825652	101.28308208552092
13	5.0	perception	105	diff_vonmises	-0.0112208427899285	-0.6429069344427065	1.86096237909422	2.942202983241608	0.2626168763537446	3.762222428648807	0.6875790726179044	-0.428868594400605	1.1164476670185095	90.51784923552948
14	5.0	wm	105	diff_vonmises	0.0633456721801099	3.629439666339573	1.4022888041803354	1.3470718050694788	0.0198803934673855	2.420679216346787	0.1672556926485663	-0.3437292094331446	0.510984902081711	112.1934115291204
15	6.0	ltm	105	diff_vonmises	-0.1091646444666475	-6.254673399985061	0.452664481678531	179.39063733779088	0.4429735399889362	180.23094754293436	0.1236089126032098	-0.2868412356282022	0.410450148231412	126.76073611340571
16	6.0	perception	105	diff_vonmises	-0.0273310465887564	-1.565953619211171	0.5356758696517816	180.81957374410456	0.5178478268179105	181.6513329669825	0.3968558698184594	-0.4288963547310729	0.8257522245495323	121.80980941608622
17	6.0	wm	105	diff_vonmises	-0.0068033647205031	-0.3898040849730286	0.4314917571546862	175.8268005106118	0.4186674169585823	176.75858240427652	0.1999968554367299	-0.3644172748968088	0.5644141303335388	130.30848690360625
18	7.0	ltm	105	diff_vonmises	0.1035259481837282	5.93159990101768	0.8493641477479212	170.14865902818843	0.8344772481195348	171.55783378502022	0.0462697135624736	-0.3297451339689559	0.3760148475314295	88.8520502764969
19	7.0	perception	105	diff_vonmises	0.0656563645304321	3.761832585766198	1.5037626081156026	2.559901372880679	0.1700593868353087	3.8673161517712606	0.3861449045224997	-0.4607566628340726	0.8469015673565723	100.80851164355244
20	7.0	wm	105	diff_vonmises	0.1112316596305986	6.373104645069002	0.6703328708349677	134.7979225119283	0.654709688275067	136.28082406195537	-0.0085982517891736	-0.3293697833272482	0.3207715315380746	98.5432759795978
0	1.0	ltm	324	diff_vonmises	-0.1007474457030242	-5.772403435506709	2.8423581928898005	0.3645447832528308	6.946012950144978e-22	1.6903907132240157	-0.0375449967363024	-0.2682475192405256	0.2307025225042232	81.54112964130033
1	1.0	perception	324	diff_vonmises	-0.0637815193306273	-3.654411868577022	15.369312886019856	0.6305655153643417	1.4467870613951518e-19	2.1902921498991947	0.6290697418107305	-0.3485958224717877	0.9776655642825184	34.55648539580042
2	1.0	wm	324	diff_vonmises	-0.0077612786863902	-0.4446885123550028	4.579844545403807	0.3694034633823366	6.712315888697447e-17	1.8302719625856323	0.0142834373963501	-0.2912646754791819	0.3055481128755321	63.87417996871381
3	2.0	ltm	324	diff_vonmises	-0.0126547129606746	-0.725061643596157	3.1717105589600383	0.7443455359104868	0.3519916255149646	1.5865840066232468	0.154961651993456	-0.2246814707990193	0.3796431227924753	67.89324862641567
4	2.0	perception	324	diff_vonmises	-0.0259127940054937	-1.4846937319066935	6.96186345957738	1.205476075862299	0.2709856139916551	2.0551013614041254	0.8229793729729066	-0.339628747287732	1.1626081202606386	49.75264964785009
5	2.0	wm	324	diff_vonmises	0.0100366121017836	0.5750555140421324	4.313638900993378	0.5156161674677489	0.1830324285773541	1.452652150355283	0.1376648376735461	-0.2251093522817798	0.3627741899553259	61.65057883024375
6	3.0	ltm	324	diff_vonmises	0.0336676276928274	1.929012973016785	1.3476529106762585	95.32117593775406	1.3207163941162392	95.97060792658228	0.2033515317810597	-0.2209043663584644	0.4242558981395241	75.00364005893692
7	3.0	perception	324	diff_vonmises	-0.031531811160275	-1.8066396998872691	4.502432953131588	2.0036386377506994	0.3063374123130838	2.6784929302512235	1.0767701654225246	-0.4008746213707802	1.477644786793305	61.04632730386584
8	3.0	wm	324	diff_vonmises	-0.0652979678050496	-3.741297966010471	2.1408810696792866	1.6984315657113462	0.7253208246490018	2.5329649505155896	0.1798547767957318	-0.248744314804474	0.4285990916002059	72.64774347397992
9	4.0	ltm	324	diff_vonmises	-0.1736591376431502	-9.949935660833948	1.6316424446266418	3.390897076372032	0.8907033123623471	4.478345961312504	0.1084433995100109	-0.2888751822664755	0.3973185817764864	74.45649328128394
10	4.0	perception	324	diff_vonmises	-0.0908941036786764	-5.207848523412691	2.4198050388619583	2.4216599044415568	0.181501025520988	3.691460361314256	0.701392062798028	-0.4951269044399505	1.1965189672379786	82.19801709754597
11	4.0	wm	324	diff_vonmises	-0.147821775334457	-8.46956384679544	1.188797751974752	301.9485595685804	1.1777735977477417	303.30578915623323	0.1073535902530835	-0.3524494995611746	0.4598030898142582	75.81502136184602
12	5.0	ltm	324	diff_vonmises	0.0208262406658811	1.1932556932787135	1.6771906020723095	1.2246421740526945	0.132657899723757	1.6415962161933653	0.2706733057660912	-0.207975671466041	0.4786489772321323	99.1442110347472
13	5.0	perception	324	diff_vonmises	-0.0354166706675742	-2.029225753656782	1.9720108131845973	2.3597506879062027	0.2228035066059422	2.68039159693927	0.6805169547699721	-0.318290592915874	0.998807547685846	90.40927371685156
14	5.0	wm	324	diff_vonmises	0.0204006212506095	1.168869497104826	1.1392171687579855	2.4038510430236486	0.3752621792520027	2.873557536802016	0.2415052050241878	-0.2135859997746553	0.4550912047988431	104.11164509678191
15	6.0	ltm	324	diff_vonmises	-0.1584123543355344	-9.076359326157052	0.4143578447375941	94.76872705718274	0.400586517462511	95.10728397008076	0.1625145467797608	-0.1938023520447611	0.356316898824522	133.6823827220707
16	6.0	perception	324	diff_vonmises	-0.027671742889497	-1.5854740793393245	0.663977066113971	126.75654300369668	0.6440201152197835	127.18721316899448	0.3629392696225082	-0.2797653782374159	0.6427046478599241	111.89208550466036
17	6.0	wm	324	diff_vonmises	-0.0565026117444801	-3.23736118442503	0.4944654768526118	98.52520400334532	0.4784990825669335	98.8757429121659	0.208294100963279	-0.2121919505967628	0.4204860515600419	126.22368578056
18	7.0	ltm	324	diff_vonmises	0.0091032076638174	0.5215753791678867	1.0383981689906143	153.44407871121578	1.0198766110688626	154.31581838299402	0.2350016558623124	-0.2770246372645104	0.5120262931268229	85.45771800812761
19	7.0	perception	324	diff_vonmises	-0.0095785054355466	-0.5488079354999394	1.896343268485418	1.8368430991786997	9.087443418934949e-14	2.7137406213153112	0.4855817153438647	-0.4112272531410871	0.8968089684849518	99.48986527999617
20	7.0	wm	324	diff_vonmises	0.0944233118716335	5.410057257892124	1.274093420310501	1.8630173937343428	0.3860531357832986	2.7049908147248534	0.1212754953206728	-0.2339897420332772	0.35526523735395	95.68085425499302
0	1.0	ltm	491	diff_vonmises	0.0644266667816888	3.691376094686466	4.749420361036074	0.2693952233799244	0.0090651810997277	3.507173209155265	-0.3359988332390161	-0.5564539309969392	0.220455097757923	61.60407120876789
1	1.0	perception	491	diff_vonmises	0.0341511054938803	1.9567142105053807	10.99743584055264	0.7402283295134192	0.0790064974519833	3.951013962991424	0.2882266651313645	-0.649246102520379	0.9374727676517436	40.17576217579361
2	1.0	wm	491	diff_vonmises	0.1117869505858013	6.404920473203901	4.143600792604671	0.4169140573264271	0.0204717772000267	3.750939145694413	-0.2825319223068874	-0.5923069231146861	0.3097750008077987	65.27020577874447
3	2.0	ltm	491	diff_vonmises	0.0132441194083554	0.7588321454660674	3.8759912314976983	0.4886351992194354	0.063965118055541	2.1680529086230425	0.0017884759805767	-0.3373286013439461	0.3391170773245229	66.47411176953113
4	2.0	perception	491	diff_vonmises	-0.0027155009079392	-0.1555867412888599	7.078928234637431	1.2778356867286529	0.2410434458114907	3.005538203496818	0.730594981811117	-0.5002148085896777	1.2308097904007949	49.06996325739081
5	2.0	wm	491	diff_vonmises	0.0893329133586185	5.118398907056693	4.137402075155378	0.6678070132583012	0.1554399638652389	2.537215928289476	0.0540945520839923	-0.3953169400180075	0.4494114921019999	62.327075480669066
6	3.0	ltm	491	diff_vonmises	0.0240281764905422	1.3767131023035364	3.029118555416628	0.6553156226753151	0.2349730375964819	1.6999079811115076	0.0940102200703085	-0.2459821702231659	0.3399923902934745	70.59939510092335
7	3.0	perception	491	diff_vonmises	0.00378800105191	0.2170364730655598	4.314269658543767	1.7845456387485927	0.1814909412435092	2.855830664114442	0.889072146091201	-0.4316767348581581	1.3207488809493593	63.14736125751389
8	3.0	wm	491	diff_vonmises	-0.0058590529700256	-0.3356990071260596	3.2705865176618296	0.6802600787681685	0.1680862083650666	1.948527189775732	0.1035308206330627	-0.2902830125324306	0.3938138331654934	69.73379560037404
9	4.0	ltm	491	diff_vonmises	0.0217697224613983	1.2473132182092768	0.7240060367290098	86.55812767677574	0.6956068675484324	88.70937928446972	-0.1416411029506896	-0.4253946683966685	0.2837535654459788	89.52345199085036
10	4.0	perception	491	diff_vonmises	-0.0764116047389391	-4.378062457363054	1.6695992124157348	4.904629441176391	0.5132890904302765	6.789286068221534	0.5752244916708491	-0.6096268185564473	1.1848513102272964	85.08517366955272
11	4.0	wm	491	diff_vonmises	-0.0114547372801949	-0.6563081015863366	0.7892334053659392	205.6117967446648	0.7745502893814489	207.9714551685066	-0.1285001450544953	-0.4788081624401208	0.3503080173856254	86.34984244949266
12	5.0	ltm	491	diff_vonmises	-0.0170952872091575	-0.9794878066487074	1.3637917858245905	1.5736374961706996	0.1641491144818185	3.321149303699561	0.024915156370215	-0.4051507262886544	0.4300658826588694	100.70078399333924
13	5.0	perception	491	diff_vonmises	-0.0424729551390561	-2.4335210729163963	1.8196083088259252	3.4699762753817103	0.313732913121332	5.166279673670807	0.5922245432306057	-0.5759062208023921	1.168130764032998	88.075646600375
14	5.0	wm	491	diff_vonmises	0.0573129889751561	3.2837923795562625	0.5634003049091308	223.18160382846835	0.5510367822773444	225.06854828103144	0.036164530290641	-0.457912460178246	0.4940769904688871	109.84604920563088
15	6.0	ltm	491	diff_vonmises	-0.073693160193564	-4.2223070580727	0.503593815786874	248.6297978548456	0.4940698365311646	250.5149027373751	-0.0205456503677439	-0.4397586090826095	0.4192129587148656	114.45900027188998
16	6.0	perception	491	diff_vonmises	-0.1057862618621382	-6.061106335166263	0.4864121238078897	230.22273275521968	0.4707952263266145	232.01960426041703	0.2360914498379784	-0.5821848708466533	0.8182763206846317	123.00905258084376
17	6.0	wm	491	diff_vonmises	-0.0609230862574825	-3.490635717465214	0.5290608331413033	258.07403917061606	0.5180377566928022	260.0308498540411	0.0441039154585638	-0.4879526603698849	0.5320565758284488	113.81843501906351
18	7.0	ltm	491	diff_vonmises	0.0625515143315527	3.5839377733500557	0.6525835285916979	191.10286370328484	0.637900712689111	193.4735735736041	-0.113489706414299	-0.4850550275150382	0.3715653211007392	96.27344538388218
19	7.0	perception	491	diff_vonmises	-0.0040475987209316	-0.2319103238719344	1.480748042648972	4.024483959990123	0.3344331743983707	6.181606630879269	0.3927019931094593	-0.6219784116406114	1.0146804047500706	93.0449606349702
20	7.0	wm	491	diff_vonmises	0.1622451333475305	9.295961387350747	1.6394692127568429	1.7651690455726772	0.3187803022736585	4.110700760107856	-0.0704337137411399	-0.485752333247366	0.415318619506226	83.80383508436773
0	1.0	ltm	180	diff_vonmises	-0.1215566679432064	-6.964684044818916	2.6239761299954565	0.3134091347653466	7.991598649206715e-20	1.8887966065562	-0.1105932683629001	-0.2996121482880408	0.1890188799251406	84.90092860243155
1	1.0	perception	180	diff_vonmises	-0.0264417468963318	-1.515000500112958	13.540566234807606	0.726577719487421	0.0338931268503117	2.4993994386386	0.6445301411926295	-0.4032767205446743	1.0478068617373038	36.67017458566934
2	1.0	wm	180	diff_vonmises	0.068363776641485	3.916955873132137	3.679915010962684	0.383021413645972	3.5747077573907365e-22	2.0540678871616183	-0.045605944814435	-0.3267360574567743	0.2811301126423393	71.4552809323828
3	2.0	ltm	180	diff_vonmises	0.0366724808682946	2.1011783780275386	5.219952647221334	0.3318453710657932	0.011881773082591	1.1962458543132182	0.1017633627930568	-0.1893850690172125	0.2911484318102693	59.3312713811805
4	2.0	perception	180	diff_vonmises	-0.0133020782428588	-0.7621529420686107	7.433940786609199	1.290400994797141	0.3814340123304734	2.039831406959977	0.9196881759452056	-0.3490777545706895	1.268765930515895	47.77749371913396
5	2.0	wm	180	diff_vonmises	0.052221669747611	2.992081275664127	4.567694059168029	0.476367864219243	0.1748872477315557	1.420949859134219	0.126232499920529	-0.2223208683875422	0.3485533683080713	60.08256350058272
6	3.0	ltm	180	diff_vonmises	0.058756581246874	3.3665041240634035	2.619809789774898	0.7484450489522175	0.6281604173565964	1.1566732892242069	0.1400028355263048	-0.1351270407566761	0.275129876282981	70.05598304525816
7	3.0	perception	180	diff_vonmises	-0.0082097202625876	-0.4703823220293061	4.535457072835071	1.777072189737111	0.3656546068029477	2.069649097532951	1.0030187105267323	-0.3059183456944695	1.3089370562212022	60.709522112859815
8	3.0	wm	180	diff_vonmises	-0.071341318653021	-4.087556463716043	3.0818856838383866	0.7438168831588556	0.504317453100886	1.2810035643834317	0.1775793637842894	-0.1706097709487053	0.3481891347329948	67.37321272515473
9	4.0	ltm	180	diff_vonmises	-0.116194342513861	-6.657445429341749	1.244409815322722	117.64846601578093	1.2245961663442928	118.64579920808468	0.0456619127657802	-0.2526169663645827	0.298278879130363	73.13291938384347
10	4.0	perception	180	diff_vonmises	-0.086970973584045	-4.983069726509553	2.5237580048167176	2.5080407030633256	0.3170246024585538	3.501575780532081	0.7400591174936779	-0.4387314240062877	1.1787905414999655	78.08578397739481
11	4.0	wm	180	diff_vonmises	-0.0937320450461968	-5.370450586277194	1.1834052829362125	245.94582194273752	1.1718957250557516	247.16585076867275	0.0683658491273746	-0.308187575120062	0.3765534242474366	75.30535180113813
12	5.0	ltm	180	diff_vonmises	0.0335045489585925	1.919669249816793	1.3443072706382433	1.4295499781251568	0.2671459353232824	2.176681016924905	0.1351143368246519	-0.22339697782506	0.3585113146497118	99.46867314566772
13	5.0	perception	180	diff_vonmises	-0.0165977413388456	-0.950980528165673	2.192278449020848	2.242040923835273	0.1965612675639657	2.846516337749869	0.6761618794598605	-0.3621579587701943	1.038319838230055	86.39155524493987
14	5.0	wm	180	diff_vonmises	0.0927364325323645	5.313406191204196	0.610954223796461	58.12380253169216	0.5788380103601962	58.91780264948383	0.1454469422201967	-0.258413653412231	0.4038605956324277	111.90470299036946
15	6.0	ltm	180	diff_vonmises	-0.1627822004561286	-9.326733065988714	0.4769375322549085	141.70301409380707	0.4658722214243355	142.44123698702816	0.1142332176378673	-0.2511606674527584	0.3653938850906257	124.2182989742673
16	6.0	perception	180	diff_vonmises	-0.0468065674664824	-2.681818769323788	0.5869540115516736	249.68136483443436	0.5742679613943958	250.44533682013227	0.399140319099061	-0.3952741218732534	0.7944144409723144	116.98169298786034
17	6.0	wm	180	diff_vonmises	-0.0805003843430414	-4.6123322720372855	0.491498959048308	39.68821791888021	0.4404660997912111	40.46814842691464	0.1925895366781347	-0.3114000040496543	0.503989540727789	126.19939541794996
18	7.0	ltm	180	diff_vonmises	0.1459541199505423	8.362555075712242	0.9087524074773082	162.90167195255543	0.894224444975273	163.95174247786173	0.1129679392909253	-0.2740301235928868	0.3869980628838121	88.35876667679327
19	7.0	perception	180	diff_vonmises	-0.0110678651598324	-0.6341419618782875	2.241825965330536	1.5858333208405573	3.166096592154944e-14	2.570587374021052	0.467030515515996	-0.3992271847258281	0.8662577002418241	91.82041227120342
20	7.0	wm	180	diff_vonmises	0.2022481764792321	11.587966926477046	1.644789781134387	1.1023031620863075	0.2440875642226451	2.1340065164206843	0.0777917638899925	-0.2533730203424245	0.331164784232417	90.79189170800078
0	1.0	ltm	301	diff_vonmises	0.0256516471572569	1.4697311196695797	4.968876345591894	0.2890770904380451	4.152400434664666e-21	3.312576658919689	-0.2774185986941557	-0.5272008766018313	0.2497822779076756	61.26103777649331
1	1.0	perception	301	diff_vonmises	0.0039044686886598	0.2237095771011903	12.013642430407218	0.7315625376136251	0.0481201225469743	3.787190868224008	0.3684399809927514	-0.6146057911143762	0.9830457721071276	38.72272551545501
2	1.0	wm	301	diff_vonmises	0.0315406858679722	1.8071481831827283	4.919301083606907	0.4003638459781359	0.0302183975353698	3.5839773994424275	-0.2436132860362523	-0.5679379108195247	0.3243246247832724	59.58243236174005
3	2.0	ltm	301	diff_vonmises	-0.0500653959318869	-2.8685358865485635	3.235589797434852	0.705703922030428	0.1432914870570996	2.5057382251819083	0.0245378470986935	-0.3778375351575372	0.4023753822562308	69.80207321180114
4	2.0	perception	301	diff_vonmises	-0.022906372303333	-1.3124384569363448	7.18603732514429	1.2461210994795957	0.1717066750027646	3.147460379041348	0.7172262409279037	-0.5158221560041291	1.2330483969320327	49.15652966735516
5	2.0	wm	301	diff_vonmises	0.0441890711196839	2.5318472757613244	4.036544674204724	0.6672426836136193	0.1169386674764384	2.630945140055291	0.0464323313036697	-0.4086508275413529	0.4550831588450227	63.90142924209309
6	3.0	ltm	301	diff_vonmises	0.0110453029983402	0.6328492452480919	2.5303459596684363	0.922305588926514	0.2318940568077506	2.111887216577323	0.1292097462384097	-0.2904824294850475	0.4196921757234572	76.69262032334748
7	3.0	perception	301	diff_vonmises	-0.0104793558468817	-0.6004228620420656	4.13484064168918	2.0042782819025016	0.1951788297929639	3.192575165061495	0.957148806918076	-0.478232254919526	1.435381061837602	64.24443968668328
8	3.0	wm	301	diff_vonmises	-0.0390169973230554	-2.2355092758843056	2.8553586708345344	0.908222236268902	0.2105448200546647	2.2668594528204093	0.1378073220909752	-0.3243879286319642	0.4621952507229394	73.21757652857181
9	4.0	ltm	301	diff_vonmises	-0.0453027336114318	-2.595655436340502	1.783950634252689	1.116707944530859	0.1870805880615741	3.37179738371977	-0.1039491584968279	-0.4500730510811278	0.3461238925842998	85.95726940179236
10	4.0	perception	301	diff_vonmises	-0.0815410460928416	-4.6719577982015394	1.6661733541676484	4.7107201520141935	0.4517334143561651	6.84828536159042	0.5467348786000079	-0.6557573948721696	1.2024922734721777	86.25642897895159
11	4.0	wm	301	diff_vonmises	-0.0833145165855934	-4.773570172527204	0.7745516646717826	278.85149992077373	0.7636065986311307	281.2653096549821	-0.1333698153248548	-0.4884759574205262	0.3551061420956714	87.01246479024633
12	5.0	ltm	301	diff_vonmises	-0.0195146776819151	-1.1181086697318765	1.7933039582435215	1.0811491499474115	2.2941337301275377e-23	2.4292185856563173	0.1354043625195129	-0.3721660226030089	0.5075703851225218	102.09022311913463
13	5.0	perception	301	diff_vonmises	-0.0525296235172441	-3.0097257269492417	2.084739337835886	2.809356322113465	0.1973394099507848	4.06763518861152	0.7050524885703761	-0.5166535345643101	1.221706023134686	87.4476049160998
14	5.0	wm	301	diff_vonmises	-0.0092400640637768	-0.5294166732849134	0.6332979783586448	202.3877686746851	0.6200515475361779	203.8133763431625	0.1246152217949614	-0.3839043540643985	0.5085195758593599	106.26359477646024
15	6.0	ltm	301	diff_vonmises	-0.0610630302174647	-3.4986539157405456	1.130050312453957	1.1374847726628086	5.421134256446641e-17	2.3006639686388177	0.0503116932154512	-0.3227034599250759	0.3730151531405271	123.33571113600128
16	6.0	perception	301	diff_vonmises	-0.1035305812803655	-5.93186535790107	0.8274986605042337	2.72464431519343	1.8462929766125e-23	3.8547821122676	0.22812162087784	-0.4526783453945979	0.680799966272438	136.00820958021842
17	6.0	wm	301	diff_vonmises	-0.0780489823922811	-4.471877286368585	0.5124258917927561	209.1368586166498	0.5026165210476761	210.31228519406665	0.09325847838587	-0.3361952449116678	0.4294537232975379	118.32457195527267
18	7.0	ltm	301	diff_vonmises	0.0552064764145989	3.1630981003450387	0.7299059148901438	94.47053810829638	0.7010700670968085	96.14328767082247	0.0432032789346763	-0.3906754565884665	0.4338787355231428	96.47058609093688
19	7.0	perception	301	diff_vonmises	0.0037111523768102	0.2126333683211693	0.8085180787710496	412.1673532189104	0.7973044598467405	413.61520075701526	0.4437262532979531	-0.5010935235591631	0.9448197768571164	97.6835100106614
20	7.0	wm	301	diff_vonmises	0.0661911765979416	3.7924750600671584	1.3002307031527534	2.935545154326819	0.4988324554929824	4.575826933875223	0.0388601210977259	-0.3749828934246809	0.4138430145224069	87.2753115175133
0	1.0	ltm	468	diff_vonmises	-0.0109185230115159	-0.6255852870763339	6.759243049225411	0.2732703545031756	7.592060941624142e-23	3.802566002726441	-0.3274567909950894	-0.6051968018627925	0.277740010867703	52.35850782389432
1	1.0	perception	468	diff_vonmises	0.0059834383646632	0.3428257652718615	12.745974359282886	0.8084349139801176	0.0694461529445375	4.337114003027641	0.400442731411709	-0.7126113079145571	1.1130540393262662	37.46667413823613
2	1.0	wm	468	diff_vonmises	0.00880243998018	0.504342660281536	5.027552140164187	0.3560746958844145	0.0010903610542509	4.1306203336960365	-0.3485128762669448	-0.65688725940981	0.3083743831428651	60.74556944138848
3	2.0	ltm	468	diff_vonmises	-0.0186037921221889	-1.065918771540158	3.683291152669142	0.5091184382539792	0.0163328953795901	2.254129011589024	0.0094715426251571	-0.3543254288624572	0.3637969714876144	70.29913405238489
4	2.0	perception	468	diff_vonmises	-0.030382110676783	-1.7407667144790238	7.532080718513171	1.2990287875397004	0.24359156972089	3.0992940441576646	0.7768618394162019	-0.5206920562974302	1.297553895713632	47.64422092038427
5	2.0	wm	468	diff_vonmises	0.0071777999833388	0.4112576452343914	3.556525757214997	0.813837282373553	0.1518937289951441	2.832547734664637	0.064744963145905	-0.4316579873344339	0.496402950480339	66.92130257363303
6	3.0	ltm	468	diff_vonmises	0.0085781809291066	0.4914935631374203	3.3297562683748527	0.5820885276701505	0.0532643100782719	1.6125755892958065	0.1338419909111661	-0.2472440665265367	0.3810860574377028	72.85165775537487
7	3.0	perception	468	diff_vonmises	-0.007657704574963	-0.4387541529034067	4.058114250153521	2.1177326583800853	0.28044738363819	3.075565665078768	1.005508728196357	-0.4520629712831516	1.4575716994795087	64.01410494088935
8	3.0	wm	468	diff_vonmises	-0.0797396068897838	-4.568742934816916	3.486899886871734	0.7593710308775656	0.1254487300827165	2.01323448327714	0.1794433823978123	-0.3034990907183782	0.4829424731161905	69.26470411395411
9	4.0	ltm	468	diff_vonmises	-0.0753114235294651	-4.315026717360596	1.967986471095696	0.9792513670436004	0.0969010992528762	3.140517063756897	-0.0491359301443004	-0.449096357063913	0.3999604269196126	88.777668956432
10	4.0	perception	468	diff_vonmises	-0.0582177258280255	-3.3356299827956293	1.9524472977140572	3.8886217040716766	0.3980635930345751	5.805805824990514	0.6541420009808414	-0.63233894885671	1.2864809498375511	83.28025842459073
11	4.0	wm	468	diff_vonmises	-0.0805915837777861	-4.617557614742138	0.7483978804338361	314.2999763985316	0.7381872447014397	316.6636596808624	-0.0772842980981636	-0.496145078957646	0.4188607808594824	90.69578787911767
12	5.0	ltm	468	diff_vonmises	-0.0364189456189769	-2.086651878283841	1.5044025976421147	1.3548633791476672	0.0647427817638599	2.7731356792875657	0.117519804340662	-0.384242144877817	0.501761949218479	105.3436966013434
13	5.0	perception	468	diff_vonmises	-0.0134715478403639	-0.771862834761432	1.976297527937068	2.9438367038021807	0.198880222746327	4.258267869118334	0.6890177843950683	-0.5318859114403816	1.22090369583545	89.3832306946689
14	5.0	wm	468	diff_vonmises	-0.0242032500659342	-1.386744079277764	0.5747594249687147	186.5325785754204	0.5598681264994321	188.0765923723428	0.1255772885337123	-0.425137613278931	0.5507149018126434	111.7829271315159
15	6.0	ltm	468	diff_vonmises	-0.0767482919975974	-4.397353216300001	0.8465213845192083	2.012697030086933	0.0818248477944433	3.2359399091312584	0.0710143174480082	-0.3580440425446469	0.4290583599926552	128.6697691649004
16	6.0	perception	468	diff_vonmises	-0.0266286130575662	-1.525707142485503	0.8237947014109137	3.252757728508647	3.6982759477697923e-22	4.453262245744755	0.2936742846112159	-0.5157660010589609	0.8094402856701768	136.28106719803085
17	6.0	wm	468	diff_vonmises	-0.0795175913953302	-4.556022383998212	0.4174962590788061	278.59934487907805	0.4089671476167674	279.92970583373574	0.1313538018868882	-0.4233055940065178	0.5546593958934061	129.83108469225266
18	7.0	ltm	468	diff_vonmises	0.1119299496872286	6.413113718189851	0.7031592083770036	183.6257342904727	0.6900064171357364	185.13541334605927	0.0335368828972661	-0.351473746995083	0.3850106298923492	97.6562523941558
19	7.0	perception	468	diff_vonmises	0.0674712921216303	3.8658202768636993	0.7448597819119354	262.4267905752832	0.7299654355808594	263.7402861854222	0.3646876812616568	-0.4506635466864743	0.8153512279481312	101.66758055146974
20	7.0	wm	468	diff_vonmises	0.0897952296406834	5.144887678819195	0.7759064145806184	205.0631604198269	0.7633741633641665	206.65108051489904	0.0196762507883434	-0.3601164472439642	0.3797926980323076	92.09858137073677
0	1.0	ltm	157	diff_vonmises	-0.0636295927805957	-3.645707118464231	2.210547724762204	0.4246982702667731	1.4866818172532682e-18	2.8588530882979235	-0.2223209298918166	-0.4522033086559129	0.2298823787640963	92.4489380323125
1	1.0	perception	157	diff_vonmises	-0.0140702190301731	-0.8061641672535735	12.672394008080904	0.788057065514329	0.0182516004423959	3.32911023559148	0.5680764874732818	-0.5331675149829983	1.10124400245628	37.94810182015806
2	1.0	wm	157	diff_vonmises	0.0432841635746861	2.4799998925834057	4.146009351109436	0.3997850543698573	3.2050735252175056e-22	2.9263040854805014	-0.1523421546919909	-0.4656572296628518	0.3133150749708608	67.21786565207495
3	2.0	ltm	157	diff_vonmises	-0.0321755162204902	-1.8435212830888128	3.9178745043944736	0.4860012992492474	0.0330188349397929	1.9717896089360751	0.0451802498714219	-0.3084003370952466	0.3535805869666685	67.5133225447843
4	2.0	perception	157	diff_vonmises	-0.0262644123248532	-1.5048399776054722	7.266191577011742	1.3033894316153565	0.1724167235722705	2.729904940222861	0.8630105539536592	-0.4459450000784024	1.3089555540320617	49.11634826834271
5	2.0	wm	157	diff_vonmises	0.023500746858621	1.3464936104043144	4.160948015795512	0.5753399892143899	0.0749126969701298	2.138379430350629	0.0856320626449258	-0.3328728335470702	0.418504896191996	64.36698322220658
6	3.0	ltm	157	diff_vonmises	0.0122465537766621	0.7016758449827376	3.013043783670347	0.5508778256543707	3.908521524587456e-06	1.3135513648416604	0.1526209616374209	-0.2081838747234222	0.3608048363608431	79.16107438052612
7	3.0	perception	157	diff_vonmises	-0.0072785159245343	-0.4170282435945802	3.889532985237993	2.0651194129527184	0.2334181879813926	2.7109189403456315	1.0259481538247262	-0.3943923767723544	1.4203405305970809	66.098293289244
8	3.0	wm	157	diff_vonmises	-0.1075731288808904	-6.163486273891887	3.1142119371175063	0.8080232055318195	0.2065978758330598	1.6338709751403966	0.2242415135643074	-0.2344635870781691	0.4587051006424766	71.83276671116104
9	4.0	ltm	157	diff_vonmises	-0.0885009615948143	-5.070731582232248	2.736291353260377	0.659111964522135	0.1692740634355327	2.380537963507044	-0.0360937402718089	-0.3498603157166072	0.3137665754447983	73.45602468730013
10	4.0	perception	157	diff_vonmises	-0.0917539142855189	-5.257112042365348	1.8171633087149	4.413578539979541	0.4721147143923083	6.089919132466678	0.6773001906060601	-0.5939410689586897	1.2712412595647498	84.22651722695943
11	4.0	wm	157	diff_vonmises	-0.0897647214186374	-5.14313968645551	0.9106095512781556	254.62747131850415	0.8992303086158496	256.5090391624978	-0.0552374213007169	-0.403516975173158	0.348279553872441	82.06842904775411
12	5.0	ltm	157	diff_vonmises	-0.0337380691756491	-1.9330489726851103	1.457521860712991	1.03490002776976	1.4424284563598636e-13	2.0759123245390123	0.1101537544223432	-0.3065133644605796	0.4166671188829229	111.79542399750665
13	5.0	perception	157	diff_vonmises	-0.0285616549372258	-1.6364622838120315	2.127088575093945	2.585916711445477	0.1645638790863898	3.428316797252726	0.7455387022387179	-0.4457619310819605	1.1913006333206784	88.23710226152707
14	5.0	wm	157	diff_vonmises	0.0110089922964964	0.6307687952812819	0.5820512269278152	152.3952926508027	0.5677996684070146	153.4959877439951	0.1243860791981816	-0.3207704030079537	0.4451564822061353	112.0898782316328
15	6.0	ltm	157	diff_vonmises	-0.0913445057442077	-5.233654660851608	0.3835207635612824	120.61123801112844	0.372467842076674	121.55880258550108	0.031885788549463	-0.2667878282842064	0.2986736168336694	132.3918916813926
16	6.0	perception	157	diff_vonmises	-0.0786951562834762	-4.508900323165608	0.3571124138226524	217.61864891008057	0.3447458639630925	218.4998996617978	0.2958316337408604	-0.4394837159290503	0.7353153496699107	139.35431859706677
17	6.0	wm	157	diff_vonmises	-0.072313953482952	-4.143284334478512	0.4574806088700007	184.95811085215576	0.4473953225484444	185.95042733211903	0.1107085662740985	-0.3152366536086077	0.4259452198827063	125.54566518232832
18	7.0	ltm	157	diff_vonmises	0.1759896935291053	10.083466677018553	0.7623750569383362	50.87420050110916	0.7192665550659764	52.11148601091558	0.0619461564232235	-0.3002368336373049	0.3621829900605284	95.85852725489369
19	7.0	perception	157	diff_vonmises	0.0555075416487058	3.180347867617486	0.8392811249727368	277.3115772195437	0.8243769247398989	278.3855310198585	0.4578890429201721	-0.4214881723129338	0.8793772152331059	97.12858741984846
20	7.0	wm	157	diff_vonmises	0.0568419025854671	3.2568011176410274	0.7538598166064414	71.51146984361677	0.7241950501106891	72.77537477999994	0.0393781441524403	-0.296914716048029	0.3362928602004693	95.1012530827918
0	1.0	ltm	36	diff_vonmises	-0.0441448069225225	-2.5293111240804413	3.97966044009361	0.3613882576323632	3.4396518832574773e-20	2.7871634255549127	-0.1665444747542918	-0.4434940130656367	0.2769495383113448	68.6458962281684
1	1.0	perception	36	diff_vonmises	-0.0246201688817362	-1.4106317678228102	13.134675131916364	0.7486640835326255	0.0174486244821962	3.298727330400325	0.5372007262633308	-0.528329447337366	1.0655301736006968	37.28107666006193
2	1.0	wm	36	diff_vonmises	0.0200941852570382	1.1513120079822947	4.731919066678183	0.4100125883280609	4.2660463145304895e-18	2.974199883348364	-0.1281453126883293	-0.4733318209290563	0.345186508240727	62.80781863705832
3	2.0	ltm	36	diff_vonmises	-0.0515764026708461	-2.955110195506752	3.1065690281399245	0.7318713135624199	0.192429505413779	2.0950570367604	0.0884742466331681	-0.3085385688107267	0.3970128154438948	70.51694856197739
4	2.0	perception	36	diff_vonmises	-0.0322673235460633	-1.848781455372536	7.047722646188411	1.2557654795272055	0.1957685592380068	2.592021129229905	0.8076261282984877	-0.4242770017903313	1.231903130088819	49.67968866730908
5	2.0	wm	36	diff_vonmises	0.0119712345763402	0.685901216785379	3.993133111354117	0.6643247019629329	0.1408102026264837	2.112061149753857	0.1252011029871891	-0.3253644865227253	0.4505655895099145	64.27566646070619
6	3.0	ltm	36	diff_vonmises	-0.013884966994273	-0.7955500074502927	2.5850734821094243	0.8082897757684683	0.1667387076168476	1.6428732082277313	0.1790216453869429	-0.2301575995236875	0.4091792449106305	78.84840743670134
7	3.0	perception	36	diff_vonmises	-0.0176182315408474	-1.0094503097748266	3.98227784325317	2.0321233440858397	0.2501196394790342	2.772237778619885	1.000788265574088	-0.4053959919272889	1.406184257501377	65.08873516153577
8	3.0	wm	36	diff_vonmises	-0.088300114866029	-5.059223912343843	2.7184150022184013	1.0494672058754235	0.3324151591906489	1.9607128292311045	0.2261619288010961	-0.2612067717349214	0.4873687005360175	73.42476472161383
9	4.0	ltm	36	diff_vonmises	-0.1370042604692469	-7.849765900198873	2.3820674070552865	0.9302220852037064	0.2091557716605327	2.521866009238084	0.0434574377752632	-0.350331169198277	0.3937886069735403	77.9198957226132
10	4.0	perception	36	diff_vonmises	-0.0920470879884516	-5.273909658207613	1.9822387405411517	3.5828123342450864	0.3662424347777897	5.133661108452752	0.6984550889039869	-0.568707320080854	1.267162408984841	84.23407578494272
11	4.0	wm	36	diff_vonmises	-0.1233155279467051	-7.065459299773759	0.955328027730558	297.1690013496182	0.9445607401879283	298.92850042186865	0.0249003033110994	-0.4038190539073056	0.4287193572184051	82.53158632195283
12	5.0	ltm	36	diff_vonmises	-0.0334262774015914	-1.9151846199447105	1.3567193683512204	1.3997083579562863	0.0503573185205512	2.319859518428162	0.1826535874773734	-0.3130203722106544	0.4956739596880278	111.819670141168
13	5.0	perception	36	diff_vonmises	-0.0307288399419519	-1.760632838006878	1.9932477070040235	2.704534794693941	0.2061797514614034	3.4504352871088635	0.7245773368424432	-0.4233656306718438	1.147942967514287	89.70163171213338
14	5.0	wm	36	diff_vonmises	-0.0076440905136694	-0.437974124649251	0.6513297836143372	185.3659374319318	0.6386482181228996	186.2905835059638	0.1942827482527818	-0.3034340345481592	0.497716782800941	107.82444340947336
15	6.0	ltm	36	diff_vonmises	-0.0808382503118221	-4.631690566089517	0.385822334495339	101.5449664001636	0.3713495478788575	102.29867027812664	0.1002598517509625	-0.2633075433438705	0.363567395094833	134.53494779509606
16	6.0	perception	36	diff_vonmises	-0.0556775491611085	-3.1900885805636765	0.6491684132739338	6.1116432937924	0.2243274895728856	6.838653288705807	0.334836422253816	-0.400243550869401	0.735079973123217	131.50179692924763
17	6.0	wm	36	diff_vonmises	-0.0955286275255872	-5.473387179893414	0.4846601868619128	183.7339564560913	0.4740658822084682	184.48321635509103	0.1813380211270328	-0.2937258697211327	0.4750638908481654	124.699228387645
18	7.0	ltm	36	diff_vonmises	0.1044490565095463	5.984490112120443	0.7615090741358872	92.7546046630668	0.735402402148508	93.90287583113177	0.1277483719664012	-0.3078570365167259	0.4356054084831271	97.5280857437166
19	7.0	perception	36	diff_vonmises	0.0300063788763417	1.719238868084885	0.8504753028591192	243.3826508723918	0.833444686208411	244.3632518019953	0.4870507133456243	-0.4119909144428497	0.8990416277884741	97.05947658982645
20	7.0	wm	36	diff_vonmises	0.0947790949955085	5.43044212931214	0.7959062782542778	79.6961037855557	0.7670627534701373	80.81102838877803	0.1074306811162593	-0.2897818176291853	0.3972124987454446	94.89376201171578
0	1.0	ltm	376	diff_vonmises	-0.0025099162707209	-0.143807609243525	6.447874730478192	0.3975025828154333	0.0484305728678134	3.5480588713377017	-0.1981519972940326	-0.5682973014787582	0.3701453041847256	51.80571900147677
1	1.0	perception	376	diff_vonmises	-0.0176368790910774	-1.0105187357012666	13.014860046579743	0.7192144694799838	0.0525652789911583	3.911843539780245	0.3690688192352166	-0.637494869399689	1.0065636886349056	37.18186767382315
2	1.0	wm	376	diff_vonmises	-0.0171444114963626	-0.9823024209771488	4.3524419344464205	0.597385560904274	0.1141036974269631	4.044923214248572	-0.2383785336838898	-0.6418949083530275	0.4035163746691377	60.04328601790226
3	2.0	ltm	376	diff_vonmises	-0.0768040292948352	-4.400546728193194	2.4666039396549504	1.2184908566270507	0.3531029510464458	2.81976910070079	0.0930647264258979	-0.3746715982947877	0.4677363247206856	73.45425056645482
4	2.0	perception	376	diff_vonmises	-0.0422790103207588	-2.4224088533695296	7.116292468723623	1.1700284280525222	0.2031966863612251	2.894648977302246	0.6627499987547946	-0.4777758264404206	1.140525825195215	49.16411647199666
5	2.0	wm	376	diff_vonmises	0.0004818708673313	0.0276091669683931	3.620359641974378	0.8535581346677211	0.204030615483771	2.6421901365936096	0.1108972417220272	-0.400862393036881	0.5117596347589082	65.55912794636441
6	3.0	ltm	376	diff_vonmises	-0.0344468915043606	-1.9736615005449156	2.0430394216890795	1.6626353059303258	0.4319487976175905	2.9231654492456896	0.1845382399510301	-0.3336864159817647	0.5182246559327949	78.88311537941857
7	3.0	perception	376	diff_vonmises	-0.0281737706014707	-1.614238148434027	4.178975464121655	2.049345505683441	0.2642165541889019	3.2740703577981973	0.9465308315141144	-0.4885489958070688	1.435079827321183	63.07692425781647
8	3.0	wm	376	diff_vonmises	-0.0363570929333775	-2.0831079804474424	2.3865636975071016	1.389165733547142	0.372113844484033	2.834010957118457	0.1643073222334569	-0.362815154492369	0.527122476725826	75.04745845946701
9	4.0	ltm	376	diff_vonmises	-0.1357580236303982	-7.778361789059119	1.747422112988852	1.6341299986351234	0.2114009724442483	3.6115447247206953	0.0744370046161916	-0.4552139174019959	0.5296509220181875	89.0089520066354
10	4.0	perception	376	diff_vonmises	-0.0784424080335491	-4.494418915165468	2.0500254460152645	3.1320972740988173	0.2685851543769345	5.021491482527456	0.6131358376897853	-0.6120242632337588	1.225160100923544	84.96791195457632
11	4.0	wm	376	diff_vonmises	-0.151129225626997	-8.659066789507293	0.8566451745544492	312.3590289452171	0.8450288992786058	314.4946528156661	0.0255038371761173	-0.4839742291062947	0.5094780662824121	87.3333929670034
12	5.0	ltm	376	diff_vonmises	-0.0278679948527121	-1.59671848855271	1.5698974215437609	1.6386403624497308	0.0451686937987505	2.697580718156356	0.2807019859130821	-0.3785736335057782	0.6592756194188603	105.64259408756809
13	5.0	perception	376	diff_vonmises	-0.0474418296157111	-2.718216609359008	2.002322759794473	2.783486438516368	0.2026183188757565	3.7496156115190025	0.713570796900035	-0.4650058427784204	1.1785766396784554	89.27141808227549
14	5.0	wm	376	diff_vonmises	-0.0481624004207254	-2.759502275326671	0.729759629479923	237.3523494719895	0.7173993504941603	238.38947885024257	0.2611056958766937	-0.3459536616563348	0.6070593575330285	102.28565862693202
15	6.0	ltm	376	diff_vonmises	-0.0510979814201228	-2.927698677010936	0.9706350306267072	1.6037906746915018	1.1465756568456782e-19	2.282948816803864	0.1757690196432427	-0.2859683342149478	0.4617373538581905	129.79851297789685
16	6.0	perception	376	diff_vonmises	-0.0454328021474091	-2.603107814499445	0.9858092294673712	2.261228345773521	2.2666333757610594e-14	2.9873065608867244	0.2911487191180785	-0.368705745801594	0.6598544649196725	129.16572400695242
17	6.0	wm	376	diff_vonmises	-0.1256734434493089	-7.200557906521426	0.5181758423760958	187.9862383676347	0.5075171929712687	188.620243392331	0.2178961875431611	-0.2804507778919785	0.4983469654351395	122.22948556108452
18	7.0	ltm	376	diff_vonmises	-0.0023427816601952	-0.1342315014498372	0.713042956338911	208.34453393285867	0.6994860469017661	209.53962549299692	0.1985429573079571	-0.3545482226661782	0.5530911799741354	101.97208338452435
19	7.0	perception	376	diff_vonmises	-0.0211558171956335	-1.2121390374600949	0.8211757863487242	306.4350674346125	0.8078139173258004	307.41469071201067	0.4829104593210047	-0.4150335170442574	0.8979439763652621	98.6810131377274
20	7.0	wm	376	diff_vonmises	0.1064069390309883	6.096668517381503	0.9037866681335815	79.42392863012866	0.8686517197048431	80.52923349767212	0.1817017076059457	-0.312163640248321	0.4938653478542667	90.5577473358627
0	1.0	ltm	422	diff_vonmises	-0.0310536180099557	-1.7792412505819055	5.465764996644678	0.3654782740420906	1.0242316311919785e-18	2.7825971501582383	-0.1106060749005402	-0.4428581480561755	0.3322520731556353	58.34163791453622
1	1.0	perception	422	diff_vonmises	-0.0357070348040193	-2.0458623931970488	13.696424109111442	0.710164196331542	0.0170698624945472	3.268816513034419	0.50943691868462	-0.5236710978021772	1.0331080164867972	36.49898765291857
2	1.0	wm	422	diff_vonmises	-0.000992351835881	-0.0568575719880455	5.108722165334799	0.436108751887317	0.0063034643174272	3.0373153124730616	-0.1039333292697631	-0.481994826466422	0.3780614971966589	59.96657519906731
3	2.0	ltm	422	diff_vonmises	-0.063469811743584	-3.636552339397233	2.5042943865720915	1.1334100044270623	0.3935458008387044	2.3791963526771127	0.1284885195748297	-0.3098347082524058	0.4383232278272355	72.95448336363879
4	2.0	perception	422	diff_vonmises	-0.0383347423788724	-2.196418947030686	6.847038932279359	1.2053293714768605	0.2193666476572795	2.4521529087614176	0.753248917089506	-0.4020363086873778	1.1552852257768838	50.21346673606817
5	2.0	wm	422	diff_vonmises	0.0025587492569499	0.1466055332554685	3.843059912675233	0.7533298980899393	0.2093090852952892	2.090125237495585	0.1609966359658629	-0.3181742160781178	0.4791708520439807	64.3166792616201
6	3.0	ltm	422	diff_vonmises	-0.0377546605749038	-2.163182707890952	2.1783046500192	1.278499884079831	0.3703184309233527	2.1814115388279545	0.2083600098476443	-0.2608184333389496	0.4691784431865939	79.44690682460913
7	3.0	perception	422	diff_vonmises	-0.0278537426908362	-1.59590189982828	4.0644464227238295	2.007966724019401	0.2696741942894951	2.841632495945387	0.9755736943966812	-0.4175483215090972	1.3931220159057782	64.16802000405355
8	3.0	wm	422	diff_vonmises	-0.0702484250490537	-4.024938272751873	2.308806722466336	1.483189340582249	0.488441179834378	2.4830090596022365	0.2266847178810318	-0.2898633855139073	0.5165481033949392	75.03161541155512
9	4.0	ltm	422	diff_vonmises	-0.1674203339036698	-9.592478537351289	2.1590259312013367	1.2582977856409503	0.2630581532529324	2.7185938079785825	0.1264534345768607	-0.3525755571474304	0.4790289917242912	80.71784788652232
10	4.0	perception	422	diff_vonmises	-0.0925310028215846	-5.301635935789911	2.128591815650807	3.06455130543159	0.2738936821450721	4.493434356057791	0.7183255728762649	-0.5457561757034541	1.2640817485797191	84.33408861596172
11	4.0	wm	422	diff_vonmises	-0.1460382655671039	-8.367376264405749	0.9971315328945712	347.21730707740994	0.9870760399936568	348.85664379992124	0.1047387861189719	-0.4045923652276428	0.5093311513466148	82.68726137062282
12	5.0	ltm	422	diff_vonmises	-0.0339074659938203	-1.942754695429268	1.055165350787906	2.73582966579961	0.243141052413633	3.516856459346231	0.2599840341779963	-0.3157441012890464	0.5757281354670427	112.2967789646475
13	5.0	perception	422	diff_vonmises	-0.0326904938839577	-1.8730273297490116	1.857220797048328	2.870428534414594	0.2555748557249525	3.525053178900289	0.7030795979074468	-0.4014300073851202	1.104509605292567	91.15692213407584
14	5.0	wm	422	diff_vonmises	-0.0228758331075588	-1.3106886899087578	0.7166333859862271	208.49700175904263	0.7045983884215182	209.2461193973912	0.2646438771050867	-0.2872546415266974	0.5518985186317842	104.53999349236312
15	6.0	ltm	422	diff_vonmises	-0.0730409453923833	-4.184937902629083	0.5249290358529968	5.4541821209012005	0.2422245785685886	6.009921142055213	0.1702264776292885	-0.2599433485716837	0.4301698262009722	136.04065328477674
16	6.0	perception	422	diff_vonmises	-0.0321876449008414	-1.8442162052839983	1.08728453565577	2.423542664880394	0.0296263873448019	3.0051342342881475	0.3754402161482478	-0.3655635281124865	0.7410037442607342	123.42201352948604
17	6.0	wm	422	diff_vonmises	-0.1144526957546991	-6.5576564206391375	0.5127344385706031	151.18741923313547	0.4994006138767317	151.6959395679782	0.2516979154328851	-0.2723414677294951	0.5240393831623802	123.86630458751505
18	7.0	ltm	422	diff_vonmises	0.0416067160782863	2.383889230684912	0.7548826552200844	144.06944994309657	0.7365368957690772	145.10270768247884	0.203276098834678	-0.3158197790270645	0.5190958778617425	99.76601394165668
19	7.0	perception	422	diff_vonmises	0.0048751704525088	0.2793266913356415	0.8610930089120122	236.29519681059688	0.843499315581211	237.1787715841288	0.5175813554472626	-0.4022392391945004	0.919820594641763	97.00168844367118
20	7.0	wm	422	diff_vonmises	0.124684502969184	7.143895790820628	0.8538683005910873	41.86452005092294	0.7951335211090702	42.81736899865862	0.1809833324799488	-0.2815964138872835	0.4625797463672323	94.5701428978555
0	1.0	ltm	13	diff_vonmises	0.0112883916096759	0.646777196725319	6.473001878394905	0.1758452168053041	0.0044838779380815	2.2203658380190814	-0.1802409791916843	-0.3531116413107542	0.1728706621190698	53.18074431843297
1	1.0	perception	13	diff_vonmises	-0.0016526944197239	-0.0946924150750045	12.437426134851686	0.6945612266884749	0.0844910765045812	2.913965896301723	0.4632282865157879	-0.4813914960973164	0.9446197826131044	37.92671021279645
2	1.0	wm	13	diff_vonmises	0.0355212526449231	2.035217859572008	6.09131395099566	0.2687502124283671	0.0032022282238701	2.50112672032274	-0.1406453318251647	-0.397641160184119	0.2569958283589542	54.98148572490689
3	2.0	ltm	13	diff_vonmises	0.0383833476298215	2.1992038227722466	3.947258653315058	0.4823574218208911	0.1798828501667732	1.5920061381109047	0.0673044199215588	-0.2454105535628838	0.3127149734844427	63.53677073439468
4	2.0	perception	13	diff_vonmises	-0.0036304185205434	-0.2080076590932681	7.406080925198036	1.3231128018350256	0.4208773981563949	2.510120836557056	0.8279990717888248	-0.4382017645745073	1.266200836363332	47.30873502327208
5	2.0	wm	13	diff_vonmises	0.0771809558456778	4.422143028742899	4.336273169717542	0.5148775974187865	0.1832790573574746	1.8608847752731552	0.06079111809258	-0.2917797700423747	0.3525708881349547	60.645452537943015
6	3.0	ltm	13	diff_vonmises	0.1085416344165149	6.218977553518231	1.8873960078670973	2.6235430509598063	1.142552658299641	3.2614301327311424	0.104972986828925	-0.1931305662730579	0.298103553101983	68.59633168589536
7	3.0	perception	13	diff_vonmises	-0.001120864845731	-0.064220825064972	5.277487182278989	1.691532464184211	0.3597665233524802	2.372329222764202	0.9855715839406988	-0.3712646943590252	1.356836278299724	56.2610245499416
8	3.0	wm	13	diff_vonmises	0.0197377310664209	1.1308886872701722	4.108475672244396	0.4965252337311222	0.287220721410149	1.4456784073853783	0.0869477697508741	-0.2244374239778547	0.3113851937287288	60.84484377728441
9	4.0	ltm	13	diff_vonmises	-0.0917240361357789	-5.255400150485587	1.0324704844127957	167.37699168190338	1.0178062455949397	168.8280428155481	-0.0374726637405373	-0.3205785273340602	0.2831058635935228	77.1741068004724
10	4.0	perception	13	diff_vonmises	-0.049313531801313	-2.8254572450994084	2.732825714752997	2.015963492474975	0.1944300210496749	3.532631883630334	0.5749656203517008	-0.4895812687625698	1.0645468891142706	76.97116478655522
11	4.0	wm	13	diff_vonmises	-0.0819298443735478	-4.694234298767946	1.0460265571417844	294.4424565659202	1.0356369004734998	296.1754710747692	-0.0273640370045455	-0.3891172932405382	0.3617532562359926	77.16179623645772
12	5.0	ltm	13	diff_vonmises	0.0337017702603095	1.930969198035249	2.150233213229124	0.9597683721928814	0.1460881317806198	1.807682586745557	0.1860212148493276	-0.2456262989987641	0.4316475138480917	86.47519778547726
13	5.0	perception	13	diff_vonmises	-0.0484259871544595	-2.7746046827052684	2.383246558505575	2.173490644265347	0.1682312105311662	2.9514650845867685	0.6934373208125375	-0.3942549564662924	1.0876922772788298	83.67125166659491
14	5.0	wm	13	diff_vonmises	0.0932620448806406	5.343521560420377	1.8594414032288176	1.003032254481187	2.1245967319662887e-18	1.9702981206513863	0.1814932200121793	-0.3015708176452534	0.4830640376574328	100.38127656121398
15	6.0	ltm	13	diff_vonmises	-0.1165977750593632	-6.6805604115172486	0.5658325946351883	115.31680559467532	0.5501231748636198	115.97258977183402	0.1733252915753453	-0.2498659099339217	0.4231912015092671	116.92413516739896
16	6.0	perception	13	diff_vonmises	-0.0682928716610749	-3.912893317008179	1.0747422463762812	2.980553019442133	0.2172664936688894	3.760149910759014	0.3255031954821813	-0.3523529929710735	0.6778561884532548	113.43947732835704
17	6.0	wm	13	diff_vonmises	-0.0353745894299483	-2.026814676344136	0.5142766094733396	112.21736842058458	0.4967964546369968	112.92232313484962	0.1934191418640303	-0.2844018060610462	0.4778209479250765	122.35941365878853
18	7.0	ltm	13	diff_vonmises	0.0484937826515002	2.778489078555693	0.961157249023199	249.7578886547468	0.949974836442798	251.00531885936743	0.115746040735118	-0.3190984322861858	0.4348444730213039	85.26909065019214
19	7.0	perception	13	diff_vonmises	-0.0708957816573922	-4.0620290742495735	1.81689284822034	1.9380216168300988	0.0756676855930811	3.080100386935797	0.4152429749104817	-0.4289222260631258	0.8441652009736076	97.53977927289012
20	7.0	wm	13	diff_vonmises	0.1889794207554764	10.827723224115791	1.6944233411807357	1.2046209349430543	0.2898937461678607	2.427082936630663	0.056396519266591	-0.2847669532680328	0.3411634725346239	87.07273143406957
0	1.0	ltm	232	diff_vonmises	-0.0589452115984835	-3.377311847098694	6.39792480029011	0.4413523388166827	0.0383910742877912	2.9635001778312864	-0.0540648979749988	-0.4725174810979815	0.4184525831229827	52.61996694335829
1	1.0	perception	232	diff_vonmises	-0.0467223110175062	-2.6769912304006938	13.949709301589817	0.834408163961342	0.0505635429832331	3.478747356459848	0.6494910642315099	-0.5666094227981756	1.2161004870296854	36.018147594315025
2	1.0	wm	232	diff_vonmises	-0.0503635681739973	-2.8856198975894443	7.473012331807283	0.4444868123562114	0.0468469850538435	3.2374607959206405	-0.0636034981718295	-0.5198104657170457	0.4562069675452161	48.57494293736332
3	2.0	ltm	232	diff_vonmises	-0.1620098656565867	-9.282481541603882	2.562746358431028	1.242139220544855	0.3826827844748232	2.514557362522878	0.1768901296268874	-0.3286816162044279	0.5055717458313154	73.05377002413832
4	2.0	perception	232	diff_vonmises	-0.073773649980746	-4.226918783172134	7.681712207913224	1.114866131266138	0.1589076784577033	2.479313438808949	0.7515849908582389	-0.4063315798118559	1.157916570670095	47.85243170562606
5	2.0	wm	232	diff_vonmises	-0.0611146699455146	-3.501612654213008	3.438452578415526	0.8856761043241668	0.2354588259601624	2.242041492280649	0.1809968028795046	-0.3322157139850871	0.5132125168645917	67.21988479331765
6	3.0	ltm	232	diff_vonmises	-0.1025756260208704	-5.877150451908182	1.0391412156927309	39.57658800888411	0.9738070338649376	40.26018383313652	0.2586376997567878	-0.2443263036054772	0.5029640033622651	87.66823104636401
7	3.0	perception	232	diff_vonmises	-0.044481874229988	-2.5486236582100545	3.702194760514836	2.2135722016068446	0.4245444274963165	2.81163598305484	0.9766642868941536	-0.388775343749639	1.3654396306437926	65.50058206768799
8	3.0	wm	232	diff_vonmises	-0.1096467493491516	-6.282295975035195	1.378931870026827	13.577808988085224	1.1580502231393368	14.300174524414269	0.2795586436896276	-0.2602839844027256	0.5398426280923532	77.78461446073015
9	4.0	ltm	232	diff_vonmises	-0.1959093603361746	-11.224779514370455	1.7853312248424873	2.132765304640485	0.4461706517212337	3.267535977034613	0.2534990285556076	-0.3325926122099532	0.5860916407655608	83.8117842495233
10	4.0	perception	232	diff_vonmises	-0.1148429979684288	-6.580019090220458	2.2977701906766392	2.96003606007779	0.318583221301097	4.150151218416835	0.7738488782072319	-0.5017067745033585	1.2755556527105905	81.0312481475888
11	4.0	wm	232	diff_vonmises	-0.2187897900329558	-12.535731569441811	1.058037334539656	277.9559923628564	1.0466162088360895	279.20276718439226	0.160499443448117	-0.3362418685599024	0.4967413120080195	81.98422938688985
12	5.0	ltm	232	diff_vonmises	-0.0355226810178769	-2.0352996993138333	0.8977084846731179	4.01690969895884	0.2944324967154449	4.5875875118896765	0.3353863156325498	-0.3173412520909621	0.6527275677235119	117.22268767775854
13	5.0	perception	232	diff_vonmises	-0.0375680618807444	-2.152491390252968	2.4774832338086425	2.1024160336266418	0.0326439041023565	2.536268812092711	0.8155554455222132	-0.3819042330426524	1.1974596785648657	86.36425031712525
14	5.0	wm	232	diff_vonmises	-0.0946164158111032	-5.421121298631088	0.8016218026657573	210.9316643372842	0.790086330640482	211.44518429357217	0.3096904058785412	-0.2441832978265417	0.5538737037050829	100.51229744369395
15	6.0	ltm	232	diff_vonmises	-0.0512376321525205	-2.935700074583236	0.7312525342060127	1.6466852129463383	6.970099616711591e-19	1.9303444114877424	0.1711685727815718	-0.1964016426007403	0.3675702153823122	140.5774049112935
16	6.0	perception	232	diff_vonmises	-0.0464041745345983	-2.6587633526209364	0.645571884760484	2.951365823823019	8.947503986908174e-14	3.276546338162948	0.2877736265900087	-0.2989646159438946	0.5867382425339034	144.74922612620412
17	6.0	wm	232	diff_vonmises	-0.2368842831885232	-13.572469659684185	0.5548769155068793	112.02817091364592	0.541131182865398	112.22522655836605	0.239613427580295	-0.1833773836245278	0.4229908112048228	121.58009290955256
18	7.0	ltm	232	diff_vonmises	0.1182833400917912	6.777136173970203	1.1159536073833554	2.3332897654764126	0.3339159787529596	2.691634404267717	0.2663134187529192	-0.207366405718819	0.4736798244717383	107.64044754555962
19	7.0	perception	232	diff_vonmises	-0.0261840053071553	-1.5002329948481528	0.970134765496373	193.67225598864368	0.9553052776565886	193.8360438066798	0.4902988142982849	-0.2248773383392084	0.7151761526374933	94.59863371842287
20	7.0	wm	232	diff_vonmises	0.1251576996492242	7.171007963466533	0.9673799343558076	37.62794330886043	0.9208946918017458	37.906002321443935	0.241447195588595	-0.1530222187975694	0.3944694143861644	93.23960692441447
0	1.0	ltm	353	diff_vonmises	-0.039998204710143	-2.2917283179914896	6.507771503436273	0.3148006578731858	0.0448998447506955	2.51691887219557	-0.1050745833640848	-0.4025495919247844	0.2974750085606995	51.83005284907517
1	1.0	perception	353	diff_vonmises	-0.0368879847014532	-2.113525838136419	14.330465454392815	0.7064819869946958	0.0657374547319455	3.053264281747399	0.5388993191088524	-0.5017241572131405	1.0406234763219928	35.460508565753145
2	1.0	wm	353	diff_vonmises	-0.0185120774653598	-1.060663908784357	6.1841005239851565	0.3873414018966556	0.0649525977486294	2.8563824421858794	-0.1087812747219129	-0.4581094916606047	0.3493282169386917	52.65278623749717
3	2.0	ltm	353	diff_vonmises	-0.0966532303747314	-5.537822176777762	3.285572715510371	0.7075190105345014	0.2194490314954988	1.899254747302448	0.115849614747421	-0.2804952703450394	0.3963448850924605	68.55485483455612
4	2.0	perception	353	diff_vonmises	-0.0440300129409714	-2.5227339134240614	7.921348459456856	1.1118163802905645	0.263792495899909	2.44658679040675	0.7288411619855149	-0.4152430677758223	1.1440842297613372	46.53826868252364
5	2.0	wm	353	diff_vonmises	-0.0078070277162249	-0.4473097386813449	3.8896138464146	0.6732045091403259	0.2209671689995538	2.0550516124228486	0.106663026184952	-0.3153178731480679	0.4219808993330199	63.337081583091305
6	3.0	ltm	353	diff_vonmises	-0.0047218420871381	-0.2705416231202581	1.329755748037278	116.94058346404093	1.307015403194851	117.67754815588296	0.1879628540285196	-0.2366193017232429	0.4245821557517626	74.8126041724708
7	3.0	perception	353	diff_vonmises	-0.0339343306265524	-1.9442939255029856	4.305135238467968	2.020398670112796	0.4294729721534925	2.7660938032775464	0.9704568584817383	-0.4070984068544973	1.3775552653362355	61.03040381995257
8	3.0	wm	353	diff_vonmises	-0.0552744033219334	-3.1669900254506853	1.765492126294428	2.8521271665584944	0.8832138359110526	3.812689471499081	0.1458481160882476	-0.271763549935671	0.4176116660239187	73.80376839055694
9	4.0	ltm	353	diff_vonmises	-0.1478567718449542	-8.471568999144615	1.082518166541336	175.4592848121233	1.065399423773027	176.66548197680692	0.13696471643334	-0.3200835514268796	0.4570482678602197	80.74082571405296
10	4.0	perception	353	diff_vonmises	-0.0941682606290117	-5.3954438981303285	2.492152208453529	2.4506109143840167	0.2862778149505355	3.712516835416688	0.6707087002004226	-0.4750284202385865	1.1457371204390092	78.61473205733535
11	4.0	wm	353	diff_vonmises	-0.1853570965167531	-10.620179333209007	1.0929231710727405	295.9648246156763	1.0822939648256753	297.3582457320819	0.0920658568047514	-0.3496366424290826	0.4417024992338341	78.85380421313579
12	5.0	ltm	353	diff_vonmises	0.03255556600432	1.8652965317071195	1.5386985576504402	1.7760274234244402	0.2316055863910693	2.5687718639172066	0.2727219242823571	-0.2862295832263847	0.5589515075087419	97.33527236503213
13	5.0	perception	353	diff_vonmises	-0.0440434549512291	-2.5235040838799967	2.540132733304856	2.004398804708886	0.0876924672395241	2.764514568911045	0.712912820812805	-0.3971972072120647	1.1101100280248697	83.37834945584271
14	5.0	wm	353	diff_vonmises	-0.0494337177914933	-2.8323433950933348	0.7536577721337003	182.5305490706569	0.7401843791511288	183.3600704014256	0.2270471673391796	-0.2818684367840767	0.5089156041232563	100.94566108295923
15	6.0	ltm	353	diff_vonmises	-0.1092349553403286	-6.258701916300862	1.035139182481625	1.4044985943235158	3.054917775551637e-14	1.9619049664214827	0.1770013276920628	-0.2505265868958957	0.4275279145879585	127.05032643992013
16	6.0	perception	353	diff_vonmises	-0.0436724994879287	-2.5022499014455644	1.0884260717077558	1.9677880301416928	2.262884914536816e-19	2.6622631932940117	0.2814492135902932	-0.3437419170744402	0.6251911306647335	124.97811546828484
17	6.0	wm	353	diff_vonmises	-0.2053297435474015	-11.764527713769654	0.5534036369620073	116.24433233400796	0.5376099148820509	116.77828759891054	0.2098452601280946	-0.2450647709792619	0.4549100311073566	119.3546101557752
18	7.0	ltm	353	diff_vonmises	0.0669991185244619	3.838766722548439	0.8400603165855492	187.5268639461779	0.826964227385178	188.25754167404696	0.2431701381571329	-0.2581560229091764	0.5013261610663093	96.128153728846
19	7.0	perception	353	diff_vonmises	-0.0874730857986342	-5.011838637247482	0.8545182773473492	206.6775458532296	0.8380692581852396	207.28054092854205	0.4612925909673748	-0.3204143258114875	0.7817069167788624	98.15265520381972
20	7.0	wm	353	diff_vonmises	0.1644637743560101	9.42308015339128	1.802478622477652	1.3836404840864265	0.3841977117590701	2.033218482498286	0.2120153605644166	-0.2139241824006029	0.4259395429650196	86.20154664240974
0	1.0	ltm	399	diff_vonmises	-0.06858619664901	-3.929699600842584	1.8613741582087928	0.388463089930174	2.0131915004531066e-19	2.36040430101824	-0.1838055034325455	-0.3710331220060716	0.187227618573526	100.34330100507732
1	1.0	perception	399	diff_vonmises	-0.0458216215851736	-2.6253855272760047	16.075539174506492	0.6117773878808874	9.469113541260401e-18	2.7540767944961666	0.5320676070276982	-0.4383249354987364	0.9703925425264346	33.78696426220196
2	1.0	wm	399	diff_vonmises	-0.021917222421154	-1.2557643433816268	4.249026004096617	0.3162636586389874	1.740070641186826e-18	2.4770637248262166	-0.1429658909268307	-0.3941857064230556	0.2512198154962249	66.37224696251803
3	2.0	ltm	399	diff_vonmises	0.0036309150715123	0.208036109368101	4.227975037202383	0.4230477073443465	1.4175689313236227e-16	1.9204341616177565	0.0295653830597164	-0.3055753091161365	0.335140692175853	66.54090712281729
4	2.0	perception	399	diff_vonmises	-0.0268651863238379	-1.5392617921884963	7.668842791116587	1.2007969188147811	0.1867216144214636	2.811367201621311	0.7685871681299203	-0.4649655053973676	1.233552673527288	47.66011713668172
5	2.0	wm	399	diff_vonmises	0.0018648069801971	0.1068455695718319	4.014833554130003	0.4933626978886209	0.0735488045726081	2.2332721969524734	-0.0019567317941558	-0.3481063781721893	0.3461496463780334	65.01505448241292
6	3.0	ltm	399	diff_vonmises	0.0505190338720911	2.8945274259492737	1.9775875657089728	1.7949797219909482	0.6299328315814631	2.910728171811133	0.1302376883666475	-0.2934574711711556	0.4236951595378031	74.92356082210634
7	3.0	perception	399	diff_vonmises	-0.0277278929453592	-1.5886912405596545	4.163969861317054	2.331997448477036	0.2780829720155199	3.4620951825716717	1.1186442631182958	-0.5130278362321277	1.6316720993504237	63.23710383970689
8	3.0	wm	399	diff_vonmises	-0.0861636730204731	-4.936814811418352	3.0339038317515783	0.8398475226358988	0.2525402570669454	2.269287090708369	0.0959918363436558	-0.3290063940836578	0.4249982304273136	69.8040001190601
9	4.0	ltm	399	diff_vonmises	-0.0613260064613272	-3.513721344626066	1.6371566111637657	1.7898776093092414	0.4856978352976547	3.671901190577592	-0.078614926479286	-0.392438427511371	0.3138235010320849	77.64341657708627
10	4.0	perception	399	diff_vonmises	-0.0800753931928342	-4.587982072800006	1.9377463688554464	3.630306340079198	0.3709974692144957	5.5690530285296935	0.5958554864718406	-0.6184224515687118	1.2142779380405524	83.96886340701442
11	4.0	wm	399	diff_vonmises	-0.128261545545356	-7.3488452335738845	0.9186773461569836	284.6173650861775	0.9077859503844516	286.8032367359692	-0.1186856569123477	-0.453776020878152	0.3350903639658042	79.73040721618418
12	5.0	ltm	399	diff_vonmises	0.044175244364922	2.531055061069104	1.943584815808903	1.038738811771642	0.1384342399359679	2.08314288064726	0.1476883974172679	-0.2802457834645915	0.4279341808818595	90.14054870216356
13	5.0	perception	399	diff_vonmises	-0.0290104082659308	-1.6621739555892734	2.094334598191621	2.4228851724372964	0.1595645676872598	3.4318398795807976	0.6484924227866345	-0.4488432743012608	1.0973356970878954	88.6394455035468
14	5.0	wm	399	diff_vonmises	-0.0244999987424175	-1.4037465260163486	1.3469340856991423	1.2660264184561718	0.0749390111141162	2.5831379413832654	0.0714511364870277	-0.3461477333634273	0.4175988698504551	109.2833780652376
15	6.0	ltm	399	diff_vonmises	-0.2266413917313729	-12.985595209178864	0.3873061610666226	92.60442138864872	0.3722615977088528	93.6457072510383	0.0220848049215725	-0.2840003124401171	0.3060851173616896	131.44906387358148
16	6.0	perception	399	diff_vonmises	-0.0429594315564069	-2.461394118463243	0.5007249370659095	142.1039163291891	0.4823884119774204	143.22660774469406	0.2130180051448817	-0.400199170777844	0.6132171759227258	122.71491801854872
17	6.0	wm	399	diff_vonmises	-0.0227072410788341	-1.3010290782032874	0.4179846672490416	151.9760328593785	0.4071909773876475	153.173190292509	0.0269601018579948	-0.3208666312179389	0.3478267330759337	127.58967692158654
18	7.0	ltm	399	diff_vonmises	-0.0135740916623902	-0.7777381629786783	1.0271884268865	182.15437854224203	1.0103535631774163	183.62667188324235	0.0731432173594512	-0.3578672882255951	0.4310105055850464	81.03670115211997
19	7.0	perception	399	diff_vonmises	0.0470897291941754	2.6980427412402346	0.920104526290103	5.139643590815031	0.2874160390710444	6.611495795403989	0.3042294889434975	-0.5068494952218627	0.8110789841653603	113.92598156677415
20	7.0	wm	399	diff_vonmises	-0.0045602554315835	-0.2612833897313473	0.9942726020575334	4.276577865141502	0.5645021138778176	5.873206982060772	-0.0635668502244812	-0.3304498660793925	0.2668830158549112	88.67673155564111
0	1.0	ltm	330	diff_vonmises	-0.0083870962292732	-0.4805452163074423	5.380538014965055	0.256345227462362	4.72487433657322e-19	3.522161076919556	-0.3294905160502434	-0.5605644429077686	0.2310739268575252	58.817514365525255
1	1.0	perception	330	diff_vonmises	0.0166652520112197	0.9548486047647976	11.377172901503323	0.8862795131317709	0.0807674593401685	4.156832680754168	0.4628792066576649	-0.6838246561909249	1.14670386284859	39.57926406005049
2	1.0	wm	330	diff_vonmises	0.0334567284370595	1.9169293357588324	6.932519646271649	0.3069738474371786	5.78664128401904e-22	3.730179327681761	-0.2774892396819216	-0.5936761777069904	0.3161869380250688	51.68216540662437
3	2.0	ltm	330	diff_vonmises	-0.0822436972233141	-4.712216742447708	3.9264758830840494	0.5110088119079274	0.0255354707279173	2.403973003579181	-0.00352598611587	-0.377264192909441	0.3737382067935709	67.58549869936954
4	2.0	perception	330	diff_vonmises	-0.0305035495621388	-1.747724650078687	7.886212851613248	1.2839178061401593	0.1663972331398486	3.2692819677572333	0.803726136649394	-0.5398661581992052	1.3435922948485992	47.07216338164992
5	2.0	wm	330	diff_vonmises	0.0271945115607473	1.5581307383505492	3.974590314079941	0.6402433220826653	0.0792923557049637	2.692653923589186	0.0273035967170393	-0.4186847457944386	0.445988342511478	65.31011332332582
6	3.0	ltm	330	diff_vonmises	0.014358572360012	0.8226855960618868	2.838083984685725	0.5585792886307975	0.0684005190694567	1.383803327077168	0.1188436809664137	-0.2075667758486915	0.3264104568151053	78.23158272845961
7	3.0	perception	330	diff_vonmises	-0.001193114594944	-0.0683604307657565	4.017047707185224	1.992058414650013	0.2503530917665408	2.8075091929013904	0.9701097906108198	-0.4122673950628977	1.3823771856737177	64.7389492875476
8	3.0	wm	330	diff_vonmises	-0.0834921359986538	-4.783747015255152	3.2025140882243623	0.7044978439053469	0.1699534217093724	1.6479869579021087	0.1701745711707735	-0.2418892980968583	0.4120638692676318	71.21022483965524
9	4.0	ltm	330	diff_vonmises	-0.0381066196186069	-2.1833484756565986	1.864948247361805	1.0064845410165433	0.1947971356573443	3.1283284573261967	-0.1015831492720768	-0.4213955387183409	0.3198123894462641	83.90150976374451
10	4.0	perception	330	diff_vonmises	-0.0823728725084205	-4.719617941101706	1.7784923994266877	4.669505667915644	0.5091292777954092	6.701766893167044	0.578238720226812	-0.6384769040131981	1.21671562424001	83.0294755522541
11	4.0	wm	330	diff_vonmises	-0.0876324201300242	-5.020967821967667	0.7629391431143673	236.09494200707405	0.7516694443046653	238.3088169187812	-0.1437997882204627	-0.4404347651327711	0.2966349769123084	86.65480058243617
12	5.0	ltm	330	diff_vonmises	-0.0251521128500806	-1.4411099121463875	1.672663656664671	1.005461918407675	7.384333319741795e-16	2.3508099064494923	0.0911649349427621	-0.3577399015432427	0.4489048364860048	105.35720830596286
13	5.0	perception	330	diff_vonmises	-0.0449185917091403	-2.573645726605073	2.5117336308319027	2.419538527081877	0.0888643488874402	3.622673963954206	0.8009055339947501	-0.5207506982906788	1.3216562322854288	83.56400480651317
14	5.0	wm	330	diff_vonmises	-0.0193754720734487	-1.1101327758822048	0.600632162071511	196.74768049261317	0.5879922934019645	198.15941782785785	0.0987367481437146	-0.3738375565552054	0.4725743046989201	108.60669497455784
15	6.0	ltm	330	diff_vonmises	-0.0297032783779261	-1.701872488757362	1.2095583731461304	0.8926511498151556	6.999597247437494e-19	1.9880890746844235	0.0235923413156474	-0.2861525646064337	0.3097449059220811	120.33807901640596
16	6.0	perception	330	diff_vonmises	-0.1173530029860126	-6.723831784284671	0.4064647272661081	5.2442526883595	2.128566254996201e-16	6.272500020191448	0.2047158775474795	-0.4646887670889406	0.6694046446364201	156.92918970393774
17	6.0	wm	330	diff_vonmises	-0.1232539669398878	-7.06193211390055	0.4812759523130424	195.5623024801272	0.4718276701421325	196.6729079275483	0.0758408106822372	-0.3170507642092239	0.3928915748914612	121.4887012298029
18	7.0	ltm	330	diff_vonmises	0.2132512081223534	12.218394201476793	1.9072844601705488	0.7665988620167836	0.0316393348953175	1.959871462513393	0.0623961194937393	-0.293660910697102	0.3560570301908413	96.59687249435711
19	7.0	perception	330	diff_vonmises	0.0156050138073175	0.8941014304026741	0.8649372473027842	322.2262695205826	0.8529517492951406	323.1796770969109	0.4376159765839134	-0.3831138496801927	0.8207298262641061	95.80662576508652
20	7.0	wm	330	diff_vonmises	0.0613938152077085	3.5176064996077887	0.856607533276376	59.51186777426157	0.8188649739989525	60.70440766809248	0.0622869141357966	-0.287571377078855	0.3498582912146517	89.9334430582355
0	1.0	ltm	88	diff_vonmises	-0.0130555825716935	-0.7480297804425915	2.4463385126962054	0.3789415645602554	1.6366191317715084e-20	2.3386700855538707	-0.1517163300642103	-0.3705568270043404	0.21884049694013	87.94186304462269
1	1.0	perception	88	diff_vonmises	-0.0428852681762821	-2.457144869787668	14.407998050172525	0.5888029828809596	1.7279541096147709e-19	2.7224259859736843	0.449941780771086	-0.4332875528692685	0.8832293336403545	35.706303847894844
2	1.0	wm	88	diff_vonmises	0.0165994211814733	0.9510767760584836	3.844079603533221	0.3843989421259737	2.587884134919292e-15	2.473095322869352	-0.1044198602575104	-0.3934728341716122	0.2890529739141017	69.8704856647858
3	2.0	ltm	88	diff_vonmises	0.0148823997781996	0.8526986963172724	3.423654170915909	0.6547731549102653	0.1737474602347742	2.046374574340368	0.0774251327733998	-0.3082463301041434	0.3856714628775433	67.84845272744937
4	2.0	perception	88	diff_vonmises	-0.0138057267129782	-0.791009873764673	6.64541967490337	1.2456213222110355	0.1920540853669901	2.678760138251389	0.7430616365524839	-0.4355472543435719	1.178608890896056	51.04927829954909
5	2.0	wm	88	diff_vonmises	0.0451986376728037	2.5896911783926617	4.261745407395268	0.5535543571605461	0.1169931014683395	2.0947090225521867	0.0670017003460524	-0.3266488553361528	0.3936505556822052	62.50308488048304
6	3.0	ltm	88	diff_vonmises	0.0371744167564414	2.129937186004504	2.18037971002434	1.4741849850391453	0.4783952387137147	2.7252610995454343	0.1396369979018316	-0.3194267658173399	0.4590637637191715	75.27814350355024
7	3.0	perception	88	diff_vonmises	-0.023806015939364	-1.3639842403467253	4.317491111210098	2.09582816721674	0.1722184354849099	3.379004129623304	1.045388911692729	-0.5114525619284466	1.5568414736211755	63.22515126709868
8	3.0	wm	88	diff_vonmises	-0.0310346514928993	-1.7781545492025124	2.9863114519875698	0.8769051156554294	0.2215551690320461	2.369891725870817	0.1078249717851402	-0.3437102353102866	0.4515352070954268	71.11709982916676
9	4.0	ltm	88	diff_vonmises	-0.1065108804638436	-6.102623922800656	2.3080448643134983	0.881596801767463	0.2464123362124527	2.8274162884529948	-0.071485419812406	-0.3939964138562216	0.3225109940438156	75.46174838367071
10	4.0	perception	88	diff_vonmises	-0.0789023545010395	-4.520771906554619	1.732381881208154	3.925295740429456	0.336790324352213	5.913754471862908	0.5742556983963971	-0.6358695992162435	1.2101252976126406	88.6419730242159
11	4.0	wm	88	diff_vonmises	-0.0949367013005142	-5.439472305413622	0.9243722669601404	340.4828773808684	0.9143627068742826	342.7142258024608	-0.0777936164873978	-0.4761228734507199	0.3983292569633221	81.00867556289029
12	5.0	ltm	88	diff_vonmises	0.0028529088392905	0.1634596358269138	1.8005572506043654	1.106495695267341	0.0705554606785167	2.0435953224086605	0.1869854223293138	-0.2880964755355646	0.4750818978648785	97.58455107507676
13	5.0	perception	88	diff_vonmises	-0.0431374096988181	-2.471591514868984	1.5703567153512112	3.7306143376720233	0.3776824069082316	4.601997279363432	0.6299961751061256	-0.4289604254547244	1.0589566005608502	93.13639203729376
14	5.0	wm	88	diff_vonmises	0.0221138068452955	1.2670278012029423	1.150566125265429	2.157422102562723	0.2396313540017712	3.250019424723184	0.1501955259806142	-0.3214258533196492	0.4716213793002634	106.46609341304652
15	6.0	ltm	88	diff_vonmises	-0.1563079632829148	-8.95578660039686	0.4144753475452921	122.65038698734524	0.4019092774408314	123.54587177195631	0.0785756250943379	-0.2794056934704318	0.3579813185647698	130.07531766960346
16	6.0	perception	88	diff_vonmises	-0.055004532079256	-3.1515275422333207	0.6023054451590041	224.448369728274	0.5895307265788883	225.40299308474516	0.2908534686703135	-0.3737445601765152	0.6645980288468287	113.76998146812072
17	6.0	wm	88	diff_vonmises	0.0158879406458344	0.9103119441606676	0.5016516994844545	166.58203523932875	0.4903756663991587	167.56309164772017	0.1105568908300682	-0.3027064452161241	0.4132633360461923	120.6428874443044
18	7.0	ltm	88	diff_vonmises	-0.0766106102884973	-4.389464635452421	0.989864023517656	177.54948459444844	0.969944928266178	179.31688060592123	0.0762431893892667	-0.423668766837725	0.4999119562269918	82.46047623982992
19	7.0	perception	88	diff_vonmises	0.0410794542167686	2.353679351321735	1.3790131031624608	3.0509167275890654	0.1431175022311929	4.828690120195727	0.3738807989641276	-0.5829723554594279	0.9568531544235556	105.44056494644144
20	7.0	wm	88	diff_vonmises	0.0164973972896424	0.945231237647076	1.3146091531167423	1.839240713769305	0.3374160258381711	3.64930713501114	-0.055302781726391	-0.3770503504834923	0.3217475687571013	90.05754748603738
0	1.0	ltm	497	diff_vonmises	-0.1892668944171565	-10.84419425165123	0.987399580872838	0.9886986847080784	0.2088950476863057	1.5865551184993547	0.0276871275655712	-0.1561256489164703	0.1838127764820415	112.49426606144114
1	1.0	perception	497	diff_vonmises	-0.0728287833829658	-4.172781914916445	15.169315882008185	0.5904605960285713	7.521906240669219e-17	1.410913265539112	0.6850416179016725	-0.2245538204844168	0.9095954383860894	34.781524478173395
2	1.0	wm	497	diff_vonmises	0.0613452028409331	3.514821216159415	3.606033951256453	0.364941006708968	2.0752480459570105e-24	1.0114715244154482	0.1040274600459651	-0.1607851643304905	0.2648126243764556	72.21043311356323
3	2.0	ltm	497	diff_vonmises	-0.0131668850419737	-0.7544069422390319	4.42057408047667	0.457021909978822	0.3161395971068541	0.8989686301784449	0.1794991569251122	-0.1378756227419459	0.3173747796670582	60.23019011400845
4	2.0	perception	497	diff_vonmises	-0.0128951963420838	-0.7388403263939421	7.191923784076675	1.1275264568925376	0.2561721165283861	1.5573485158738327	0.8686936903568028	-0.2557898458844239	1.1244835362412269	49.33172221010196
5	2.0	wm	497	diff_vonmises	0.0629935905992648	3.609266877712852	5.888617094643098	0.3047751124680287	0.2182759259711159	0.7669278383976775	0.1381186224037763	-0.1241110540234843	0.2622296764272606	53.466843267198925
6	3.0	ltm	497	diff_vonmises	0.0484575418336125	2.7764126326446257	1.6913536008174692	152.22862695788933	1.6777796512802292	152.53517567023275	0.2049991105593847	-0.1465957530330186	0.3515948635924033	68.33759834333142
7	3.0	perception	497	diff_vonmises	-0.0342990989624852	-1.9651936116519448	4.564539706293273	1.8337997332964149	0.3269778920900498	2.190486012723764	1.043650332342015	-0.3258798834546105	1.3695302157966256	60.775090867621685
8	3.0	wm	497	diff_vonmises	-0.0480555057229138	-2.753377660289736	1.6171546026503434	136.15190471184508	1.6015907081770564	136.58320117150134	0.1676645022060228	-0.1655502188964739	0.3332147211024967	68.47716167662546
9	4.0	ltm	497	diff_vonmises	-0.1533654754516514	-8.78719446639686	1.7376517216130696	142.06476349336376	1.7202499053906457	142.70333661642746	0.1104726651838916	-0.211456048456224	0.3219287136401156	63.66235202920484
10	4.0	perception	497	diff_vonmises	-0.1290531443182762	-7.39420050232995	2.3789514805239085	2.503097419586695	0.3284056738049076	3.324314512620258	0.7172545249595411	-0.4017548302392097	1.1190093551987508	80.10232060988636
11	4.0	wm	497	diff_vonmises	-0.1463482634164335	-8.38513783283047	1.4629009521049303	202.3733350548664	1.449442237913573	203.2425929677221	0.1119480661205756	-0.2549452800324339	0.3668933461530095	69.02177191035253
12	5.0	ltm	497	diff_vonmises	0.0967014784554368	5.540586588171791	1.67015056141971	1.1394071655407176	0.3183056883632542	1.4704947959285142	0.2130589228531333	-0.1521430251200438	0.3652019479731771	92.446434543422
13	5.0	perception	497	diff_vonmises	-0.0501773553656705	-2.8749506895810386	2.320625781942368	1.85894252665677	0.1748053858745557	2.1350027097272344	0.6468033234699828	-0.2782131174067541	0.925016440876737	85.2663981424916
14	5.0	wm	497	diff_vonmises	0.0960773374694913	5.504825943855979	0.7698167109072817	53.75849152239246	0.742649866797002	54.14646025476654	0.1652520360089013	-0.1577349077096608	0.3229869437185622	101.95821629000412
15	6.0	ltm	497	diff_vonmises	-0.2691256556094554	-15.419764225113084	0.4670506830014308	94.13123745827282	0.4544819871864556	94.5908066786075	0.1101740711426053	-0.1821382781795986	0.2923123493222039	126.35041757581696
16	6.0	perception	497	diff_vonmises	-0.0831878859396406	-4.766314770957092	0.7367658728936266	219.5382444921607	0.7243384603411527	220.12967330346507	0.3495451777481264	-0.289538303178567	0.6390834809266934	104.86903838201556
17	6.0	wm	497	diff_vonmises	-0.1192993115232669	-6.835347049099627	0.7775804935961692	4.225955154750933	0.4382456476495246	4.715818827217359	0.1556688633067116	-0.1946558630949471	0.3503247264016587	113.3574236275524
18	7.0	ltm	497	diff_vonmises	0.0216286825635705	1.2392322273207883	1.164298819598383	147.56354767769608	1.14474388176952	148.3744115901858	0.2373630381863805	-0.2647251458872226	0.5020881840736031	80.73528694774433
19	7.0	perception	497	diff_vonmises	-0.0901044261627839	-5.162603334575673	2.5850518006296728	1.6465921757592057	9.537113154877496e-20	2.527400019319726	0.5873903030345069	-0.3966230037132568	0.9840133067477638	85.54353032423455
20	7.0	wm	497	diff_vonmises	0.2516523824185214	14.418619416993476	3.812917208271111	0.4741600683411962	1.2027760564455153e-17	1.1954702313701009	0.1648220224386132	-0.1900917896634781	0.3549138121020914	70.16705117825768
0	1.0	ltm	186	diff_vonmises	0.0100077618322196	0.5734025153582977	6.037675326854939	0.2968722741399066	0.037846786876665	3.173454910607585	-0.2399695604726544	-0.5066192359880353	0.2666496755153809	53.53505065185192
1	1.0	perception	186	diff_vonmises	0.0002337847744239	0.0133948808889079	12.442695382249214	0.676455645742354	0.0723615270861079	3.568159767439003	0.3322922852681262	-0.5866849243302542	0.9189772095983804	37.889309151476624
2	1.0	wm	186	diff_vonmises	0.030233881412032	1.7322738032084646	4.376938783697577	0.4965478949700513	0.1057041556473131	3.601351112418324	-0.2344150883883993	-0.5718624141921274	0.337447325803728	59.95228874497192
3	2.0	ltm	186	diff_vonmises	-0.0784636771261207	-4.495637544403896	3.314909767565016	0.6863769623684886	0.1613185943256348	2.344147156969416	0.0400354081203192	-0.3533983488326218	0.393433756952941	68.70840799423254
4	2.0	perception	186	diff_vonmises	-0.0254998184455208	-1.4610319752781915	7.635621539352853	1.1218383674548402	0.1979019327210406	2.9626010346998304	0.6456702899056893	-0.492948903193914	1.1386191930996032	47.52945831965755
5	2.0	wm	186	diff_vonmises	0.050785505099953	2.909795102667428	4.145784644125246	0.6575571884663189	0.163791559908299	2.532516212246513	0.0438932663217818	-0.3951612771759416	0.4390545434977234	62.01379715389862
6	3.0	ltm	186	diff_vonmises	-0.0012647828910491	-0.0724667216574688	1.2870223750082592	13.266929125584689	1.0698133817464874	14.422983867548664	0.1234691788653679	-0.3090576320128153	0.4325268108781832	76.77032031556553
7	3.0	perception	186	diff_vonmises	-0.0211354972089081	-1.2109747879809671	4.300635780184263	1.9164172173273235	0.2637567797071127	3.1278702136653616	0.8956630272289747	-0.4704179178407632	1.366080945069738	62.21079252370859
8	3.0	wm	186	diff_vonmises	-0.0007929030582782	-0.0454299988023581	2.229386923685315	1.2991599993164953	0.4459450912116643	2.7031474814130294	0.0756381597060846	-0.3328218284190118	0.4084599881250965	74.10650279113099
9	4.0	ltm	186	diff_vonmises	-0.0649598633183796	-3.721926005889841	0.861157418896233	191.4144157151884	0.8456031694150352	193.3343622357241	-0.0316407893706056	-0.4166175008068578	0.3849767114362521	85.51289597312476
10	4.0	perception	186	diff_vonmises	-0.0960550609385999	-5.503549592653709	1.900697709012781	3.646817569011053	0.4278795681695164	5.4494097467899705	0.5525170119950951	-0.5753046449576851	1.12782165695278	83.13831678538654
11	4.0	wm	186	diff_vonmises	-0.1348339172136248	-7.725414391557044	0.8876271074609253	293.70165326659253	0.8769987009353337	295.77900005224234	-0.0663136180296675	-0.4422360520164972	0.3759224339868297	82.96925721009762
12	5.0	ltm	186	diff_vonmises	0.0223262921511292	1.2792023124357617	1.5848155241914068	1.6603871195424733	0.1824272082533647	3.162610539318912	0.1445211320992414	-0.3890744594538952	0.5335955915531366	95.60045643650892
13	5.0	perception	186	diff_vonmises	-0.0631652511351567	-3.619102301928413	2.341989608261252	2.4295193503739525	0.1682008747522313	3.90043975239403	0.6483307119733058	-0.5256215346383686	1.1739522466116743	83.49380036527685
14	5.0	wm	186	diff_vonmises	-0.0285920612492949	-1.6382044371641475	0.6771337230668648	226.5255052535783	0.664512636041993	228.09900177963632	0.1069826657274646	-0.4013075118450722	0.5082901775725368	101.783689586792
15	6.0	ltm	186	diff_vonmises	-0.0767855164082293	-4.3994860179240725	0.9510599475963344	2.1892624743445315	0.1709607682027537	3.5607085515789945	0.0602942769110806	-0.365554424909819	0.4258487018208997	116.8346675377992
16	6.0	perception	186	diff_vonmises	-0.1114661684065419	-6.3865410081893295	1.0339022878667996	2.162994860511372	3.5474467749949145e-20	3.5452210371899926	0.1887118572454726	-0.4690144016900209	0.6577262589354935	127.09800756989608
17	6.0	wm	186	diff_vonmises	-0.1739266954143758	-9.965265591901106	0.5761715707226884	187.88302978297807	0.5639575544706404	189.22452797007185	0.0858603622404672	-0.3559315932036	0.4417919554440672	110.78947977981343
18	7.0	ltm	186	diff_vonmises	0.021879525875664	1.253604490422826	0.7374201653102104	214.2769848339101	0.7234790629315583	215.92185961416672	0.0945703162338702	-0.4050751869616462	0.4996455031955165	96.88671310995367
19	7.0	perception	186	diff_vonmises	-0.0880876186428653	-5.04704877559409	0.8446608381126435	276.6599328068358	0.8276420819899373	278.0862540637824	0.4581172358887926	-0.4966507473411035	0.954767983229896	95.83941999584674
20	7.0	wm	186	diff_vonmises	0.1432469347400714	8.207444788792028	2.146498114001156	1.3476513911465444	0.3067865958318811	2.8767505940718583	0.1176156844507777	-0.3656906467090824	0.4833063311598602	79.3864845274536
0	1.0	ltm	65	diff_vonmises	-0.1021116181870768	-5.850564761370802	3.3876280766699414	0.315371563047006	4.1687337727947846e-20	1.7682770260139211	-0.0602141096884855	-0.281177466273188	0.2209633565847025	74.55416583077206
1	1.0	perception	65	diff_vonmises	-0.0445779020213477	-2.554125645370927	14.520457105899029	0.6699560071942823	0.0103143126706853	2.318677407099359	0.636123956789554	-0.3704027464842943	1.0065267032738483	35.51215110817921
2	1.0	wm	65	diff_vonmises	0.0398383984654135	2.282572094628652	4.923772571842142	0.356252359575134	1.663425773310246e-14	1.920772484697996	0.0006793178398441	-0.3056842331614664	0.3063635510013106	61.54330619762251
3	2.0	ltm	65	diff_vonmises	-0.0517601307200614	-2.9656370373049623	3.987122798712708	0.4898456336729191	0.1528914429726176	1.357949505461595	0.1255960775649794	-0.2080005143499402	0.3335965919149197	64.47808366438494
4	2.0	perception	65	diff_vonmises	-0.0264428066482314	-1.515061219424134	7.589896846019462	1.152251009769883	0.2681941554962382	2.0193354759060558	0.831010883230302	-0.33834571546611	1.169356598696412	47.75875078306021
5	2.0	wm	65	diff_vonmises	0.033140887060233	1.8988329578710763	4.706517326374152	0.4765522937439677	0.1882912850746932	1.4149237573654303	0.1306299097138696	-0.2225045349465917	0.3531344446604614	59.081611665987
6	3.0	ltm	65	diff_vonmises	0.0135260736668959	0.7749869344961814	1.3954826873017323	106.90726045076713	1.3760068572737911	107.38307373085678	0.1769718536072488	-0.17209068034375	0.3490625339509989	74.05353479276664
7	3.0	perception	65	diff_vonmises	-0.0265071404608469	-1.5187472753669895	4.285461342088794	1.880970020898771	0.3760760796052667	2.3170886160097397	0.9825565553679572	-0.3379852718236622	1.3205418271916196	62.02154685099222
8	3.0	wm	65	diff_vonmises	-0.0717783765842959	-4.11259803858081	1.4146673934707057	39.99539911056893	1.3561007899331652	40.59885445618732	0.1732546389313114	-0.2022281285322584	0.3754827674635699	73.23839010799293
9	4.0	ltm	65	diff_vonmises	-0.1336944771760649	-7.660129286396634	1.3140426837873256	147.60495877569602	1.296808771787433	148.51148423961396	0.1021561764168055	-0.2512833405741723	0.3534395169909778	72.80139579740998
10	4.0	perception	65	diff_vonmises	-0.1124769763769929	-6.444456038794358	2.375370445292828	2.681131423507856	0.3657032436186945	3.638730131306417	0.7255132531205921	-0.4325648144467907	1.158078067567383	79.18682342452331
11	4.0	wm	65	diff_vonmises	-0.1491274534833952	-8.544373694132052	1.2353211312646468	243.45497494679685	1.223754704565896	244.55747902950907	0.0949570417325276	-0.2916170711395658	0.3865741128720934	74.48849131591672
12	5.0	ltm	65	diff_vonmises	0.0515417204688943	2.953123051710692	1.2635512252530554	1.9298449207528536	0.3411546757889927	2.6232775897672336	0.1836878334533189	-0.231448997455716	0.4151368309090349	99.6798055503555
13	5.0	perception	65	diff_vonmises	-0.0363801310615315	-2.084427967958548	2.3760382668949096	2.028231428343912	0.1485644326922442	2.6442673621777906	0.6744634939704689	-0.3570147668063306	1.0314782607767996	84.48259353976124
14	5.0	wm	65	diff_vonmises	0.0232838958564291	1.334068963195535	0.6921086493495126	131.23915616360475	0.6774271513341256	131.96677182641045	0.1630525614987945	-0.2381257829593561	0.4011783444581507	104.78146735837586
15	6.0	ltm	65	diff_vonmises	-0.1693689698741477	-9.70412715426705	0.4499682322170018	125.0023653432278	0.4381999706207444	125.69218574033177	0.1100262065524333	-0.2415858918414795	0.3516120983939128	127.30894083193368
16	6.0	perception	65	diff_vonmises	-0.0641324267265639	-3.674517381364113	0.5701330281426312	188.32908203472883	0.5551019879947006	189.10681144059336	0.3336781770960328	-0.367684429839116	0.7013626069351488	118.07437802941234
17	6.0	wm	65	diff_vonmises	-0.1752871019853361	-10.043211146838994	0.5705738078182074	87.14857083147537	0.5488714831570415	87.84041982744118	0.1793607120260212	-0.2612508267232361	0.4406115387492573	116.66011867145971
18	7.0	ltm	65	diff_vonmises	0.1080630773820895	6.191558255189356	0.8957567791432324	152.10837477013416	0.8795338993357898	152.98983139309144	0.1892116876907508	-0.2658565978965193	0.4550682855872701	91.44267503779804
19	7.0	perception	65	diff_vonmises	-0.0602553506753607	-3.452377286778928	2.406405573308137	1.5862044100063095	1.0712618433233836e-11	2.3975009165642103	0.5324206511518128	-0.3741468121601286	0.9065674633119414	88.66531432609867
20	7.0	wm	65	diff_vonmises	0.2035383938226702	11.66189093491063	2.54123810553047	0.7431411769537389	0.1031873804618165	1.5406302264142502	0.1710546743072248	-0.2224802980266928	0.3935349723339177	81.53066044824874
0	1.0	ltm	163	diff_vonmises	0.0218424971592615	1.251482901252175	6.04064712143128	0.2213422816430222	0.0038252587389642	3.198107852183161	-0.2988262389347738	-0.508525866344167	0.2096996274093931	55.0606271738464
1	1.0	perception	163	diff_vonmises	0.0185166031383376	1.0609232107454425	11.528955028520915	0.7659422799249289	0.0843876532058257	3.77576024025548	0.3731218312070469	-0.6227531078932436	0.9958749391002903	39.27679611636506
2	1.0	wm	163	diff_vonmises	0.0497847656972925	2.852456958502536	5.544589451433266	0.3458962134079538	0.035694696550759	3.501631227525939	-0.2605163004498643	-0.5573647996301236	0.2968484991802593	55.8811031455393
3	2.0	ltm	163	diff_vonmises	-0.0373519487599166	-2.1401090205321305	3.9008033153464026	0.5107626760367895	0.0724553080666912	2.2252507447780907	0.0070702086826407	-0.3459701670350734	0.3530403757177142	66.01059972414049
4	2.0	perception	163	diff_vonmises	-0.0159658225612475	-0.9147742492142352	7.690248148647559	1.2495785154376924	0.2239920581138389	3.1185244192844093	0.7452225283744541	-0.5228101205746458	1.2680326489491	47.25527332042029
5	2.0	wm	163	diff_vonmises	0.0647635590481267	3.710678599703959	4.171619183402229	0.6039788429901074	0.1192104417156826	2.546436091194367	0.0201223575141845	-0.3975742902095399	0.4176966477237244	62.70351844760495
6	3.0	ltm	163	diff_vonmises	0.0457115401009277	2.6190783228261783	2.483538754524231	0.8805240685786632	0.3976302321228332	1.8240165526466177	0.101442763411533	-0.2360491348100734	0.3374918982216064	73.18414903993315
7	3.0	perception	163	diff_vonmises	-0.0025579474632678	-0.1465595938614456	4.492012338410336	1.8427453549285813	0.2421215320201947	2.845776071703756	0.9401216624583956	-0.4308843700604355	1.3710060325188311	61.37924320759254
8	3.0	wm	163	diff_vonmises	-0.0215269545654867	-1.2334036423722674	3.0928600775290827	0.7099338743139666	0.230064444500216	1.8880783861751795	0.0998207294816447	-0.2751013746816463	0.3749221041632911	70.00142496293168
9	4.0	ltm	163	diff_vonmises	-0.0096986229436927	-0.5556901617623397	0.7857098326480164	148.40545292933447	0.7681059831921134	150.48005515650522	-0.1184285707154018	-0.4189584751230946	0.3005299044076928	86.37148313724981
10	4.0	perception	163	diff_vonmises	-0.0743094160640982	-4.25761591855447	1.950599652724365	3.5686137037705303	0.4146067747942722	5.54378647777449	0.5332819785979273	-0.6040558646876923	1.1373378432856196	82.29938925415382
11	4.0	wm	163	diff_vonmises	-0.0708193538321378	-4.05765008242513	0.8122579763674045	261.71474035696986	0.8014158298602927	263.9666311288456	-0.1425221208091187	-0.4522904516498727	0.3097683308407539	84.04674746121646
12	5.0	ltm	163	diff_vonmises	0.0094809235169055	0.5432169034050145	2.143609848004438	0.8814968564767475	0.0090051783005975	2.303858474905757	0.10413883057925	-0.3568593536228361	0.4609981842020861	93.15861981366412
13	5.0	perception	163	diff_vonmises	-0.0550426415860602	-3.153711056132521	2.397898718931564	2.449320724430353	0.1490684601808754	3.816321766233994	0.7073529229799449	-0.522236368724534	1.229589291704479	83.35186378372705
14	5.0	wm	163	diff_vonmises	0.0156277597627372	0.8954046776492122	0.6256497621230245	85.35351542349595	0.595109224614431	86.90978279961521	0.0820180771230489	-0.3950120780351644	0.4770301551582134	106.34267715441004
15	6.0	ltm	163	diff_vonmises	-0.0663606604892818	-3.802185771736408	0.5215253115320434	80.05887057055538	0.497763433390865	81.33960099846006	0.0406024510241493	-0.3293147986180731	0.3699172496422225	116.00410255487142
16	6.0	perception	163	diff_vonmises	-0.1196337426364594	-6.854508540423415	0.8323991090206616	2.6839449559459254	9.449246028711228e-23	3.949153887016636	0.2030391796903146	-0.4711701478782965	0.6742093275686111	135.75089744150733
17	6.0	wm	163	diff_vonmises	-0.097313336031235	-5.575643444928135	0.5210090777546623	189.9218009644403	0.5098243970569135	191.23696018398556	0.07101439154345	-0.3542667834516173	0.4252811749950673	116.41331550887908
18	7.0	ltm	163	diff_vonmises	0.0956114631593598	5.478133312101874	0.7472031840437448	137.09595848906153	0.728248571350866	138.69837488932745	0.0313002767641776	-0.3689192211258163	0.400219497889994	94.58898496187471
19	7.0	perception	163	diff_vonmises	-0.0382609352733329	-2.192190111385197	0.8155937004054107	368.8373940225002	0.8037097337861288	370.2103506803557	0.4191371390683969	-0.473305085050697	0.8924422241190939	97.24990466280758
20	7.0	wm	163	diff_vonmises	0.1078444410474935	6.179031315968795	1.471993763735864	2.072914305105828	0.4357931513369259	3.644330073387737	0.0320015037356332	-0.3554903249238641	0.3874918286594974	85.49411774171367
0	1.0	ltm	42	diff_vonmises	-0.2112864397358232	-12.105821265207886	1.15587523101887	0.6677610666292415	9.104809125275144e-15	2.211072740896105	-0.1041908779268515	-0.3273578318136634	0.2231669538868118	122.09458551786312
1	1.0	perception	42	diff_vonmises	-0.0392593047897195	-2.2493924710686697	13.315435255481804	0.8360057158019772	6.3492574361980435e-25	2.541505127478573	0.8005386384973581	-0.4044931039283355	1.2050317424256936	37.14425612606525
2	1.0	wm	42	diff_vonmises	0.0118544739934534	0.6792113281724766	4.597830047468039	0.3605500969490983	4.261426196252173e-33	1.9861080263472943	-0.0171937875846649	-0.3160685729857017	0.2988747854010368	63.742271608432446
3	2.0	ltm	42	diff_vonmises	-0.0591644586889113	-3.389873780050732	4.442395085539161	0.4012723730857456	9.40711151625931e-22	1.4563571759811411	0.0947669180186787	-0.2317412133025086	0.3265081313211874	64.8760613560147
4	2.0	perception	42	diff_vonmises	-0.0356304016225988	-2.041471635330992	7.682210050138896	1.2918392819974944	0.155678174326607	2.250181914816737	0.9877032870759548	-0.3665850758131151	1.3542883628890698	48.07913869459588
5	2.0	wm	42	diff_vonmises	-0.0289736078580337	-1.66006544753241	4.237686623174368	0.4333763830716375	2.4984757305550318e-20	1.5190618623865273	0.1020413049531977	-0.2416944954855397	0.3437358004387374	66.4650825389937
6	3.0	ltm	42	diff_vonmises	0.0204382624654434	1.171026179850556	2.749046321663091	0.520370180475836	0.014675572923887	0.9148298734618532	0.1763966789133458	-0.1421435730561118	0.3185402519694577	82.31599413334709
7	3.0	perception	42	diff_vonmises	-0.0124049018124177	-0.7107485191257203	3.9462822923534393	2.0868360390905014	0.3208362509228527	2.2696359948443727	1.107293720721414	-0.3214062810846096	1.4287000018060236	65.26517416221768
8	3.0	wm	42	diff_vonmises	-0.1508712055285991	-8.644283326839542	3.036128570596292	0.8121016983644259	0.3591666429816247	1.2113540542110397	0.2680893034880467	-0.1613085999264602	0.429397903414507	71.24528238824652
9	4.0	ltm	42	diff_vonmises	-0.1092098653942322	-6.257264368281327	2.5519703736401507	0.9107968388969068	0.4847269208209033	2.0742214540755244	0.0374182979874275	-0.2729871163630378	0.3104054143504654	69.02505966034528
10	4.0	perception	42	diff_vonmises	-0.1046802491973092	-5.997736477383544	2.1741719240059703	3.317564759311098	0.4032475689973368	4.629372688290792	0.7404752780667962	-0.521013652272572	1.2614889303393682	80.78036559317727
11	4.0	wm	42	diff_vonmises	-0.1341936178815178	-7.688727942202268	1.1080403187123973	208.85769776823557	1.095595277754402	210.1921454328496	0.0065072369381482	-0.3117906148282117	0.3182978517663599	75.96005833012904
12	5.0	ltm	42	diff_vonmises	-0.0132989792230111	-0.7619753813107092	1.447682364061732	0.9035052632431136	3.9835190549998897e-16	1.464131470680732	0.1500136503766007	-0.2118493605661889	0.3618630109427897	112.11604152669749
13	5.0	perception	42	diff_vonmises	-0.027200411004737	-1.5584687515926297	2.514854819648685	2.038155257084964	0.0221466065558787	2.2639882489567924	0.8369577388271234	-0.3445049482992776	1.181462687126401	86.10913682716446
14	5.0	wm	42	diff_vonmises	0.0116664377845439	0.6684376470063252	0.6240627563244795	40.32980920975384	0.5831341443616317	40.92023986395133	0.1575979682133859	-0.2176330164901099	0.3752309847034958	112.5476212232159
15	6.0	ltm	42	diff_vonmises	-0.13082844513645	-7.495917746577427	0.3411055810409172	71.65577239011292	0.3294032139900922	72.10970149491853	0.0537087879385715	-0.1587475124288273	0.2124563003673989	139.39081087579046
16	6.0	perception	42	diff_vonmises	-0.0814668116762269	-4.667704479434897	0.3201991929609817	121.65674918504922	0.3025741968564738	122.06120995773954	0.2996964664942432	-0.328026403656164	0.6277228701504072	144.58312677625992
17	6.0	wm	42	diff_vonmises	-0.0896243611254695	-5.13509763404577	0.4328991778885744	92.07540561200936	0.4191498262791252	92.54998990073568	0.1235440970014849	-0.1995858118425495	0.3231299088440345	130.60518308293837
18	7.0	ltm	42	diff_vonmises	0.2178255285150493	12.480483454118891	1.31799223009845	1.929086040596777	0.541940923806156	2.52897546815772	0.1291391971420448	-0.1793939228623141	0.3085331200043589	90.50527865382668
19	7.0	perception	42	diff_vonmises	0.0448352772517243	2.5688721598227136	0.875790367718158	172.29096706277934	0.8574807197440493	172.75922892650237	0.454278581156494	-0.2860759606236485	0.7403545417801425	97.62701118393927
20	7.0	wm	42	diff_vonmises	0.0247878181351553	1.4202373624822442	0.724913794208411	49.67887676588476	0.6974318290287483	50.29845525923101	0.084325920343069	-0.1749519462098865	0.2592778665529556	100.87973731219785
0	1.0	ltm	451	diff_vonmises	-0.0698351238647266	-4.001257859222171	5.114379278730633	0.3449936649080601	1.6663355240739785e-17	1.964007528301447	-0.0097995873696037	-0.3125705709518711	0.3027709835822674	60.355926056267975
1	1.0	perception	451	diff_vonmises	-0.0413991692840941	-2.3719976753262264	13.266125703033042	0.7719110562286894	0.0251550500659906	2.623572223917681	0.6822467617217258	-0.4214877067606002	1.103734468482326	37.081903865723774
2	1.0	wm	451	diff_vonmises	-0.0014229040775147	-0.0815263982935521	5.405252948734994	0.4121651427416735	2.031223200376936e-15	2.167830733539036	0.0274911728035099	-0.3450134573011724	0.3725046301046824	58.674109084543744
3	2.0	ltm	451	diff_vonmises	-0.034206060562077	-1.959862903975908	2.470260509518384	1.2203766456680067	0.640753414671511	1.9480368379489916	0.1818321933219844	-0.2217447622401441	0.4035769555621285	70.6608751513505
4	2.0	perception	451	diff_vonmises	-0.0311935831980522	-1.7872606651385925	6.878505301109012	1.276780949156262	0.3698824773941377	1.912736705588192	0.8837203736574566	-0.3202697951520928	1.2039901688095496	49.66759549196314
5	2.0	wm	451	diff_vonmises	0.0048651940150712	0.2787550835758884	4.035302197791727	0.647359915860257	0.2698790776835094	1.4204721151288768	0.2093009097373883	-0.2150057402887882	0.4243066500261766	62.86219881288346
6	3.0	ltm	451	diff_vonmises	0.0043654718975443	0.2501231153122575	2.377831626079386	0.9239007312182556	0.4908801035945592	1.3153655592182592	0.2063358550380131	-0.1491750066348582	0.3555108616728714	76.09315034713106
7	3.0	perception	451	diff_vonmises	-0.0187563551501669	-1.0746599891530328	4.488024584301103	1.7501285695758464	0.3724896818590007	2.0370504801160902	0.9776250220263334	-0.2999721195141021	1.2775971415404357	60.9396191113253
8	3.0	wm	451	diff_vonmises	-0.0759613329594545	-4.352263784764743	2.3962888878734727	1.3205721132215342	0.7233928301296948	1.7745449480792712	0.2461931290391551	-0.1800424621040392	0.4262355911431943	72.13259403971523
9	4.0	ltm	451	diff_vonmises	-0.2006000000788641	-11.493533374842894	1.8749888411976965	1.9937142288752068	0.6947397718342286	2.8344058224867816	0.1853184794617013	-0.2495715036446203	0.4348899831063216	76.76920838949579
10	4.0	perception	451	diff_vonmises	-0.0864332644124961	-4.952261260374324	2.6724844221000983	2.223618248023329	0.1555456809751756	3.14734007863666	0.7809245864495218	-0.4359923373822806	1.2169169238318025	79.60061594737923
11	4.0	wm	451	diff_vonmises	-0.1419629896219023	-8.13388015239451	1.1958288708392562	273.3679948813439	1.184419689893027	274.4081290794457	0.1856082242512826	-0.3021834024131706	0.4877916266644533	77.80776552419334
12	5.0	ltm	451	diff_vonmises	-0.0279583202698749	-1.6018937537388935	1.2456273502616952	1.6850146020909331	0.1321288688128836	1.961533397266348	0.2982496669647577	-0.2182842289921631	0.5165338959569209	112.79560061855364
13	5.0	perception	451	diff_vonmises	-0.0274395234610865	-1.5721688861704617	2.080725088099513	2.301120163281096	0.1960759368988942	2.3863972860791027	0.7580573745770061	-0.2928891068987825	1.0509464814757887	89.53382309952968
14	5.0	wm	451	diff_vonmises	0.0264040947127721	1.5128431889055354	0.7726286596111358	107.7827726341846	0.7540277214059488	107.98342748056024	0.3236131402806492	-0.1894428393416278	0.5130559796222771	105.06932208830924
15	6.0	ltm	451	diff_vonmises	-0.0739788029388947	-4.238673181828679	0.4239182235812904	94.63918939368956	0.4097395421736874	94.71781072418676	0.2289680686929784	-0.1703241017212544	0.3992921704142329	134.71680192409582
16	6.0	perception	451	diff_vonmises	-0.0246609281467462	-1.4129671016839378	1.0943059188179618	2.621183098313627	0.1126533431319976	2.699265666634112	0.462902030675296	-0.2770168146907154	0.7399188453660115	119.79906543843413
17	6.0	wm	451	diff_vonmises	-0.1026153429429851	-5.879426063920606	0.5268151130263482	74.33772907140079	0.5032211440167285	74.3009891885308	0.3376403081062591	-0.1918895711835153	0.5295298792897745	126.52318739813572
18	7.0	ltm	451	diff_vonmises	0.0999372902969185	5.725984949987145	0.8599182032625187	106.93450163940034	0.8395067273442606	107.46549571683676	0.251247116141478	-0.2172235596282643	0.4684706757697423	96.44315933485714
19	7.0	perception	451	diff_vonmises	-0.0128624927457017	-0.7369665483463503	1.417457313543096	3.80362081933654	0.5161848266404262	4.197453225370545	0.543757200427601	-0.2942236159012368	0.8379808163288378	94.00053710317368
20	7.0	wm	451	diff_vonmises	0.1578090966643273	9.041795207637993	1.187956568827489	2.3078564163243738	0.4475437508547116	2.749662255946148	0.218249288334673	-0.1890409465401418	0.4072902348748149	99.69098926068555
0	1.0	ltm	140	diff_vonmises	-0.2296692023873276	-13.159075980929806	1.6614815003036767	0.4326176037038201	6.618592267428862e-14	1.1509424912898614	0.0162214011120591	-0.1759905631417699	0.192211964253829	105.53570512616297
1	1.0	perception	140	diff_vonmises	-0.0590470443004821	-3.383146431139627	14.5823068846158	0.6927472323385048	1.6789181495412235e-21	1.662778216443243	0.7810331250608658	-0.2646393724122418	1.0456724974731075	35.485881798344934
2	1.0	wm	140	diff_vonmises	-0.2434801838335634	-13.950386928732602	0.0006004145876036	1332.4627315631185	6.63186988014388e-24	1333.25609581553	0.0010799573786641	-0.2535774173093728	0.2546573746880369	178.27659341838148
3	2.0	ltm	140	diff_vonmises	0.0738900595852828	4.23358856220688	4.27630011863937	0.4626392532416705	0.3771020795044487	0.8351927352819691	0.1817448891795812	-0.126321968403556	0.3080668575831372	60.67002621019964
4	2.0	perception	140	diff_vonmises	-0.0098504711237931	-0.5643904216088385	6.8977209140413525	1.368478039152511	0.5853229794903836	1.5451171799412893	0.999566853355702	-0.2634436289003419	1.263010482256044	49.12444823245068
5	2.0	wm	140	diff_vonmises	0.0369340454260688	2.116164923258208	4.792074624312992	0.3944530727172179	0.2519315301773478	0.793877967302774	0.1743684054827748	-0.1235722121716895	0.2979406176544643	58.82965455128653
6	3.0	ltm	140	diff_vonmises	0.1082820599668444	6.204105033082676	1.760375877176541	35.60150071829157	1.7142318678760735	35.7917489225661	0.1832761049892397	-0.1098266209328953	0.293102725922135	68.11688008638458
7	3.0	perception	140	diff_vonmises	-0.0135628090089242	-0.7770917145533727	4.939069274485099	1.773291955251647	0.4355568005268144	1.838700985816516	1.0959562531855902	-0.2753936530986562	1.3713499062842465	58.209455437619454
8	3.0	wm	140	diff_vonmises	-0.0624919756104397	-3.5805264559126724	3.111718666347933	0.8299759992164425	0.799169337845652	1.1239351175422947	0.2138754366819007	-0.1339336293585288	0.3478090660404296	64.9965203666859
9	4.0	ltm	140	diff_vonmises	-0.1827852883404496	-10.472825578989578	1.610387695557386	101.95570551056892	1.5875382520250756	102.57639677500605	0.1206589109330451	-0.2014966878037078	0.322155598736753	66.70711217992661
10	4.0	perception	140	diff_vonmises	-0.0773744256588645	-4.433228032501681	2.9677266704023437	1.9333817666407656	0.1127193531844314	2.715992549697076	0.776080402412278	-0.3926277311889613	1.1687081336012397	76.79051022639803
11	4.0	wm	140	diff_vonmises	-0.105123306664868	-6.02312180035642	1.3874534168029735	224.9172973436634	1.3746555143384385	225.7971394228713	0.1540427885743156	-0.2646923816773459	0.4187351702516615	71.83530530346027
12	5.0	ltm	140	diff_vonmises	0.0357077492351469	2.045903327085416	1.8225449983905864	0.8552290921632663	0.1170542668170591	1.0018817792762151	0.2383830307147115	-0.1304636524221291	0.3688466831368407	96.92351159737449
13	5.0	perception	140	diff_vonmises	-0.0155793634288597	-0.8926317719741237	2.0872073740999064	2.0736987879628983	0.2130357441703023	2.0149885499534395	0.7053150649923723	-0.2418235752674397	0.947138640259812	89.34286755752086
14	5.0	wm	140	diff_vonmises	0.1195820383656341	6.851546103922326	1.6155510460856293	0.9519493711566008	1.2255627069593866e-15	1.06855834165828	0.2612786096330233	-0.153022024356383	0.4143006339894063	106.93467373472843
15	6.0	ltm	140	diff_vonmises	-0.1777037867766797	-10.181676985796434	0.4722351997775045	105.72918086107204	0.4610435334545809	105.82217178880484	0.1976722763366751	-0.1462081216908419	0.3438803980275171	129.63537867804632
16	6.0	perception	140	diff_vonmises	-0.0200349468846884	-1.1479178992614276	0.7478423854481894	225.5443694450882	0.7358497709351192	225.64903043084544	0.4857732597155859	-0.2489320040324436	0.7347052637480296	107.80522769157298
17	6.0	wm	140	diff_vonmises	-0.0109084072868856	-0.6250056987483024	0.9218582565108644	1.7421791696314153	1.142346352103082e-18	1.7974458944881582	0.2834061573215578	-0.1959612314297343	0.4793673887512921	131.91458095498723
18	7.0	ltm	140	diff_vonmises	0.0886785724002088	5.080907931777272	1.1494492310250692	121.15720153065897	1.1299221153840997	121.78132503545665	0.212227207470363	-0.2135235088095211	0.4257507162798841	81.80216126309298
19	7.0	perception	140	diff_vonmises	-0.0032644546631129	-0.1870394746081705	2.009841819983494	1.6334273352315452	1.6341407981687077e-18	2.26775580109138	0.4842312169834749	-0.3457463677051384	0.8299775846886133	96.79455243432476
20	7.0	wm	140	diff_vonmises	0.0674051261849675	3.862029247945393	0.5766693977186429	33.78825395696896	0.5372859744336098	34.384409458951545	0.0994103998473896	-0.1942583933793424	0.2936687932267321	115.38522156837878
0	1.0	ltm	19	diff_vonmises	-0.0433223240268292	-2.482186325435517	5.685250600039813	0.3191561526042942	5.6296768058943136e-14	2.6485454056301507	-0.1253299878488343	-0.4215256765634185	0.2961956887145842	57.1861797602956
1	1.0	perception	19	diff_vonmises	-0.0408222924147791	-2.3389450654157584	14.920182354199031	0.6858883033077521	0.027405791639716	3.151269478016208	0.5321534417138997	-0.5078370515835552	1.0399904932974549	34.92415156965029
2	1.0	wm	19	diff_vonmises	-0.0133510961736963	-0.764961462626061	5.665659460591895	0.3688950851058465	0.0023128793578823	2.9246262196700883	-0.1247562906666699	-0.4649306207522302	0.3401743300855602	57.11570353769724
3	2.0	ltm	19	diff_vonmises	-0.0753133418283571	-4.315136627790951	3.139943547061133	0.7123789773727783	0.1800574150117118	2.002004081205194	0.100377954770919	-0.295516483272017	0.3958944380429361	70.67330521171402
4	2.0	perception	19	diff_vonmises	-0.0425404711429395	-2.4373894549885047	7.503045215498977	1.1466825737818778	0.2212657609698621	2.506561031218585	0.738784915645017	-0.4169366402880592	1.1557215559330762	48.006992672009744
5	2.0	wm	19	diff_vonmises	-0.0092690552835569	-0.5310777478212498	3.818064338674059	0.7108714858613823	0.1976222096671983	2.1621393293545137	0.1174971182914964	-0.3304545778673228	0.4479516961588192	64.36778033428982
6	3.0	ltm	19	diff_vonmises	-0.0290589643860437	-1.664956016341273	1.7382865491051516	2.4358911845550177	0.7260157574299381	3.325933662352247	0.1911199791774253	-0.2632784148000687	0.454398393977494	78.09984281470417
7	3.0	perception	19	diff_vonmises	-0.0339475542847001	-1.945051585304572	4.023739975690921	2.1508569704240887	0.3482269571078162	3.0022573935098	1.0022470633447538	-0.4358134863147107	1.4380605496594645	63.62108932053391
8	3.0	wm	19	diff_vonmises	-0.0783792112009662	-4.490798003379872	2.202357769395904	1.6122127159806907	0.5706845414390671	2.6866572847577603	0.1827324435775966	-0.2975231770873871	0.4802556206649838	74.0695877959833
9	4.0	ltm	19	diff_vonmises	-0.1456725394882131	-8.34642170362744	1.485573200413135	2.96172969504231	0.6072516836299828	4.369793982701685	0.1089494159469917	-0.3492830438791782	0.4582324598261699	82.26625678646931
10	4.0	perception	19	diff_vonmises	-0.0959394863051312	-5.49692765393718	2.208694040724584	3.0194042704865827	0.3240436221550465	4.399739002073472	0.7100551756235145	-0.5254360095663313	1.2354911851898458	81.84312508162068
11	4.0	wm	19	diff_vonmises	-0.1651123280376879	-9.460239542139089	1.0174429987321056	359.8606558034293	1.0081711800055446	361.4702351630106	0.0779374150594236	-0.390266331115555	0.4682037461749786	81.2435638236555
12	5.0	ltm	19	diff_vonmises	0.0050012197270515	0.2865487827776211	1.1324941879174053	2.815326654687776	0.3290065109758515	3.739755050527203	0.226960802803798	-0.311054351031018	0.538015153834816	104.11714947989566
13	5.0	perception	19	diff_vonmises	-0.0286262919008847	-1.6401657090302253	2.119103719799346	2.4094586466679053	0.169686107714785	3.269169771977803	0.6749477967671921	-0.4236837732846799	1.098631570051872	88.09899055642956
14	5.0	wm	19	diff_vonmises	-0.0494435281393828	-2.8329054866229595	0.6904136577099623	198.0766155917579	0.6778347062052228	199.05040487479943	0.2015529811288061	-0.3108007002071424	0.5123536813359486	104.52156907289002
15	6.0	ltm	19	diff_vonmises	-0.1226271864601433	-7.026020237730008	0.4025370397545725	58.282723823744696	0.3742105085117365	59.050549372776125	0.1304909373400047	-0.2855640382704703	0.416054975610475	133.8306760972068
16	6.0	perception	19	diff_vonmises	-0.0260290985706445	-1.491357492627937	1.0766093358569166	2.3383620535663643	0.0287533422052312	3.1819873840611548	0.3116814795876397	-0.3952726371353451	0.7069541167229848	123.7377475102711
17	6.0	wm	19	diff_vonmises	-0.1557787068169291	-8.925462438615869	0.490561616772227	168.57191376734187	0.4786675632094514	169.34603901615307	0.1858961876654135	-0.30132111248993	0.4872173001553435	124.06192772917224
18	7.0	ltm	19	diff_vonmises	0.0544253590315472	3.118343370991877	0.8110036894545849	195.57241144953423	0.797604060193661	196.59157928617336	0.1914401367010754	-0.301828647259807	0.4932687839608825	95.7475286666297
19	7.0	perception	19	diff_vonmises	-0.0211615192749132	-1.2124657425372722	0.8057454982721879	137.2511663801558	0.7782308655822531	138.16239369357115	0.4482746497842171	-0.389919841482202	0.8381944912664192	100.08770451027657
20	7.0	wm	19	diff_vonmises	0.1341175489787084	7.684369515119095	0.9096115335341746	34.88111305193531	0.8408217136051697	35.854559552024	0.1542660750211286	-0.2730854686730528	0.4273515436941815	91.0324453803088
0	1.0	ltm	359	diff_vonmises	0.0212045352717947	1.2149303776101308	5.147502418250301	0.3303785079875649	6.723328214663307e-14	3.3912008426123386	-0.2487845618755336	-0.539716542131659	0.2909319802561254	60.15873146407364
1	1.0	perception	359	diff_vonmises	-0.0245275748250631	-1.4053265191674444	14.894135634261664	0.6110737052521977	0.0061789434046444	3.730501401817514	0.3349345070427406	-0.5951171843503189	0.9300516913930597	35.05549663037823
2	1.0	wm	359	diff_vonmises	-0.0132313126270774	-0.7580983709496903	3.626128270924299	0.5035647752391368	0.0465032384768366	3.8141479344550127	-0.2687584638426926	-0.5971665888535881	0.3284081250108954	67.92973048637765
3	2.0	ltm	359	diff_vonmises	-0.0038727062236607	-0.2218897219098066	2.863347009505699	0.8263863658625724	0.1793832423140279	2.562026024337823	0.0430136317365135	-0.3748377919679279	0.4178514237044415	72.80463325587212
4	2.0	perception	359	diff_vonmises	-0.026551701988548	-1.5213004628329203	6.760167859812049	1.246430704643703	0.2061819398345987	3.0692995410964783	0.6727798022768962	-0.5038650811181926	1.1766448833950889	50.337824606531655
5	2.0	wm	359	diff_vonmises	0.012447838322419	0.7132085999358199	3.580700380695423	0.8242347101412357	0.1681333626369201	2.8262013595908737	0.0678311084105153	-0.4305867914980093	0.4984178999085246	66.32928586534334
6	3.0	ltm	359	diff_vonmises	-0.0024729504134885	-0.1416896216380243	2.8138900949137016	1.042873135296802	0.201551520784069	2.681234172483249	0.1416568555859205	-0.3842004179304366	0.5258572735163571	73.73683559831176
7	3.0	perception	359	diff_vonmises	-0.0245850023498039	-1.4086168739629783	4.098730415069617	2.249988404021248	0.1996229048107545	3.836998724982414	1.01465720930064	-0.575547332988555	1.590204542289195	64.27508845054376
8	3.0	wm	359	diff_vonmises	-0.0355375951287081	-2.036154214919648	3.1983967376577858	0.9226407057108243	0.1237438484319752	2.861218720366165	0.113240951426261	-0.4295235182749392	0.5427644697012002	71.42051190566247
9	4.0	ltm	359	diff_vonmises	-0.0702493625422177	-4.0249919871534905	2.234521050539899	0.8463734476649728	0.008361814130326	3.3174039131060007	-0.0656840811397775	-0.5182277773618654	0.4525436962220878	91.03207758718796
10	4.0	perception	359	diff_vonmises	-0.0558016674115431	-3.197200032474128	1.6777409303242867	4.339316730945981	0.3392568990397516	6.613387053857585	0.5758775049062124	-0.701435179232364	1.2773126841385762	89.34412090588475
11	4.0	wm	359	diff_vonmises	-0.0830855186486379	-4.760449557222448	0.7324787615713334	257.7935958309822	0.718306491255603	260.5439835510005	-0.0952214553654897	-0.5752664256622744	0.4800449702967846	91.703471415562
12	5.0	ltm	359	diff_vonmises	-0.0287905564733009	-1.6495773757531966	1.5606446836181307	1.574681971361632	0.0993186256233629	2.855535928936739	0.1979655962459109	-0.3796792447660362	0.5776448410119471	102.01164388993428
13	5.0	perception	359	diff_vonmises	-0.0277330526961602	-1.5889868725038894	1.3473772096448562	5.407267929929956	0.452096153137451	6.641897452844799	0.615938835355482	-0.5120379971130713	1.1279768324685533	95.25123202791347
14	5.0	wm	359	diff_vonmises	-0.0275535337437952	-1.578701194190769	0.6411530436569182	66.41466274702094	0.5974068548627014	67.8505180721015	0.1702391032985843	-0.4110279486573933	0.5812670519559777	107.96483766735298
15	6.0	ltm	359	diff_vonmises	-0.1053217467583993	-6.034491580201942	0.9151950317357782	1.6783541867408085	3.4702081614271286e-20	2.779090809157439	0.1041924246899349	-0.354674430623379	0.4588668553133139	132.10595811071917
16	6.0	perception	359	diff_vonmises	-0.0141375003031477	-0.8100191002352856	1.0659135549899754	2.879630134464822	0.12064721033431	4.028373994804594	0.2990683175343547	-0.4452373160606516	0.7443056335950063	118.34921746089913
17	6.0	wm	359	diff_vonmises	-0.0172754931857471	-0.9898128485503256	0.4607191600719129	269.5012512645998	0.4522053156563747	270.70740927412004	0.1388416827055465	-0.3847647335142525	0.5236064162197991	125.18438842291953
18	7.0	ltm	359	diff_vonmises	-0.0894359656727155	-5.12430336972351	0.8233798632088943	208.17709590714963	0.8070314451527341	210.15378195388843	0.0469892880333446	-0.4560655354739751	0.5030548235073198	89.93655831125471
19	7.0	perception	359	diff_vonmises	0.076681930154097	4.39355096274672	0.6358605835985767	231.0946650148383	0.6168598680906675	232.98739607817024	0.3243466754650299	-0.5908735098386728	0.9152201853037027	108.67907510615096
20	7.0	wm	359	diff_vonmises	0.033358058911865	1.9112759883986297	0.7830365552143327	127.11624106985327	0.759695487067295	129.1668233568248	-0.0402930627289563	-0.440403345871422	0.4001102831424656	89.94669021350936
0	1.0	ltm	405	diff_vonmises	0.0237089627548512	1.3584235024858382	6.471572495417668	0.309083279038404	0.0433088515314018	3.2753304063509003	-0.2370196346186644	-0.5245494668339845	0.2875298322153201	51.64034529742804
1	1.0	perception	405	diff_vonmises	0.0019865317504745	0.1138198851709273	12.254133388032187	0.6946289461229296	0.0663574338352256	3.737240793508532	0.3248559865295082	-0.6123962038334748	0.937252190362983	38.20488237422396
2	1.0	wm	405	diff_vonmises	0.0067941951121385	0.3892787051139535	4.231265205066529	0.5028403038090363	0.093963802648232	3.736777333263932	-0.253300117674393	-0.5911694163844113	0.3378692987100183	61.19126205680928
3	2.0	ltm	405	diff_vonmises	-0.0060050731759828	-0.3440653486510404	2.752963420900901	0.9138879807664182	0.3045834399068837	2.402390841135217	0.0630421391920843	-0.3376935602517713	0.4007356994438557	71.01979188448692
4	2.0	perception	405	diff_vonmises	-0.0168776108438108	-0.9670158696145912	7.031100783461916	1.2609626101952904	0.2899747818881937	2.8987788635094263	0.70462038873165	-0.4881757024782118	1.192796091209862	48.90135088628648
5	2.0	wm	405	diff_vonmises	0.0399280267298883	2.2877074159081383	3.813348046387865	0.7392953401367846	0.1932784313931073	2.4879475183888893	0.0777630525940047	-0.3822145901997898	0.4599776427937946	64.0532847740246
6	3.0	ltm	405	diff_vonmises	0.040073641356281	2.2960505194358163	2.586581623471115	1.1107570249476209	0.4305261828849245	2.2960960022312635	0.1309125078729468	-0.2995012915554239	0.4304137994283707	71.36952730817057
7	3.0	perception	405	diff_vonmises	-0.0096305627988549	-0.5517906027100868	4.812427931736813	1.8547590658474955	0.2484710690911368	3.0602905639750566	0.96068117647611	-0.4714861605084066	1.4321673369845167	59.26200259559761
8	3.0	wm	405	diff_vonmises	0.0148811438227341	0.8526267353698409	3.4233777106639574	0.746752864706407	0.1872194620804749	2.2393625924976157	0.1008414549459724	-0.3362612535395189	0.4371027084854914	67.67883814809645
9	4.0	ltm	405	diff_vonmises	-0.0836659395776752	-4.793705226797347	1.2217493723776702	2.773197139252985	0.3915449247751743	4.876685240297583	-0.0428168488911457	-0.4474234012771543	0.4046065523860085	90.7599081502796
10	4.0	perception	405	diff_vonmises	-0.0461157890060901	-2.642240078964767	2.234280045284378	2.6066011377261136	0.2015754283339273	4.621875065946541	0.5464221852126595	-0.6088573771222119	1.1552795623348713	83.48251190824143
11	4.0	wm	405	diff_vonmises	-0.0851916737943992	-4.881123358074335	0.830768285558131	254.386079718446	0.8169702016071831	256.7363665347584	-0.0511228599111746	-0.5044526702453602	0.4533298103341856	86.737304951407
12	5.0	ltm	405	diff_vonmises	-0.0164246004797293	-0.941060287677038	1.993333401227128	1.1631380305069283	0.0130256629273082	2.24045380869509	0.2375963199621903	-0.3408345153470151	0.5784308353092055	96.4013693631228
13	5.0	perception	405	diff_vonmises	-0.0493736213933457	-2.82890012511554	1.9217335493830872	2.9555685096978244	0.2577490640527875	3.970219273416308	0.6840658948442627	-0.4637587139560494	1.147824608800312	89.07787731855507
14	5.0	wm	405	diff_vonmises	0.012949231156474	0.7419362932052725	1.3075878271263468	2.27362498432922	0.2310001487807775	3.4207099884947216	0.2299731211484429	-0.3607995223080056	0.5907726434564486	102.65936169771044
15	6.0	ltm	405	diff_vonmises	-0.0694616267846078	-3.9798580528709033	1.1428830452901553	1.462456104027045	2.846004749938554e-18	2.206983696240969	0.1877255131105695	-0.2964403958558416	0.4841659089664111	122.83019354978556
16	6.0	perception	405	diff_vonmises	-0.0475175210029018	-2.722553406390525	1.2577795445922844	1.944141755231371	1.2735694572978816e-18	2.769646813763025	0.3169404721551358	-0.3795620802434077	0.6965025523985435	118.57008889014318
17	6.0	wm	405	diff_vonmises	-0.0469970181584407	-2.69273079017835	0.5134961214270877	201.25306359220613	0.5027534009289395	202.01290720017624	0.2167062446683516	-0.3108356322306989	0.5275418768990505	122.20739248768538
18	7.0	ltm	405	diff_vonmises	-0.0307379938107493	-1.761157316055186	0.8008309730981567	253.60788296384703	0.7887078710671724	255.15343531916645	0.1211729949176998	-0.3896539507063181	0.510826945624018	93.45333957255995
19	7.0	perception	405	diff_vonmises	-0.0278581453318953	-1.596154152579678	0.7457294263600499	295.067337995457	0.7312993373710046	296.43225730555395	0.4160400777557669	-0.484905236896644	0.9009453146524108	101.95060720020037
20	7.0	wm	405	diff_vonmises	0.1180419679142595	6.763306566905753	0.8307007038155603	107.426642916687	0.8046812096420569	108.92315455454133	0.077953653691452	-0.3611322630164828	0.4390859167079348	91.07420137687066
0	1.0	ltm	480	diff_vonmises	0.0137095234223617	0.7854978312370746	5.50548472080864	0.2717448343405506	0.0070968266742111	2.536115474742122	-0.1585116223997715	-0.4027659672213837	0.2442543448216121	57.60478969971064
1	1.0	perception	480	diff_vonmises	-0.0014681589060808	-0.0841193089729781	11.743651650101588	0.699600948400466	0.0566925536653704	3.108184935000703	0.4227204186159764	-0.5058350888024771	0.9285555074184536	39.15089112043816
2	1.0	wm	480	diff_vonmises	0.0623532360179206	3.5725772628099626	4.586194255645149	0.4032048351636321	0.0150335670663675	2.7890776038238285	-0.1168000103895051	-0.4411810901586318	0.3243810797691266	62.78239437552847
3	2.0	ltm	480	diff_vonmises	0.0093336771313767	0.534780306965662	3.013619139238628	0.7852916997110104	0.3456904921823234	1.9159343135009808	0.0973490440922506	-0.2722120792485767	0.3695611233408273	68.31499875800222
4	2.0	perception	480	diff_vonmises	-0.0053243140426773	-0.3050607234476492	6.787718637652932	1.2809097387253805	0.3316523799769141	2.3960432413146364	0.7877910239106174	-0.4015344116689468	1.1893254355795642	49.79571738502756
5	2.0	wm	480	diff_vonmises	0.0704868547331473	4.038599287361071	4.266130159890274	0.615383385303862	0.2163770374569128	1.859541212136002	0.1268211640190412	-0.2893286379116233	0.4161498019306645	61.06970519221457
6	3.0	ltm	480	diff_vonmises	0.0426398655760288	2.4430843365116157	2.5533703698293064	0.94367781862555	0.5116055897601167	1.7090772374384684	0.1376588366825245	-0.2119510408691831	0.3496098775517076	71.18324598256734
7	3.0	perception	480	diff_vonmises	-0.0045691482304755	-0.261792909575917	4.838132857741615	1.6353981367922406	0.2320053668234289	2.3911905452193425	0.919794118666964	-0.36641267725914	1.286206795926104	59.53284432887361
8	3.0	wm	480	diff_vonmises	0.002924020931792	0.1675340585995933	3.2011649897121157	0.7330938077986776	0.3132545406875693	1.67571890323895	0.1421152718036941	-0.2406747503746932	0.3827900221783873	68.00361020830195
9	4.0	ltm	480	diff_vonmises	-0.1235304758772567	-7.077774909009437	1.1746594336506908	5.681029106045518	0.763023010625643	7.161869629446322	0.003155866433671	-0.3336228720416162	0.3367787384752873	81.4804170374349
10	4.0	perception	480	diff_vonmises	-0.072587673236845	-4.158967321145942	2.293668003313805	2.545300989412878	0.2381302067450135	3.994838707328781	0.6301585943086065	-0.5124837652446079	1.1426423595532145	82.31739130842965
11	4.0	wm	480	diff_vonmises	-0.0812165145809436	-4.653363512250783	1.0220669643584297	321.58434051202687	1.0118676113472078	323.2818408823669	0.0356565721309749	-0.3974020783256122	0.4330586504565872	79.95237089938357
12	5.0	ltm	480	diff_vonmises	-0.0107367844700797	-0.6151724356771774	1.605249935703518	1.2796560800521453	0.1005626387161145	2.182072174386753	0.1945068074695444	-0.2899716294897257	0.4844784369592702	101.14864928590004
13	5.0	perception	480	diff_vonmises	-0.0466421063471548	-2.672395841292323	1.8936039314321629	2.898484522286298	0.3060218066301931	3.689436574861225	0.6674751226825587	-0.4079784883407768	1.0754536110233357	88.65731143228285
14	5.0	wm	480	diff_vonmises	0.07001181706905	4.011381634098543	0.6926492980185648	87.891177768225	0.6647879923468022	88.78916223798169	0.2167384020374463	-0.3023991049306529	0.5191375069680992	105.55333049063674
15	6.0	ltm	480	diff_vonmises	-0.0791909599922575	-4.537307783145711	0.5056358141212208	173.43258444179762	0.4945384425704388	174.15501104796058	0.1821968613582001	-0.2830678293392381	0.4652646906974382	122.65769736389746
16	6.0	perception	480	diff_vonmises	-0.0697954409549409	-3.998984195972653	0.6247279865010333	139.06879274756105	0.6020271347801233	139.83284032910342	0.3950770343390815	-0.38188791843681	0.7769649527758915	113.9823138441294
17	6.0	wm	480	diff_vonmises	-0.0572574283993768	-3.280608993056796	0.5587947684041714	135.44243315753872	0.5418670227867518	136.1355575682722	0.2550859379421197	-0.306910417488007	0.5619963554301268	118.78181512721756
18	7.0	ltm	480	diff_vonmises	0.0275220365722441	1.57689653919429	0.8069251438117895	202.23808908453248	0.7925514465188094	203.7055376564633	0.111607693539284	-0.3683618381664573	0.4799695317057413	93.06704566226917
19	7.0	perception	480	diff_vonmises	-0.0384987060543127	-2.2058133736268686	1.9751756162021008	2.329116633563943	0.1507688413505092	3.654970624294205	0.5199618005957245	-0.4790090547100334	0.998970855305758	90.6269340831326
20	7.0	wm	480	diff_vonmises	0.1942504428524413	11.129730543992077	2.1211284960872074	1.0205651672405849	0.1384700657709552	2.3824342873484188	0.1120773661089403	-0.329477223596177	0.4415545897051173	85.90423681828239
0	1.0	ltm	169	diff_vonmises	-0.0432213093129611	-2.476398608662153	4.017064854998664	0.3338365356082715	6.209422868666514e-17	1.826415549644705	-0.0334490760114838	-0.290599642755548	0.2571505667440641	68.31832020952541
1	1.0	perception	169	diff_vonmises	-0.0330327324456327	-1.892636154919612	12.6862238440175	0.675354467371389	0.0006347696612945	2.394018953791144	0.5685434827628779	-0.3810364396792235	0.9495799224421017	38.05188547732283
2	1.0	wm	169	diff_vonmises	0.0623900943645188	3.574689090509874	4.2124627290007135	0.4394864497265429	3.6618678593911083e-17	2.006045871301044	0.028241302203936	-0.3191958780910947	0.3474371802950308	66.67040119449632
3	2.0	ltm	169	diff_vonmises	-0.0064761885215508	-0.3710582696159323	2.5562548799737588	1.1758051355159227	0.6698194535797971	1.9184361781154515	0.1671679986137596	-0.222752648129605	0.3899206467433647	69.05110357748922
4	2.0	perception	169	diff_vonmises	-0.0096227946368232	-0.5513455198110977	6.501941097729315	1.2678253470876597	0.3507328935824141	1.9054617596864565	0.844897689190179	-0.3141215892676818	1.159019278457861	51.078866142257255
5	2.0	wm	169	diff_vonmises	0.059638611374258	3.4170407277658947	4.524122128893221	0.5589913836057572	0.2681726434636921	1.3243762759336184	0.1886656768555916	-0.2061517517215195	0.3948174285771112	59.61108728918211
6	3.0	ltm	169	diff_vonmises	0.0258157884356447	1.4791357221650796	2.1103608591416845	1.3575487534269732	0.7341755695740187	1.8582301549197584	0.1824640525809622	-0.1719591970456208	0.354423249626583	74.33479678402057
7	3.0	perception	169	diff_vonmises	-0.0131145412245803	-0.7514078624187865	4.728320608545785	1.599295750143209	0.2422485473407582	2.0619176388244105	0.9339036681330624	-0.3123661218112534	1.246269789944316	60.33215142976417
8	3.0	wm	169	diff_vonmises	-0.0281455687347967	-1.6126223004992206	2.433743254883776	1.1971749746513758	0.6670618342744695	1.776311593024759	0.2001466545308062	-0.1935963211610999	0.3937429756919062	71.45988913804348
9	4.0	ltm	169	diff_vonmises	-0.1812157169593967	-10.382895763210731	1.5143729723505237	4.323491629299582	0.9717560434289976	5.282580108304978	0.1067074805216976	-0.2591106516073768	0.3658181321290745	75.01924288905153
10	4.0	perception	169	diff_vonmises	-0.0944077106965663	-5.4091633764053295	2.441868051023514	2.337437980726812	0.1903443805289446	3.361124378541	0.71729228360287	-0.4472465334891374	1.1645388170920077	81.93739311968503
11	4.0	wm	169	diff_vonmises	-0.110837134958826	-6.3505000464626455	1.212325784852225	265.0298142867227	1.2004417535463854	266.1891821255916	0.1415705812706846	-0.3175142561401429	0.4590848374108276	76.12657009277302
12	5.0	ltm	169	diff_vonmises	-0.0124298157005729	-0.7121759797682781	1.219240838423279	1.7867724963239409	0.2112129050153676	2.2443949881099687	0.2474308819871116	-0.2263075273633891	0.4737384093505007	109.06424470801186
13	5.0	perception	169	diff_vonmises	-0.0436863074905894	-2.503041041721528	1.86185291360744	2.715950727013657	0.3304028401353999	3.025560820735664	0.6894047725444074	-0.3161588304705655	1.0055636030149728	89.88151147184277
14	5.0	wm	169	diff_vonmises	0.0770913918120873	4.417011387621999	0.750012199237933	127.09250281600204	0.7339314627489755	127.47740197147697	0.2780483376875082	-0.2103739263670281	0.4884222640545363	104.66979241018612
15	6.0	ltm	169	diff_vonmises	-0.0874240013874229	-5.009026307645185	0.4712779839113687	146.97696566570016	0.4606134820474873	147.28547930976146	0.2174540047826596	-0.2114482397067778	0.4289022444894375	128.53441524568225
16	6.0	perception	169	diff_vonmises	-0.0608374429305526	-3.4857287162886754	0.6844119094262536	228.78976834736503	0.6714702967989951	229.1215596609219	0.4710894359083042	-0.3067616488828619	0.7778510847911662	111.10687883892044
17	6.0	wm	169	diff_vonmises	-0.0751238622960156	-4.304280250283669	0.5968967804121293	57.23742951967847	0.5622188518546759	57.45737992430452	0.3180311371620554	-0.2267901132415346	0.5448212504035901	119.24394175507562
18	7.0	ltm	169	diff_vonmises	0.0512510706330103	2.9364700427983674	0.8661061918140285	114.00938708211258	0.8422184719236236	114.997776504223	0.21152522704174	-0.2997036668408483	0.5112288938825884	93.27862357605365
19	7.0	perception	169	diff_vonmises	-0.0390636215544085	-2.2381806475638792	2.4785619519105286	1.856025616785676	0.0449242804133739	2.744811491794913	0.6316297024950746	-0.4097943042835107	1.0414240067785854	85.6447837264952
20	7.0	wm	169	diff_vonmises	0.2061173738982187	11.80965560868789	2.4680604853669545	0.8012646798684919	2.991314760771977e-16	1.649145351510588	0.2062009379850755	-0.259103360936148	0.4653042989212236	87.52380733099164
0	1.0	ltm	290	diff_vonmises	-0.0543315571990074	-3.1129689218767504	2.4808040668345352	0.4433441380827781	4.917633342172327e-23	2.783344474607935	-0.1828756655217139	-0.4411618307734547	0.2582861652517408	87.3278466816983
1	1.0	perception	290	diff_vonmises	-0.0347748115632879	-1.9924499359391337	13.676285613970103	0.7050423000365612	2.7520089906104337e-17	3.214144541120932	0.5187968657189997	-0.5115469915298668	1.0303438572488666	36.6443975335539
2	1.0	wm	290	diff_vonmises	-0.0092736653062596	-0.5313418826655718	3.221905936794975	0.4710485085483825	4.9131418810654435e-21	2.9502436105391303	-0.1483317565500989	-0.4690349064447932	0.3207031498946943	76.50098694046662
3	2.0	ltm	290	diff_vonmises	0.0310617847949445	1.7797091728939545	3.2708379513409973	0.691043704846483	0.1703869777413415	2.075800299693781	0.0863682453962154	-0.3099663062537907	0.3963345516500061	69.43807505295857
4	2.0	perception	290	diff_vonmises	-0.0216705409998595	-1.2416305390571645	6.540745340567218	1.3665860947460169	0.2272172174223507	2.680895767225413	0.836728702270767	-0.4370045213554325	1.2737332236261996	51.296700579055
5	2.0	wm	290	diff_vonmises	0.0040721632459328	0.2333177674802471	3.740223504123412	0.6872203341308811	0.1256006485376209	2.198300259169714	0.1141252059804696	-0.3364051381202798	0.4505303441007495	66.52696749036119
6	3.0	ltm	290	diff_vonmises	0.0348541319900789	1.9969946616234304	3.2949790895473376	0.6541725145370785	1.1541839744992842e-14	1.7309924190773651	0.176303156622688	-0.2748751838859201	0.4511783405086081	75.62080676240856
7	3.0	perception	290	diff_vonmises	-0.013547727898276	-0.776227630562861	4.179583715915209	2.134220428970759	0.1775438979863577	3.0983863166334684	1.096250586758668	-0.4640657495936373	1.5603163363523054	64.34122921057309
8	3.0	wm	290	diff_vonmises	-0.0864256246071329	-4.95182353177071	3.391216125880727	0.8392216347115923	0.0991645102584115	2.046627405797059	0.2302175752387331	-0.3085157412154984	0.5387333164542316	71.09651877793203
9	4.0	ltm	290	diff_vonmises	-0.1351208720084489	-7.741855690211506	3.222040494616301	0.5436439799139412	2.764455506381506e-21	2.5063224681463883	-0.0281391598100084	-0.3983041068648941	0.3701649470548857	76.49168438464659
10	4.0	perception	290	diff_vonmises	-0.054750519212531	-3.1369736770279544	1.8127713259217697	3.823627405837415	0.2944266920903999	5.766069588086864	0.6527709607303664	-0.6527147589502938	1.3054857196806604	88.7119889729554
11	4.0	wm	290	diff_vonmises	-0.0695697131010561	-3.986050942626506	0.8589763796087846	316.99402142443785	0.8479889637349447	319.2164451051661	-0.0306463389725024	-0.4842347174439894	0.4535883784714869	85.68134083525715
12	5.0	ltm	290	diff_vonmises	-0.0479424995256284	-2.74690288212646	1.5479741853463818	1.1423222050253796	7.916405788565276e-20	1.933902596574304	0.1965410542424106	-0.2849775111851906	0.4815185654276013	108.98218834299426
13	5.0	perception	290	diff_vonmises	-0.0175022664991113	-1.0028060023122884	1.4563902119389165	4.289826048349958	0.4053343536808524	4.905187101527036	0.7010549392890273	-0.4109761213811599	1.112031060670187	95.89786980469196
14	5.0	wm	290	diff_vonmises	0.0178893852913068	1.0249862752752958	1.3156710380763794	1.6223790857140354	0.0956448544248712	2.4998408912444634	0.2126590290774108	-0.3139973480435787	0.5266563771209896	110.6005694838252
15	6.0	ltm	290	diff_vonmises	-0.1019546428487096	-5.841570736994726	0.3609451656879966	81.9272371159522	0.3443743497952931	82.54844087087328	0.1108607897915838	-0.2408421471811426	0.3517029369727265	138.07501811367467
16	6.0	perception	290	diff_vonmises	-0.0201793945749402	-1.1561941422732631	0.5370782940441996	138.49068406679558	0.5165938286295397	139.10294766811498	0.3793506547077783	-0.3668796170581583	0.7462302717659366	122.43638830219524
17	6.0	wm	290	diff_vonmises	0.0207970875653182	1.191585343656743	0.4415923809467872	178.68292523236894	0.4309239115021391	179.3829402240981	0.1886043321745347	-0.2961521721638469	0.4847565043383817	129.61488227744178
18	7.0	ltm	290	diff_vonmises	0.0172487312110469	0.9882795003485688	0.884724416723881	127.83986991107848	0.8626864493002554	129.28291136098667	0.0817443186883437	-0.3500939379709695	0.4318382566593133	88.12741507561807
19	7.0	perception	290	diff_vonmises	0.124572347526741	7.137469757319221	0.7376573068602028	36.61297796788324	0.6263091002100327	37.99011953026417	0.4035873798251561	-0.497638735320872	0.901226115146028	106.09108777001632
20	7.0	wm	290	diff_vonmises	-0.0324921389121748	-1.86166242702041	0.6276944171119286	136.06752347271194	0.612251204526246	137.59877298596675	-0.011739914739941	-0.3420690902866141	0.330329175546673	101.96719842183244
0	1.0	ltm	48	diff_vonmises	-0.0122615782908123	-0.702536686232779	6.701578400676516	0.5490150004901279	0.1077282651689079	3.726053665048945	-0.1030259445652854	-0.6073736519730621	0.5043477074077767	49.97140513486903
1	1.0	perception	48	diff_vonmises	-0.0469070427379606	-2.687575578324921	15.034366774769062	0.6642176288974003	0.0504769535310353	3.8762331580238567	0.3699694271575631	-0.6330217666666819	1.0029911938242448	34.6296127297864
2	1.0	wm	48	diff_vonmises	-0.0434845485249624	-2.491481104512178	3.8977779924084417	0.8708390669083264	0.2120743156963323	4.472956098196208	-0.2102060914380109	-0.707143365665302	0.496937274227291	60.750370226827016
3	2.0	ltm	48	diff_vonmises	-0.1163999781358297	-6.669227482598105	1.949110589296142	2.2426147819842	0.5927318768037738	3.727710602257999	0.1542119405921307	-0.3822552335378854	0.5364671741300161	75.80975916682672
4	2.0	perception	48	diff_vonmises	-0.0671955741952947	-3.8500228033485695	7.153558612430186	1.0284395234975554	0.1936315359370513	2.663395227271626	0.5670889305094593	-0.4392596225487515	1.0063485530582108	49.051147985832415
5	2.0	wm	48	diff_vonmises	-0.0317281642659077	-1.817889904134305	3.336461999114901	1.0541646411091872	0.2983625269470182	2.7382908952096314	0.1586985261227144	-0.4029045645736513	0.5616030906963657	66.43867338012501
6	3.0	ltm	48	diff_vonmises	-0.0893925914075264	-5.121818207388695	1.1335220349033248	170.20927932740128	1.1090193571414697	171.63063577355217	0.2639373080020348	-0.4125807826614753	0.6765180906635102	80.42853867602753
7	3.0	perception	48	diff_vonmises	-0.055675460643259	-3.189968917305463	3.979690905917156	2.217655203323985	0.338340717997537	3.607411128299817	0.9175577700619206	-0.5299736113378959	1.4475313813998163	63.465748461341775
8	3.0	wm	48	diff_vonmises	-0.0369711106036228	-2.118288601498952	1.1424975186112938	72.8849078431551	1.0868137511170408	74.52413691687299	0.1715133915910911	-0.4327990626873514	0.6043124542784426	78.94518273386325
9	4.0	ltm	48	diff_vonmises	-0.1749118035417107	-10.021708129961429	1.46136200930289	3.295918780281168	0.4127986243330606	4.965970034386039	0.26030411806393	-0.4607473292469149	0.721051447310845	90.2823511848642
10	4.0	perception	48	diff_vonmises	-0.09674616124878	-5.54314672364721	2.204316743168717	2.788524543786066	0.2058666354138526	4.395594155291781	0.6746741715215451	-0.5686831127058728	1.243357284227418	84.61123790177882
11	4.0	wm	48	diff_vonmises	-0.2035244927700476	-11.661094463264568	0.9473637701932676	206.2962532784583	0.9277155890999156	208.12415069073376	0.1708086452219674	-0.4677192589960945	0.638527904218062	86.1491995773008
12	5.0	ltm	48	diff_vonmises	-0.0221799571995719	-1.2708179373162778	0.8532019134559915	9.933794184982702	0.5132445148418591	10.809152108756086	0.4234034145135408	-0.3997442502672512	0.823147664780792	108.18307547881966
13	5.0	perception	48	diff_vonmises	-0.0478174724838957	-2.7397393603101734	1.9730586655802649	2.673670859958129	0.1992220179926438	3.568337141048011	0.6817227545274773	-0.4413610528904596	1.123083807417937	90.00225691835524
14	5.0	wm	48	diff_vonmises	-0.0952807886203849	-5.459187056626179	0.8195700423675719	286.58295391663506	0.8083382706083246	287.4161193781527	0.3602768760602686	-0.3315866899963602	0.6918635660566288	98.2639971505676
15	6.0	ltm	48	diff_vonmises	-0.0556883832121722	-3.1907093259646557	0.8648948591033615	2.121243581706107	6.750365305163243e-19	2.571968168454005	0.2610354588645469	-0.2904679400636351	0.5515033989281819	134.39685332192022
16	6.0	perception	48	diff_vonmises	-0.0039844723261235	-0.2282934478735516	1.1760143106171477	1.8423600618762173	2.322325604988284e-13	2.43965448488934	0.3020401873999556	-0.3225797132474022	0.6246199006473578	121.59519355360064
17	6.0	wm	48	diff_vonmises	-0.1987184140730294	-11.385726437917691	0.5567429867694236	151.34515228054016	0.5433110193478801	151.70951285672078	0.289750861256401	-0.2505753870698068	0.5403262483262079	120.70559098637771
18	7.0	ltm	48	diff_vonmises	-0.0540461701263584	-3.096617447086368	0.6896187667858794	244.82715499259768	0.6769767879255569	245.64577295908407	0.3601053408585528	-0.3542276755143732	0.714333016372926	107.45347603089084
19	7.0	perception	48	diff_vonmises	-0.0675346760831681	-3.8694519103486384	0.8434848296830428	248.8661581812335	0.8280546827866896	249.5465267641474	0.5227544446483989	-0.3644488790279894	0.8872033236763883	98.7840168520616
20	7.0	wm	48	diff_vonmises	0.1371403871634119	7.857565385253595	1.341557863061255	4.293596933391325	0.69062336355284	4.99073342860612	0.3276310524652142	-0.2712569092492582	0.5988879617144724	88.52449310725063
0	1.0	ltm	457	diff_vonmises	-0.1548197678369087	-8.870519282250116	2.7191749958611933	0.3254849153170014	3.3492235745889753e-19	0.996967213121013	0.0427963283408281	-0.1577965345960532	0.2005928629368814	83.38576751764552
1	1.0	perception	457	diff_vonmises	-0.057485857717924	-3.293697028926597	13.98394428591625	0.6756023369852614	4.097128971551715e-24	1.595275770191649	0.7445019093540679	-0.2538960244200183	0.9983979337740864	36.23977674844036
2	1.0	wm	457	diff_vonmises	0.0277607770696559	1.590575362094841	4.788969161367199	0.3541662812599218	9.023831639846576e-19	1.0934971863531675	0.1260456265386048	-0.1740146999026862	0.300060326441291	62.42790133993901
3	2.0	ltm	457	diff_vonmises	0.0124226440748585	0.7117650758825926	2.721466289420732	1.1380813039432534	1.0140763189905422	1.4507116221125638	0.2051962447417116	-0.1421453658851794	0.347341610626891	65.64342909690657
4	2.0	perception	457	diff_vonmises	-0.0115773943186371	-0.6633358322166458	6.874702284867275	1.289421158560789	0.5381467206027118	1.473457828988609	0.9480943109633644	-0.2494846067103408	1.1975789176737053	49.3760050978245
5	2.0	wm	457	diff_vonmises	0.0504453579307486	2.8903061054586923	4.943786208825717	0.4118479307081914	0.3538666966138261	0.7528315383717477	0.18951190167472	-0.1181964423102704	0.3077083439849905	57.21813672501023
6	3.0	ltm	457	diff_vonmises	0.0895369406675948	5.130088810766446	1.803356734547657	84.58420541014998	1.7837383636484778	84.74003040197607	0.1968158306754404	-0.1059320471392606	0.302747877814701	67.53852647807037
7	3.0	perception	457	diff_vonmises	-0.0180661402047054	-1.0351135858212348	5.057338713522127	1.6235620104699495	0.4372062468075448	1.723737312981789	1.011240070253384	-0.2608014178286965	1.2720414880820805	57.51512580438444
8	3.0	wm	457	diff_vonmises	-0.039260209307864	-2.2494442961408416	1.7399829815765304	46.21889168104251	1.6989640456193584	46.47244578316631	0.1974806793648014	-0.1309618101892562	0.3284424895540576	67.98129724718902
9	4.0	ltm	457	diff_vonmises	-0.1995198254979487	-11.431643930219131	1.695031877402248	124.0421930106668	1.676331834849851	124.54492137318634	0.1565785054773769	-0.1847421299838458	0.3413206354612228	66.14859866166384
10	4.0	perception	457	diff_vonmises	-0.0928131156081614	-5.317799807807438	2.997971660788008	1.806096721222912	0.10872996527148	2.516479267648414	0.7372106530002549	-0.365033677924705	1.10224433092496	76.52604207548154
11	4.0	wm	457	diff_vonmises	-0.1339067600423471	-7.672292198697545	1.4536668170492084	235.7200541235584	1.4420785966249057	236.45360915499512	0.1726823044327545	-0.2375681838561121	0.4102504882888667	70.91873739020724
12	5.0	ltm	457	diff_vonmises	0.0390886253668523	2.2396132604886483	1.885861100197792	0.8824121826377327	0.0585007555391819	0.9193080966695456	0.284300975096529	-0.1277710972610252	0.4120720723575543	97.81246498921246
13	5.0	perception	457	diff_vonmises	-0.0429459250193279	-2.4606202508927786	2.322295152789259	1.8592974289971909	0.1673586051064676	1.724060388673965	0.7268868461986916	-0.2223307174425909	0.9492175636412824	86.26091531003604
14	5.0	wm	457	diff_vonmises	0.1056165628319383	6.051383296948346	1.3295426783962427	1.6534707037268528	0.3982104372652454	1.6301278576330962	0.294574814148778	-0.1210716773051174	0.4156464914538954	101.87045055249322
15	6.0	ltm	457	diff_vonmises	-0.1410329465432391	-8.080592609221753	0.5029338082455251	93.7173545216786	0.4907045948036839	93.67481764737217	0.2245232291012264	-0.1257119319185999	0.3502351610198264	128.21871222706346
16	6.0	perception	457	diff_vonmises	-0.0506628790321186	-2.90276914652223	0.752208634635548	148.29269695295707	0.7360551522882718	148.30785044724573	0.4528201735348247	-0.2146794822955264	0.6674996558303512	108.29290067755797
17	6.0	wm	457	diff_vonmises	-0.0722089557084054	-4.137268405138722	1.148094547162869	1.3586278508724887	0.0059624731525006	1.2343522113936558	0.3044027697669326	-0.1447582905452605	0.449161060312193	122.3968384014676
18	7.0	ltm	457	diff_vonmises	0.0834617149507432	4.782004017601508	1.1041003010760664	126.5700995157882	1.0856483961364505	127.0215717896339	0.2759558123476964	-0.1973751962961216	0.473331008643818	85.48295322987545
19	7.0	perception	457	diff_vonmises	-0.0685680701615464	-3.9286610296135223	2.4406363363348467	1.5507913456579077	6.985589832761238e-18	1.9571788839653208	0.5896425511600283	-0.3046574228514113	0.8942999740114396	88.03844322694007
20	7.0	wm	457	diff_vonmises	0.2026394238932537	11.610383752045893	2.274635288931101	0.666891910762413	8.637440540625356e-20	1.0229523169953982	0.2088446925613346	-0.1588773095727163	0.367722002134051	91.12583707723168
0	1.0	ltm	388	diff_vonmises	0.0097272223096013	0.5573287847256546	3.6739197088888966	0.3505727895839103	0.0078530855983778	2.768474734902234	-0.1868649128232229	-0.4378480548058513	0.2509831419826284	70.5305882698855
1	1.0	perception	388	diff_vonmises	-0.0061823760383647	-0.3542240543611114	12.571516301045149	0.6348007938593745	0.031509941557212	3.1330535663096546	0.3739699887466192	-0.5048273147912025	0.8787973035378217	37.99460001202252
2	1.0	wm	388	diff_vonmises	0.1347614959308956	7.721264957709734	3.4994842771119075	0.4843971568343392	0.0031124284889682	2.96235689936831	-0.1269645197819434	-0.4697066321240862	0.3427421123421427	72.95440954642689
3	2.0	ltm	388	diff_vonmises	-0.0077108785174468	-0.4418007953877971	3.61989127496	0.5447218322646344	0.1277875362365383	1.8375872721135056	0.0654352318153575	-0.2806572017456107	0.3460924335609683	67.24626119594689
4	2.0	perception	388	diff_vonmises	-0.006972273774007	-0.3994818608603567	6.723428044363635	1.184515392097842	0.2340559082447695	2.4217178660237204	0.72006621669567	-0.3974860343860463	1.1175522510817162	50.53404331703257
5	2.0	wm	388	diff_vonmises	0.0805160433759553	4.613229468534512	4.378682324368417	0.6360046665144222	0.2124426737639851	2.000086328306844	0.1242965832350521	-0.3129624742256737	0.4372590574607258	60.32728804103073
6	3.0	ltm	388	diff_vonmises	-0.0265121062795618	-1.5190317958211788	2.4113477998523334	1.0913975284762805	0.4676299410679548	2.0374945393128088	0.1392110556060667	-0.2508739119660425	0.3900849675721092	73.20234424852913
7	3.0	perception	388	diff_vonmises	-0.014343291666321	-0.8218100768053624	3.972267206896408	1.8299229717521108	0.2086111411052061	2.7379499514226477	0.8705413827063128	-0.4049567121704558	1.2754980948767685	65.41998277916613
8	3.0	wm	388	diff_vonmises	-0.0226312181361331	-1.296673284440356	2.444378874693799	1.1349318319734156	0.4406081043194061	2.212188121277463	0.1386708380019025	-0.2784192042112379	0.4170900422131404	73.07947386094403
9	4.0	ltm	388	diff_vonmises	-0.0863673218681937	-4.948483030895441	0.9888139589575142	49.05389792490244	0.9361540352498696	50.5608773846588	-0.0065930540100467	-0.3378351445759016	0.3312420905658548	81.01811661221416
10	4.0	perception	388	diff_vonmises	-0.111146679898239	-6.368235665060642	1.728674317625764	4.683347328364802	0.5404246875187871	5.971268782537725	0.6927213521890401	-0.5184785759320935	1.2111999281211334	84.94788064122886
11	4.0	wm	388	diff_vonmises	-0.0823801593986783	-4.720035449159253	1.0104240698851814	266.17619048639006	0.9983856688419412	267.8721219152997	0.0269308944779567	-0.393508746882425	0.4204396413603817	80.24042747985334
12	5.0	ltm	388	diff_vonmises	0.0010234012123391	0.0586365702156038	0.5982128543055749	173.3515199482943	0.5845568812681755	174.87052604078636	0.0487283839502765	-0.3728405436436457	0.4215689275939223	107.116582910342
13	5.0	perception	388	diff_vonmises	-0.0320408364561056	-1.83580470100376	1.4900956067024802	4.558758173002073	0.4623309224621207	6.006428838614189	0.5268658540384936	-0.509849401443742	1.0367152554822356	90.63754874706773
14	5.0	wm	388	diff_vonmises	0.0556104726774333	3.186245381144509	0.5933659086773798	223.08459533521716	0.5821390860270094	224.63623743880092	0.0666405760604078	-0.3902861899219587	0.4569267659823666	108.03202832089372
15	6.0	ltm	388	diff_vonmises	-0.1309100826208114	-7.500595229881402	0.4706192407527724	233.16279196950975	0.4611441546691389	234.95554911519912	-0.0187949667339779	-0.4273246329105369	0.4085296661765589	118.74292129473228
16	6.0	perception	388	diff_vonmises	-0.0864301703468406	-4.952083983470728	0.6190831127259164	372.38837435091625	0.6080869288012977	374.13468308173526	0.3096042760232933	-0.55521836149682	0.8648226375201133	109.98001213325132
17	6.0	wm	388	diff_vonmises	-0.1287114512338102	-7.374622930701242	0.5820121879229019	161.4834408980661	0.5636878303796904	163.2921339688557	0.0905542207499223	-0.4654293596806926	0.555983580430615	109.87723898413893
18	7.0	ltm	388	diff_vonmises	0.0298319940849309	1.709247355525782	0.6803462165397183	194.6854456277796	0.6652095102403798	196.87140572272307	-0.0466506977552754	-0.4701878767023544	0.423537178947079	96.57704803026384
19	7.0	perception	388	diff_vonmises	-0.0351318668540562	-2.0129076971529694	2.8428763553278733	1.7676934597117022	3.0839290387431337e-18	3.877038958654064	0.5055932815427545	-0.6132396884132199	1.1188329699559745	81.53548513215298
20	7.0	wm	388	diff_vonmises	0.2510930386754744	14.386571381219833	2.7920495967172205	0.920869635717458	0.1370328995352729	2.9803741099783987	0.037291781096334	-0.4391876480005763	0.4764794290969104	74.92199158545509
0	1.0	ltm	267	diff_vonmises	0.0040110680789049	0.2298172722609014	4.831311668330074	0.2446290366538749	8.88665671976373e-16	2.2483383532486414	-0.1495669896786005	-0.3578209122139589	0.2082539225353583	62.14295690449515
1	1.0	perception	267	diff_vonmises	-0.0245656424777329	-1.407507635001395	13.77841618564028	0.6172224812402786	0.0274528051861896	2.7828289772287627	0.449975099107926	-0.4480145038416178	0.8979896029495438	36.34343128759608
2	1.0	wm	267	diff_vonmises	0.0261970919857351	1.500982806298615	5.320871505949893	0.3184868325698582	7.229253662963937e-08	2.490063269211464	-0.1109061130015396	-0.3962990262058133	0.2853929132042737	59.15419334107602
3	2.0	ltm	267	diff_vonmises	-0.0050038527802661	-0.2866996456140552	3.541825254995081	0.6020800059703946	0.1992535541116075	1.8326988102661976	0.0804256363263188	-0.2768048913391017	0.3572305276654205	66.3559683989464
4	2.0	perception	267	diff_vonmises	-0.0127263641996876	-0.7291669571884857	7.239343149939219	1.2109935853905904	0.2786708553946316	2.525921711817156	0.7546656702211806	-0.4242500072527919	1.1789156774739724	48.49814503192843
5	2.0	wm	267	diff_vonmises	0.0580353122764767	3.3251784561658893	4.350488013425785	0.5450615716030568	0.1684281289465017	1.9574641424635617	0.0725165319037232	-0.306482060051079	0.3789985919548022	60.90457506694557
6	3.0	ltm	267	diff_vonmises	0.0515090489036995	2.951251108914944	1.3363261417539856	48.35188082862206	1.2804165287654194	49.26036346472787	0.1328190961392188	-0.2609196170910319	0.3937387132302508	73.41167337937247
7	3.0	perception	267	diff_vonmises	-0.0169646190678624	-0.9720010736356798	4.744885231680673	1.860109690130434	0.2707810747662521	2.8136070319740267	0.9920117968972714	-0.4301908221845494	1.4222026190818209	59.62650585294983
8	3.0	wm	267	diff_vonmises	-0.0016764782672979	-0.0960551291615751	2.95495184770522	0.8388516168035832	0.3698551108486581	2.02317092263904	0.0941270862996418	-0.2849470402673975	0.3790741265670393	68.28260282176291
9	4.0	ltm	267	diff_vonmises	-0.1052153893878435	-6.028397751748984	1.0065893666720829	162.87737514378296	0.9898610130589832	164.4408177518833	-0.0157303769957977	-0.3502615466499144	0.3345311696541166	79.17641694893055
10	4.0	perception	267	diff_vonmises	-0.0784238892118202	-4.493357864838849	2.2710060995227743	2.597550256054598	0.2605826417696131	4.206453074714423	0.5919670559942583	-0.5334752287170589	1.1254422847113172	81.79394029419404
11	4.0	wm	267	diff_vonmises	-0.1141117670141403	-6.538122642690404	1.027345441907162	316.3949283208026	1.017101617920599	318.2155824612517	-0.016157924191944	-0.4105968988117965	0.3944389746198524	78.27457829688436
12	5.0	ltm	267	diff_vonmises	0.0282649530429461	1.619462517496266	1.7872584871765422	1.25526325837426	0.171429710068588	2.1888596451012576	0.1943410836309825	-0.2777390739086647	0.4720801575396472	92.74427166700453
13	5.0	perception	267	diff_vonmises	-0.0509388289594724	-2.918579912716545	2.1216639849098478	2.4318446950664656	0.2142445882609387	3.316774856859377	0.6534454037463562	-0.415396156967523	1.0688415607138793	86.68253406127681
14	5.0	wm	267	diff_vonmises	0.0382494654925337	2.191532941353464	1.2193782486540334	2.108380998358041	0.2682248805769932	3.1518543305265645	0.1625817577396854	-0.307750466784556	0.4703322245242414	102.85811913535358
15	6.0	ltm	267	diff_vonmises	-0.1330896232074525	-7.625473706773406	0.4957900154193669	125.11179611252872	0.4817333811052524	125.9363936850006	0.1274532077424837	-0.2768557208304649	0.4043089285729486	122.34801844583647
16	6.0	perception	267	diff_vonmises	-0.0693289792496471	-3.9722579089548393	0.8767162657647783	4.944416216245863	0.3452665676377697	5.870576436223245	0.2925864565086451	-0.3697148403994706	0.6623012969081157	113.87780797449106
17	6.0	wm	267	diff_vonmises	-0.0631323424651013	-3.6172167740248513	0.5308543700725624	145.72600562161065	0.517414944010939	146.59256649023092	0.1507050054926608	-0.2931855079829688	0.4438905134756297	118.96018783926996
18	7.0	ltm	267	diff_vonmises	-0.0069067765186943	-0.3957291445612433	0.9333757365768194	225.0515929026012	0.9195617204796228	226.4702989690122	0.1281140026771794	-0.3613722445833467	0.4894862472605261	86.59382154204758
19	7.0	perception	267	diff_vonmises	-0.0553518913606054	-3.171429763029334	1.755162867496974	2.274842458254414	0.1126144219895569	3.6220055259449575	0.4409797421282658	-0.4810386032370604	0.9220183453653262	97.08543697770304
20	7.0	wm	267	diff_vonmises	0.15214895112826	8.717492756991522	1.9478632716138011	1.1152304119671848	0.2517584457513631	2.489234941801254	0.0645835631558999	-0.3166354014956521	0.3812189646515521	83.73242356790703
0	1.0	ltm	244	diff_vonmises	-0.0172513712452114	-0.9884307631639616	3.736871068425942	0.3092986495068675	8.524111416735294e-17	2.8911528496061845	-0.2310445201576264	-0.4600111862032727	0.2289666660456462	70.8951331866169
1	1.0	perception	244	diff_vonmises	0.0094022398874162	0.538708663518509	11.35218841101686	0.8275432708162188	0.0594953337077737	3.5157255174741024	0.5058522188739386	-0.57224158240783	1.0780938012817685	39.81732896737816
2	1.0	wm	244	diff_vonmises	0.082354345063022	4.718556396675209	3.9242228538395367	0.4253773775619762	7.665172653293094e-20	3.0834785377760894	-0.1671128413720463	-0.4906245044820516	0.3235116631100053	69.13764354459414
3	2.0	ltm	244	diff_vonmises	0.0201771894597624	1.1560677984802368	3.747267675926851	0.5228807160459934	0.1179787646017231	1.8233098534724024	0.0624913311230245	-0.2800343489948024	0.3425256801178269	66.39853690323602
4	2.0	perception	244	diff_vonmises	-0.0111615039451402	-0.6395070690751548	6.9747722149078655	1.371832727477127	0.2856621135024882	2.553602862018704	0.8873766121666312	-0.4251444748591637	1.3125210870257948	49.48097644059016
5	2.0	wm	244	diff_vonmises	0.0566827787682904	3.247683994496791	4.182191254464205	0.6212669253956161	0.1433165591442189	2.0005807372148467	0.1237842506972908	-0.3100016940669342	0.433785944764225	62.87785957951744
6	3.0	ltm	244	diff_vonmises	0.0434333164113073	2.488545720624203	3.669022968446015	0.4018201562647067	6.278373592287419e-09	1.0273708410239617	0.1310838394826544	-0.1633195145723544	0.2944033540550088	71.57149102657357
7	3.0	perception	244	diff_vonmises	0.0059131559389608	0.3387988789051728	4.347884035123487	1.737364282495529	0.2157095199450502	2.2655931417637296	0.9553496769160486	-0.3383488246030724	1.293698501519121	62.97158302810655
8	3.0	wm	244	diff_vonmises	-0.0675072230230482	-3.867878965869046	3.439889761315046	0.6418248599022512	0.1847107044196527	1.3583344439415206	0.1962311221054708	-0.2001547298493696	0.3963858519548404	69.08394041475907
9	4.0	ltm	244	diff_vonmises	-0.0982586684931156	-5.629807005230604	2.375971110453099	0.7433770058646538	0.2124822345937251	2.3407836766859544	-0.0304438840226305	-0.3295000758078297	0.2990561917851991	76.49587695388198
10	4.0	perception	244	diff_vonmises	-0.0734500851909781	-4.208379886319397	2.0613724003688687	3.3773695896674214	0.3712958172754301	4.86404735473651	0.6898957234544323	-0.547590817026551	1.2374865404809832	82.85245828660476
11	4.0	wm	244	diff_vonmises	-0.0478081736494275	-2.739206576340752	0.9396311939153092	273.83451453301774	0.928605474436023	275.60867578419584	-0.0082713388841426	-0.39576752677862	0.3874961878944774	82.27126604516667
12	5.0	ltm	244	diff_vonmises	-0.0472418313637945	-2.7067575536141906	1.451585558777097	1.0463831743510688	0.0007841011704215	2.078179388346572	0.1133169853399315	-0.3061213056243617	0.4194382909642933	111.92530317914094
13	5.0	perception	244	diff_vonmises	-0.024168860003304	-1.3847736738318628	1.9315728968914592	2.939255691234409	0.2606680609479376	3.7673799402920594	0.7195377806606565	-0.4366645337248415	1.156202314385498	89.20722574473524
14	5.0	wm	244	diff_vonmises	0.0703436675732485	4.03039526741841	0.5891911479923903	157.28580656167355	0.5745660092793582	158.32829517129025	0.1627509387935859	-0.3270658036422791	0.489816742435865	112.5742831977914
15	6.0	ltm	244	diff_vonmises	-0.0618890655643081	-3.5459822548432958	0.4494935256522004	178.65967790491243	0.4400350829988381	179.57739264865455	0.0966342508507835	-0.2894719577009752	0.3861062085517588	126.29558298792176
16	6.0	perception	244	diff_vonmises	-0.0670822541704891	-3.843530044192895	0.4613214264991875	231.89208735184272	0.4475993910766143	232.71574477653857	0.3949700808352006	-0.4529307084934899	0.8479007893286905	128.97575559184747
17	6.0	wm	244	diff_vonmises	-0.0466522410884781	-2.672976519196601	0.4846234596740543	145.95737609597737	0.4688670307757601	146.89081469245843	0.2033067650967908	-0.3527031479033766	0.5560099130001674	124.70490831978049
18	7.0	ltm	244	diff_vonmises	0.1729308002880357	9.908205004324172	0.7235655377313905	126.68192551616258	0.7053059939896986	128.07550963520004	0.0431818368808762	-0.3285685699528464	0.3717504068337227	96.8083441857396
19	7.0	perception	244	diff_vonmises	0.0415997780178806	2.3834917091056567	0.8821625570224001	114.41089285863296	0.8430639887556179	115.61994415313106	0.476138626358157	-0.4531388215964131	0.9292774479545702	95.06494180388565
20	7.0	wm	244	diff_vonmises	0.1341480680993851	7.686118131928326	0.7182366782079556	66.29307646878782	0.6839704712747312	67.6770309767688	0.0433883438952023	-0.3273657156606342	0.3707540595558365	97.80498183127996
0	1.0	ltm	123	diff_vonmises	-0.0295538358695986	-1.6933100637503469	6.830995811322444	0.3508773095603552	0.0514909747755214	3.0158340047719934	-0.1464071226560402	-0.4841972407027752	0.3377901180467349	50.39373471614573
1	1.0	perception	123	diff_vonmises	-0.0188052628434715	-1.077462193565105	13.568080297309878	0.7530180214660153	0.0812439717711954	3.555751798613259	0.4831929005499278	-0.588570308317421	1.0717632088673488	36.319824038856495
2	1.0	wm	123	diff_vonmises	0.0097659678435873	0.559548740298034	4.727891897758788	0.4148856864762442	0.0152817969077393	3.32679905553595	-0.1884844703933619	-0.5267245895082958	0.3382401191149338	61.71016168807208
3	2.0	ltm	123	diff_vonmises	-0.010555035491919	-0.604758986297753	3.173314614307797	0.6349903340572262	0.1924797801401163	1.733251874317968	0.0979971059074181	-0.2554024592595837	0.3533995651670018	70.16584284566434
4	2.0	perception	123	diff_vonmises	-0.0303074699851476	-1.7364901178683814	7.2479102658254675	1.2398699923586594	0.3916839359042771	2.32305701286989	0.7803327173918123	-0.4003194703301138	1.180652187721926	47.96698993158543
5	2.0	wm	123	diff_vonmises	0.0082690312415061	0.4737805908001261	3.653634496600344	0.8174196769776345	0.2847286470429634	2.1087470007817086	0.1606486434407104	-0.3164806911202123	0.4771293345609227	64.45809697684103
6	3.0	ltm	123	diff_vonmises	-0.0047562665261103	-0.272513998185474	2.770172767902581	0.8465132105854548	0.4298427195934592	1.5502987897983398	0.1673174017061769	-0.2027398208415778	0.3700572225477548	70.92200045471446
7	3.0	perception	123	diff_vonmises	-0.017670162427597	-1.0124257304119546	4.3401496194803535	1.8996304303269995	0.4044964691255465	2.511226101774533	0.9515900559111122	-0.3696456214833173	1.3212356773944296	61.17541776028133
8	3.0	wm	123	diff_vonmises	-0.0567688940017196	-3.252618033924071	3.036529272002301	0.9107848584158424	0.3930879870378374	1.8222702638169697	0.1870815889153759	-0.2512967476434236	0.4383783365587995	68.62570389136889
9	4.0	ltm	123	diff_vonmises	-0.1536338707422815	-8.802572383791151	1.2048675401440547	5.675190057965377	0.741294471051266	6.941248613766217	0.1269051984947098	-0.3259891067587177	0.4528943052534275	85.11624635928237
10	4.0	perception	123	diff_vonmises	-0.0678901339364537	-3.88981814513668	2.55443684814113	2.484637277714909	0.2407446337422065	3.59418907867094	0.7656535042879179	-0.4711512844708487	1.2368047887587663	79.12509957485881
11	4.0	wm	123	diff_vonmises	-0.1237553828885285	-7.090661131538213	1.0180448682972174	351.76232618742887	1.0082548801327038	353.25139858392987	0.1395499935987487	-0.3829064395111103	0.5224564331098591	82.71045508459531
12	5.0	ltm	123	diff_vonmises	-0.0160500174078588	-0.9195982585818138	0.678944322726541	166.9622361857928	0.663773504628109	167.89791742813892	0.2222783984538523	-0.3147307487070243	0.5370091471608767	106.0838094159422
13	5.0	perception	123	diff_vonmises	-0.0026599021288305	-0.1524011658998516	1.83683138579326	2.902248935409758	0.2798283014413271	3.771078983801383	0.6432490895939915	-0.4223809166195788	1.0656300062135702	90.30191535766798
14	5.0	wm	123	diff_vonmises	-0.00015785469004	-0.0090444075156404	0.660634175303443	184.96901629766495	0.6463188509733583	185.90427841546477	0.2468045016772109	-0.3305276348813244	0.5773321365585353	107.9842960148393
15	6.0	ltm	123	diff_vonmises	-0.0973234866091283	-5.576225030201035	0.4481863293816464	180.57039313918423	0.4363836444237701	181.26565889113357	0.2310345318878859	-0.3207460333536858	0.5517805652415717	129.4165134851133
16	6.0	perception	123	diff_vonmises	0.0162470502139498	0.9308874067964468	1.1354709797946432	3.2981020198268207	0.1493941222648355	4.091172067870165	0.4590907223490612	-0.4326698943176718	0.8917606166667331	115.2330474004244
17	6.0	wm	123	diff_vonmises	-0.1201920145828311	-6.88649516677107	0.466565267277189	148.4135088592664	0.4489354997008982	149.08903613981497	0.3253095755778332	-0.3713069280204539	0.6966165035982872	128.59575395662537
18	7.0	ltm	123	diff_vonmises	0.0658867926415487	3.775035144014349	0.7599310424944867	219.63361849928788	0.7482911517809683	220.7336538938031	0.1649132450984325	-0.3127389905741253	0.4776522356725579	98.17553075203466
19	7.0	perception	123	diff_vonmises	0.0023896399155698	0.136916281718148	1.8751686870402136	1.884113370466993	0.0828890993804489	2.8747930218504343	0.4385292759892455	-0.3984433894844297	0.8369726654736753	95.96434925291877
20	7.0	wm	123	diff_vonmises	0.2110142159562026	12.090223991552527	0.8310496168730458	98.17342488857658	0.8053512704291363	99.22605883909227	0.1610097021333203	-0.2957463691230835	0.4567560712564038	94.15313257300603
0	1.0	ltm	342	diff_vonmises	-0.1574374085947072	-9.020499049953395	2.0931455229796785	0.3926973777665193	3.720256279046394e-17	1.9269392740876008	-0.0984556764492846	-0.3035163365830866	0.2050606601338019	94.9008986369288
1	1.0	perception	342	diff_vonmises	-0.0461588029227446	-2.6447045948493995	15.404457755464469	0.6776313144676157	4.532949756790593e-22	2.410174437413425	0.6682519801920199	-0.3835911754280307	1.0518431556200505	34.51746515314687
2	1.0	wm	342	diff_vonmises	0.035013049266412	2.006099950849032	3.2263515525860016	0.4042163632863292	6.180322509705964e-28	2.0577785367797823	-0.0516213245141152	-0.3270707617204098	0.2754494372062945	76.44036159697137
3	2.0	ltm	342	diff_vonmises	0.0139072289024241	0.796825520831258	4.6943358027065205	0.3551879593438768	1.0012179613616344e-16	1.2966992318916477	0.0913978347898984	-0.2063511772787285	0.297749012068627	63.06538694246274
4	2.0	perception	342	diff_vonmises	-0.0244702046681407	-1.4020394513057888	7.654623173004416	1.2155983507041157	0.2945564894141229	2.102577678357085	0.8784183100843581	-0.3551133186187707	1.2335316287031288	47.44363196608512
5	2.0	wm	342	diff_vonmises	0.0184370722758938	1.0563664279863758	4.467574278010417	0.4698762466928564	0.1420261908361649	1.508049115327109	0.108336955914282	-0.2353904565442315	0.3437274124585135	61.093779293788856
6	3.0	ltm	342	diff_vonmises	0.0281717728988668	1.6141236885061028	2.154091836555417	1.2842768098858053	0.7443372911968883	1.810135499787888	0.1624049774231274	-0.1720107033273117	0.3344156807504392	73.16111577282493
7	3.0	perception	342	diff_vonmises	-0.0222808115406381	-1.2765964654049409	4.163955048007264	2.061731503881353	0.3819189196461548	2.484055813184067	1.061493340973533	-0.3580101534726968	1.41950349444623	62.83402741901386
8	3.0	wm	342	diff_vonmises	-0.1026379860848743	-5.8807234203857695	2.6128992353422165	1.0697024413354232	0.5890596894699753	1.745156276774442	0.1871283082805886	-0.2090111609947967	0.3961394692753854	70.2241395489093
9	4.0	ltm	342	diff_vonmises	-0.112544456773001	-6.448322380685495	1.2402740167978648	98.57255830094265	1.2146534728136802	99.62785994597552	0.061576265740932	-0.270532948295207	0.332109214036139	73.75697351706376
10	4.0	perception	342	diff_vonmises	-0.0973359534910462	-5.576939329918623	2.359032774852546	2.8624157238098937	0.366167987028825	3.9083153628571887	0.7623431290588806	-0.4636286952087841	1.2259718242676647	79.34176849126152
11	4.0	wm	342	diff_vonmises	-0.1218622625047965	-6.982193323440183	1.1646121171277384	252.43205170684544	1.1529935868963743	253.72560615280003	0.065805070238909	-0.3233960552873931	0.3892011255263021	75.77189665565928
12	5.0	ltm	342	diff_vonmises	0.048011335618972	2.7508468997532174	1.1184508194781615	2.4418553712645217	0.4210389220848441	3.253550666465271	0.1337124325043014	-0.2365721619845982	0.3702845944888996	99.18367038948504
13	5.0	perception	342	diff_vonmises	-0.0085881618377363	-0.4920654270776096	2.139326854423248	2.2471596004432204	0.1826682935748334	2.9658887605316235	0.6452472676488886	-0.3803303025953093	1.025577570244198	87.49872670869766
14	5.0	wm	342	diff_vonmises	0.0295991036759078	1.69590371799968	0.5760990845202115	84.64671299414321	0.5543921545231262	85.57164528243084	0.1088130582119077	-0.2738429153406061	0.3826559735525139	113.24410714795157
15	6.0	ltm	342	diff_vonmises	-0.2250945566583203	-12.896968087890135	0.4122194592329502	142.3976944280477	0.401875768377758	143.28928342484497	0.066850384815865	-0.2708529032586018	0.3377032880744668	129.7510284632197
16	6.0	perception	342	diff_vonmises	-0.0270310765362009	-1.5487666012194237	0.5701918199268164	263.5792443358019	0.5583164422187051	264.52809231607654	0.3456364368343827	-0.4132615159523247	0.7588979527867075	117.41448794992634
17	6.0	wm	342	diff_vonmises	-0.1039347322751267	-5.955021504186901	0.4372390726442581	108.82678478041557	0.4195534832269226	109.81462889610386	0.1262017939442472	-0.3296216847422517	0.455823478686499	128.6231060265058
18	7.0	ltm	342	diff_vonmises	0.1102398493261263	6.316278100545149	0.9418418687410998	152.75603498220482	0.9256550480343682	153.83064582285093	0.1179993224349544	-0.2811552909801484	0.3991546134151029	86.80336726755843
19	7.0	perception	342	diff_vonmises	0.0089453918706345	0.5125332002779974	2.002141567292949	1.65459283103753	2.9424829042550044e-16	2.715912689192509	0.4218198106149119	-0.4166726779040905	0.8384924885190024	96.97341403215262
20	7.0	wm	342	diff_vonmises	0.1645437092113134	9.427660083236148	1.173784007432907	2.404047537091942	0.4777681657567461	3.4967381028685507	0.0515055779878507	-0.260628691265544	0.3121342692533947	92.08404799803216
0	1.0	ltm	100	diff_vonmises	0.0221067329546547	1.2666224971244866	4.1407082890375495	0.3736735142218431	1.2276945562409426e-13	3.443495795418152	-0.2552989113809099	-0.547975252645782	0.2926763412648721	67.2579070947948
1	1.0	perception	100	diff_vonmises	-0.011646436307541	-0.6672916467900312	12.589126057241955	0.6981144661343052	0.0117885797564187	3.7997187767249545	0.3658892624451605	-0.6070708611748521	0.9729601236200126	38.09867272091313
2	1.0	wm	100	diff_vonmises	0.017728739321903	1.0157819392326708	4.357081622995459	0.4682811566212574	0.0296257452236077	3.679686703304847	-0.2259623460802406	-0.5807569079150287	0.3547945618347879	63.3477837713202
3	2.0	ltm	100	diff_vonmises	-0.063672135669207	-3.648144646429952	2.732097267448904	0.9846606440286982	0.2272547236703593	2.86905935641994	0.0453326371659881	-0.4110822675703451	0.4564149047363333	72.85694032216543
4	2.0	perception	100	diff_vonmises	-0.0314934226280098	-1.804440199006772	6.6003769316178085	1.2584703408912248	0.1274077476175389	3.1923799995712687	0.6886053898926965	-0.5135254189759357	1.2021308088686322	51.55768924693925
5	2.0	wm	100	diff_vonmises	0.0247754645790691	1.4195295558565262	3.8943315216566416	0.7378916767612598	0.116568863402239	2.7223276906882936	0.0738412614494846	-0.4205224404682272	0.4943637019177119	65.14113980432398
6	3.0	ltm	100	diff_vonmises	-0.0224643704085598	-1.2871136138290564	2.479508724515602	1.0088838067208517	0.1039854417830224	2.454594019409498	0.1594076437971608	-0.3555648418582173	0.5149724856553781	81.71459149245396
7	3.0	perception	100	diff_vonmises	-0.0197350761180049	-1.1307365699311067	3.757640329479252	2.1964999286575613	0.1601737395532936	3.585784699448907	0.966341787628994	-0.5320001335300379	1.498341921159032	67.58645781088325
8	3.0	wm	100	diff_vonmises	-0.0574195164330344	-3.2898959532949514	2.630049343802838	1.1504175623956965	0.1980133282055577	2.6847161299659565	0.1826257256998337	-0.3769631746201234	0.5595889003199571	76.49299973469803
9	4.0	ltm	100	diff_vonmises	-0.0720779453212624	-4.129762062883058	2.4699251251330265	0.716936993389191	6.66094389965708e-14	3.151030483268405	-0.0819663871234997	-0.4984999803232623	0.4165335931997626	87.51782465904407
10	4.0	perception	100	diff_vonmises	-0.0879424627288762	-5.03873195435115	1.331051771883312	7.701667660083909	0.5418828103944239	10.002737627107988	0.5578945825210351	-0.711002783002092	1.268897365523127	90.59317822707212
11	4.0	wm	100	diff_vonmises	-0.0954161118161146	-5.466940504611712	0.7387050930017692	285.4894249971771	0.7272370032190695	288.0639153093415	-0.1212244802075019	-0.5268010190578281	0.4055765388503261	90.06233746173825
12	5.0	ltm	100	diff_vonmises	-0.0467558591056835	-2.6789133942639864	1.5042906990515297	1.3473606404390686	7.765158000341547e-18	2.621897012549915	0.1673223996419815	-0.3884291768681593	0.5557515765101408	110.32187533603792
13	5.0	perception	100	diff_vonmises	-0.0504770558428759	-2.8921222620429665	1.7681642032979763	3.4438780756344336	0.2747061242464493	4.596519959534041	0.7037078100721273	-0.5115176512968874	1.2152254613690148	91.54868481778809
14	5.0	wm	100	diff_vonmises	-0.0294404822122125	-1.6868153775897496	0.6484490700185804	266.0905417598509	0.6382014114861715	267.3911371072052	0.163202298077735	-0.3719142713254229	0.5351165694031579	106.01438527604496
15	6.0	ltm	100	diff_vonmises	-0.0511751046832019	-2.932117514487643	0.8983751709805429	1.3538006849366904	5.328553385813936e-17	2.4033746169146344	0.0539741811051176	-0.310123837964174	0.3640980190692916	132.91710094454214
16	6.0	perception	100	diff_vonmises	-0.0892184497756286	-5.111840626843425	0.8283694055125749	2.7330974519587605	6.090660403139014e-11	3.73568878268576	0.2501405420679651	-0.4334189625309401	0.6835595045989051	135.99636074965906
17	6.0	wm	100	diff_vonmises	-0.062178223796866	-3.5625498011803254	0.5062892354666055	249.4780199039737	0.4984005436631147	250.5200027556417	0.1111694495217108	-0.3162732532557406	0.4274427027774514	119.76877807806932
18	7.0	ltm	100	diff_vonmises	0.0154610359185252	0.8858521050316717	1.0790658805541051	3.557518056117706	0.4004962548698629	5.29709522718951	0.0593110068560585	-0.411876660995715	0.4711876678517736	97.382731105576
19	7.0	perception	100	diff_vonmises	0.0464126438522913	2.6592486087801	0.8071551447793418	412.4633031914877	0.795326402605131	413.9837538944593	0.471364946457399	-0.5288520566826307	1.0002170031400297	97.83355513348435
20	7.0	wm	100	diff_vonmises	0.0249202774077873	1.427826719761428	1.1306314783273603	4.766241428837538	0.5823896705147789	6.473679507906681	0.0480888701302648	-0.3949362894056816	0.4430251595359464	88.79139208331722
0	1.0	ltm	198	diff_vonmises	-0.021153420647746	-1.2120017253807427	7.425614342142056	0.3088363824697593	0.0338649842935857	3.7144605030016704	-0.2816847413799759	-0.5954114048863258	0.3137266635063499	48.553046879729095
1	1.0	perception	198	diff_vonmises	-0.0112849351560328	-0.6465791565194883	14.332846297298364	0.7408155514919329	0.0770077713655246	4.15582568817199	0.3951961395026728	-0.6880781143085468	1.0832742538112197	35.32311440079957
2	1.0	wm	198	diff_vonmises	-0.0199516505137831	-1.1431453687597928	4.646271472359965	0.4202190564264578	0.0536544824047951	4.18575743222454	-0.3520396323436848	-0.6644035442218547	0.3123639118781698	59.6893014237757
3	2.0	ltm	198	diff_vonmises	-0.0458385889707351	-2.626357686858051	3.798756359942287	0.4882466943956683	1.537559274375298e-07	2.1453253776344887	0.0234578174732696	-0.3412559883103392	0.3647138057836089	70.30341449966463
4	2.0	perception	198	diff_vonmises	-0.0397815193395122	-2.2793131607721158	7.945023101507624	1.1956980930912768	0.2682424130959834	2.996709820093578	0.7093072345007406	-0.5118882783221806	1.2211955128229213	46.250725939428776
5	2.0	wm	198	diff_vonmises	-0.0131928541214848	-0.755894860892853	3.40033609347557	0.874340457086643	0.1992602079121939	2.902065333914066	0.0564079406523909	-0.4377635851937743	0.4941715258461653	67.01017193426424
6	3.0	ltm	198	diff_vonmises	-0.0100327041864381	-0.5748316069861368	2.616139210271702	1.0182441948657577	0.3632402578377979	2.1384550105308797	0.1425826896253216	-0.2843561650031097	0.4269388546284313	72.69360826861094
7	3.0	perception	198	diff_vonmises	-0.0227862035673273	-1.3055532955337998	4.072214696576474	2.249491483446906	0.3713570876062664	3.3222474172944656	1.005626052997722	-0.4857491137803447	1.4913751667780666	62.83035206794932
8	3.0	wm	198	diff_vonmises	-0.0697660308535963	-3.9972991212905526	3.1444185761453487	0.9022906257122172	0.2477221126020921	2.354329471422397	0.1341985613038881	-0.3430359119292715	0.4772344732331596	69.19612498179828
9	4.0	ltm	198	diff_vonmises	-0.0973825039926896	-5.579606477197005	1.0632811972727063	5.2360627913612685	0.5408837254243477	7.191857088212679	0.022059213788379	-0.4409489136870438	0.4630081274754228	91.10625136472788
10	4.0	perception	198	diff_vonmises	-0.0631443074087126	-3.617902314795889	2.2105531742152578	3.180391911690291	0.3459435498019622	4.907762096651516	0.6708061470678572	-0.5854860482121235	1.2562921952799808	80.72366287127517
11	4.0	wm	198	diff_vonmises	-0.1358823394251535	-7.785484559425412	0.8156082363793464	332.0416750965914	0.8053793245547434	334.23167722870426	-0.0186744407178878	-0.4796608221995839	0.4609863814816961	88.38283499221484
12	5.0	ltm	198	diff_vonmises	0.0009310174581264	0.0533433710036417	1.189205036315426	2.9155382485855785	0.3319643921141453	4.381812332876413	0.153853675214869	-0.3923341505204136	0.5461878257352827	99.55615979004531
13	5.0	perception	198	diff_vonmises	-0.0111869107976867	-0.6409627744967776	2.105828180924183	2.613940620014219	0.1636092614856008	4.04095416725427	0.6386084464883186	-0.5313457744771127	1.1699542209654314	87.78789387220718
14	5.0	wm	198	diff_vonmises	-0.0680923851191359	-3.9014062843059016	0.6064558067249323	232.96749755669475	0.5938477854126586	234.5961011062033	0.1253551596006659	-0.4358810089306821	0.5612361685313481	108.32362188356883
15	6.0	ltm	198	diff_vonmises	-0.1129105011739264	-6.469295179972911	1.0249174548986155	1.6145381764093822	1.4773791511534503e-11	2.8807544062362864	0.1008011446253175	-0.3864696487432054	0.4872707933685229	127.46476290941472
16	6.0	perception	198	diff_vonmises	0.0047179411253077	0.2703181144713384	1.010373329401476	2.5891299051040275	5.483794638647303e-17	3.9221786507362832	0.2655672344830426	-0.5062825552518748	0.7718497897349175	128.15225531416712
17	6.0	wm	198	diff_vonmises	-0.1407438691866346	-8.064029696735517	0.4122785746343047	207.2297746169087	0.4006798670333891	208.60707259782555	0.1270872728494438	-0.4343860471478962	0.5614733199973401	130.40892826835773
18	7.0	ltm	198	diff_vonmises	0.0554789117995603	3.178707498093352	0.7529266371371889	227.1161620810693	0.7413771793953101	228.51501271495232	0.0916207098525205	-0.3480444968969749	0.4396652067494955	96.05701777341744
19	7.0	perception	198	diff_vonmises	0.0123399737333271	0.7070284142219394	0.6861914963687551	208.87366326084293	0.669300809803176	210.1080079316825	0.327666245011585	-0.4303929192822231	0.7580591642938082	106.00233769586876
20	7.0	wm	198	diff_vonmises	0.1284097234266844	7.357335200791195	0.853488898203482	196.21788141935664	0.8397151402676802	197.6684055824937	0.0642988211259236	-0.345485382073452	0.4097842031993757	89.10155516086292
0	1.0	ltm	77	diff_vonmises	-0.1104110425197484	-6.326086748021063	1.9918019203808035	0.4525847472721122	1.0270780704336619e-14	1.9157620642957631	-0.0720077089228189	-0.3005665800651626	0.2285588711423437	97.19445621396338
1	1.0	perception	77	diff_vonmises	-0.0427457879969706	-2.4491532441873898	13.35635162884894	0.6838971545215956	3.876974118236019e-17	2.350102057739739	0.61301334490781	-0.3740303592572396	0.9870437041650496	37.09157537122368
2	1.0	wm	77	diff_vonmises	0.0646066870546898	3.701690496556221	3.4542247563287507	0.4424759696518044	4.2019404472533635e-18	1.9700450416108728	0.0002097357628004	-0.3132288427263234	0.3134385784891239	73.8163849833524
3	2.0	ltm	77	diff_vonmises	-0.0061823824381426	-0.3542244210413733	3.608602090062284	0.5864291718393291	0.2328862977163114	1.498541360436608	0.1290371339426799	-0.2243191723493755	0.3533563062920555	65.90279357848192
4	2.0	perception	77	diff_vonmises	-0.0155978481687709	-0.8936908695564378	6.808521365761097	1.2508963164459277	0.2353726693351188	2.073495464422121	0.8644979688153944	-0.3384891511352503	1.2029871199506448	50.51901446532983
5	2.0	wm	77	diff_vonmises	0.0503149439152921	2.8828339327836794	4.724717297083646	0.4813294336389078	0.1437225507309014	1.420717172716667	0.1452109552391425	-0.2225611036237167	0.3677720588628593	59.75050685731054
6	3.0	ltm	77	diff_vonmises	0.0231501468737982	1.3264057109766163	2.200091453919534	1.1067637357534164	0.532608054921108	1.6874250005768028	0.177992025148348	-0.1838940219231731	0.3618860470715212	76.33387123227064
7	3.0	perception	77	diff_vonmises	-0.0174515402865167	-0.9998996044199384	4.2628470085827805	1.8639857573191867	0.2325358789819944	2.381693026270363	1.0117117582780764	-0.3530931335201367	1.364804891798213	63.42532376496641
8	3.0	wm	77	diff_vonmises	-0.0753804093659419	-4.318979314636893	2.384876182449462	1.2270393361735368	0.590079112164692	1.8766186862111731	0.2084968408866053	-0.2095905492213274	0.4180873901079327	73.09172734265269
9	4.0	ltm	77	diff_vonmises	-0.1423578130924416	-8.156501870909118	1.978232880268016	1.6124543335818269	0.6882111036953329	2.7444836026283026	0.0515508809688779	-0.2779346718323283	0.3294855528012063	72.05148174150855
10	4.0	perception	77	diff_vonmises	-0.1057181366396645	-6.057203047440128	2.1367404635095597	3.0473532261630467	0.332299046490298	4.236234982617947	0.7214401291386161	-0.4925442560119294	1.2139843851505456	83.09919977474581
11	4.0	wm	77	diff_vonmises	-0.1105610287289722	-6.334680324794751	1.1635636451837008	252.34889635607465	1.1515552932858863	253.6883777306628	0.0673254454508622	-0.3345616581708768	0.4018871036217391	75.79875179516989
12	5.0	ltm	77	diff_vonmises	0.0038534093163802	0.2207840905649803	1.3561629418612366	1.2987310180705245	0.1329900535790095	1.954442923805648	0.1756503980349023	-0.2359816961076857	0.411632094142588	107.22260466796445
13	5.0	perception	77	diff_vonmises	-0.0348482350593491	-1.9966567923805365	1.935073273125787	2.5912395828129515	0.2646744816964088	3.0850168867987016	0.6816337484069361	-0.3524849984740482	1.0341187468809845	89.62848474131934
14	5.0	wm	77	diff_vonmises	0.0609025096363218	3.4894567639160705	0.6593666362488534	125.64836040244045	0.6440642384452264	126.31922349042924	0.1816986979438866	-0.2397435856722918	0.4214422836161784	108.24242501044164
15	6.0	ltm	77	diff_vonmises	-0.1424071454033951	-8.159328404120384	0.4228675388135228	136.32889600137403	0.4127479232502158	136.9800985867047	0.1039162266280442	-0.2325515287229045	0.3364677553509487	130.3025277939534
16	6.0	perception	77	diff_vonmises	-0.0683799619001554	-3.917883220144277	0.5883103517230771	282.05908273973324	0.5779658189464651	282.7062116892721	0.3821470691551809	-0.3584605096323443	0.7406075787875253	117.08793037413908
17	6.0	wm	77	diff_vonmises	-0.0664131175147635	-3.80519133790232	0.5265041292981861	92.5107288476408	0.5064724090629753	93.16454363001338	0.1851021139678046	-0.2648570893016142	0.4499592032694188	121.326350186002
18	7.0	ltm	77	diff_vonmises	0.0773217452770674	4.430209668961574	0.904212038856141	127.20135766842762	0.8833658858537597	128.34614126237457	0.1393281138958428	-0.3047944786116741	0.4441225925075169	89.14590748906713
19	7.0	perception	77	diff_vonmises	-0.0008232740457035	-0.0471701282014721	2.193519649573666	1.9103156136563983	0.0513963535190734	2.9885986663718627	0.5414125826790697	-0.438565315324374	0.9799778980034436	90.50346477015697
20	7.0	wm	77	diff_vonmises	0.1316629025473342	7.543728634404508	1.9316520767299772	0.8816238586856024	0.1176201003140288	1.9681232944434472	0.0941999561630264	-0.27081131829445	0.3650112744574764	90.72418059129276
0	1.0	ltm	175	diff_vonmises	0.0174006729467784	0.996985120537874	6.019735510615869	0.3150399319872817	0.0055791881873337	3.6011915770589096	-0.2749720349130019	-0.5724411509095084	0.2974691159965065	55.10624624637916
1	1.0	perception	175	diff_vonmises	-0.0084747129839216	-0.4855652865634323	13.85788047526811	0.6586278310438364	0.0363165941269488	3.9689363618862874	0.3137057937839913	-0.6423198689202491	0.9560256627042404	36.13763215161365
2	1.0	wm	175	diff_vonmises	0.011512175962137	0.6595990956424094	3.4682808215490826	0.5296553615229063	0.0530478067601512	4.062631748782683	-0.3049192757277642	-0.634555239434067	0.3296359637063027	68.78220623131168
3	2.0	ltm	175	diff_vonmises	0.0057354758796628	0.3286185614037649	3.0656336184893185	0.7021327986452534	0.1390371707358345	2.3565984271010185	0.0366069228980808	-0.3521447586369413	0.3887516815350221	71.82080158035734
4	2.0	perception	175	diff_vonmises	-0.0226582466354221	-1.2982219033761846	6.910919407773628	1.255449898693543	0.2485683924074083	2.9734895115462208	0.6933933937029707	-0.4944086722423872	1.187802065945358	49.54751511887119
5	2.0	wm	175	diff_vonmises	0.024201946478563	1.3866693892231663	3.622527530232992	0.8372644327340607	0.1888935723471277	2.768605198026268	0.0820274203861638	-0.4216660350937772	0.503693455479941	65.61873625612702
6	3.0	ltm	175	diff_vonmises	-0.0019074775257951	-0.1092904117441167	3.0562740746407315	0.8713180763699044	0.193098480122147	2.291416877065756	0.138466571926175	-0.3345530830478638	0.4730196549740388	71.43242354564268
7	3.0	perception	175	diff_vonmises	-0.0169316034068234	-0.9701094156003076	4.168388423794329	2.1261151987651985	0.2259324528783029	3.4798686940886854	0.9863410074390082	-0.5212400749169817	1.50758108235599	63.54533190506609
8	3.0	wm	175	diff_vonmises	-0.0330921153490775	-1.896038544662235	3.3489903070804967	0.8517259185038085	0.1361144694563465	2.5655052001444187	0.1279305932082352	-0.3860833561911149	0.5140139493993501	69.7391775012562
9	4.0	ltm	175	diff_vonmises	-0.0693259738661546	-3.9720857131649057	1.9028504019600092	1.0800458802732302	0.0928482748692359	3.371594785055492	-0.0469206612437154	-0.4807147095821198	0.4337940483384044	90.50659331656315
10	4.0	perception	175	diff_vonmises	-0.0556182986724107	-3.186693777627204	1.8422974418513285	3.870845428240641	0.337217718467955	5.891177128393689	0.6228245929120313	-0.6524277283905455	1.2752523213025768	86.63478423337327
11	4.0	wm	175	diff_vonmises	-0.0740208887597264	-4.241084521739678	0.7607266752661919	265.0092072926062	0.7470335899514384	267.56666466630674	-0.0579107784105445	-0.5463481274893027	0.4884373490787581	90.81812729189193
12	5.0	ltm	175	diff_vonmises	-0.0307688048146795	-1.7629226565429446	1.2711677342985142	2.225325235835552	0.2165321128172909	3.640049550061298	0.1617555020129722	-0.3932700031856692	0.5550255051986415	103.18540439601098
13	5.0	perception	175	diff_vonmises	-0.0190043746722555	-1.0888704610055613	1.4096786058045565	4.996052521501618	0.4294383458744838	6.357030242093157	0.5991966178711929	-0.5288753734500609	1.1280719913212538	94.06996924092364
14	5.0	wm	175	diff_vonmises	-0.0139808267992758	-0.8010423697018999	0.6079385783502845	185.78924565073635	0.5918846123412416	187.3425486923152	0.154414319974478	-0.4340873395554361	0.5885016595299142	109.16106110682036
15	6.0	ltm	175	diff_vonmises	-0.0995231368497113	-5.70225570539138	0.4204079414077613	104.94312266941078	0.399793163667794	106.22182386713888	0.1059728938239636	-0.3943407734658031	0.5003136672897668	129.8192391910431
16	6.0	perception	175	diff_vonmises	-0.0108781967909825	-0.6232747648360532	0.9154306070911252	4.493291131102716	0.2225498089100097	5.804050654511419	0.3234278405197983	-0.4958318540490378	0.8192596945688362	118.3562369332438
17	6.0	wm	175	diff_vonmises	-0.0395569273870018	-2.266444989780665	0.4556268943525049	289.8915621383693	0.4466193309692273	291.27838455438973	0.1555900593619554	-0.441529580057999	0.5971196394199545	125.72694506510766
18	7.0	ltm	175	diff_vonmises	-0.0518205573612596	-2.9690992288157685	0.7579646597321082	237.80196434618085	0.7446382032746343	239.81020564454764	0.0164302098003332	-0.4526667351953612	0.4690969449956945	93.03751838445724
19	7.0	perception	175	diff_vonmises	0.0609893300158034	3.494431205236085	0.6791801309998936	162.76460511335648	0.6517602589289188	164.6546479354408	0.3285740379741497	-0.5789212320267136	0.9074952700008634	105.3622349932339
20	7.0	wm	175	diff_vonmises	0.0999172493994966	5.7248366911472175	0.7759807368074394	168.0380932027084	0.757931565623213	170.1015059236498	-0.0308391795057758	-0.4466995528905215	0.4158603733847457	90.5567570200598
0	1.0	ltm	296	diff_vonmises	-0.0633400550372168	-3.629117827758875	5.124722472767982	0.2211720703565597	1.5474199660401955e-18	1.696525514179693	-0.0757120037245582	-0.2700035464663474	0.1942915427417892	60.299211035747646
1	1.0	perception	296	diff_vonmises	-0.0292145705959094	-1.6738715954326058	13.579490640793544	0.7167763549119461	0.0587104278145794	2.422029897201601	0.635040636313754	-0.3955531675760191	1.030593803889773	36.5117164298826
2	1.0	wm	296	diff_vonmises	0.0173161342483613	0.9921414099130468	5.210223841970393	0.3140821863190088	1.3967974508508336e-16	1.9345472708995088	-0.029505760146801	-0.3078844602739509	0.2783787001271499	59.78458961293174
3	2.0	ltm	296	diff_vonmises	0.0447140980284138	2.5619291017623484	3.9434814951499537	0.4851740121297355	0.252163024874357	1.2119641452977543	0.1257865722526268	-0.1842216569880722	0.310008229240699	63.24064052054965
4	2.0	perception	296	diff_vonmises	-0.0119576172028862	-0.6851209987584091	7.21141383414799	1.350582466451231	0.5382322026893992	1.9951436271388672	0.9132854924829514	-0.349899797738956	1.2631852902219074	47.78731475146185
5	2.0	wm	296	diff_vonmises	0.0436619171530707	2.501643578320808	4.314775316516459	0.5084259992826999	0.2461949506948535	1.3612842670153888	0.1342875845931295	-0.21127284933497	0.3455604339280995	60.71769882967823
6	3.0	ltm	296	diff_vonmises	0.0971086632211807	5.563916556730937	2.0744236953679445	1.9947731604034933	1.2271814917441048	2.363822785500422	0.1439262463256904	-0.1400895883510585	0.2840158346767489	67.92967506656737
7	3.0	perception	296	diff_vonmises	-0.0078521021168333	-0.4498923116002885	5.030024189127018	1.721887039407493	0.465760889297196	2.016669690334933	1.0129375321128813	-0.3074935028332076	1.3204310349460888	57.21148344182092
8	3.0	wm	296	diff_vonmises	-0.0285825331777368	-1.63765851887697	3.6760784546333976	0.6055341720867078	0.4842240667867947	1.1726044811205456	0.1585755177855706	-0.1706839682536798	0.3292594860392504	62.58613999502987
9	4.0	ltm	296	diff_vonmises	-0.1572834678312633	-9.011678893913045	1.276835725145096	146.91522902264478	1.2605249894347634	147.82886118522896	0.0813360770910378	-0.2447151090631507	0.3260511861541886	73.33486734421797
10	4.0	perception	296	diff_vonmises	-0.0616263734294802	-3.530931104206376	2.9719576304040936	1.9095564551605049	0.1548412260652081	2.9233403971872853	0.7039328428127786	-0.4155812837530017	1.1195141265657802	75.59301612585932
11	4.0	wm	296	diff_vonmises	-0.1064022941517933	-6.09640238540728	1.223183727621629	253.9747460291794	1.2113695090328436	255.14678838359384	0.1059931471669841	-0.3106049927689547	0.4165981399359388	74.99307679118067
12	5.0	ltm	296	diff_vonmises	0.0316287608854102	1.812194509962468	1.837559082550384	1.044127182566313	0.1761432629209165	1.494725387693242	0.2301524724723926	-0.1863268231980532	0.4164792956704458	93.06664506594302
13	5.0	perception	296	diff_vonmises	-0.0248369809036852	-1.4230541816281883	2.284748814982948	2.0569476264981734	0.1661557621337082	2.372147938789805	0.7066202253648061	-0.310146907420311	1.016767132785117	86.06963994574465
14	5.0	wm	296	diff_vonmises	0.0920187517092246	5.272286109000803	1.7255793838439966	1.033167043093155	1.415585403948787e-19	1.4911799280147204	0.2499689787740441	-0.2218763961272441	0.4718453749012882	103.86906150584228
15	6.0	ltm	296	diff_vonmises	-0.134728172823201	-7.719355684278575	0.5178610822557363	125.0468663546629	0.5055563620605208	125.31918925188135	0.2206125556089837	-0.1963035123980958	0.4169160680070796	124.34106984434972
16	6.0	perception	296	diff_vonmises	-0.0258674270862525	-1.4820943989046578	0.6844237815343306	92.70964661086389	0.6539652225716771	93.07389698086378	0.4368618797969894	-0.2990230066865091	0.7358848864834986	111.47418817676078
17	6.0	wm	296	diff_vonmises	-0.0519610285471786	-2.977147634912124	0.4885877946037008	45.5893740677208	0.447733646102958	45.838177750404185	0.2873054339126941	-0.2399989028288338	0.527304336741528	129.07655339032289
18	7.0	ltm	296	diff_vonmises	0.0932737592282589	5.344192743098653	1.012435963113753	186.10927403675143	0.9995377138238988	186.89448507053956	0.185606564644722	-0.2404839458834367	0.4260905105281587	86.00518820755553
19	7.0	perception	296	diff_vonmises	-0.0391298274696923	-2.241973967088445	2.039161405453611	1.5623242238793456	6.090277732960502e-18	2.291598971417143	0.4507404635381329	-0.3509083001707822	0.8016487637089151	96.126563139561
20	7.0	wm	296	diff_vonmises	0.2007242068175342	11.500649896755776	1.5170802803743957	1.2233998546346307	0.2850826956028672	1.9734869001318884	0.1242014468156716	-0.2123456962631766	0.3365471430788482	93.83013156942825
0	1.0	ltm	463	diff_vonmises	-0.0225325303528755	-1.2910188909701914	7.099657581836303	0.4276462631061903	0.0364159571683025	4.376067066464893	-0.2761156725222364	-0.7008330224140197	0.4247173498917832	49.69607583897644
1	1.0	perception	463	diff_vonmises	-0.0107353122599617	-0.6150880842508578	14.107059685713034	0.7640228773799207	0.064740825707651	4.663346387565071	0.342962863844036	-0.7667937788600189	1.1097566427040548	35.63800330777107
2	1.0	wm	463	diff_vonmises	-0.000638046144606	-0.036557351220523	3.3319312050531025	0.6468838190968638	0.0686016683962988	4.913725179107032	-0.3870233910207119	-0.7650639560588846	0.3780405650381726	68.92228333326139
3	2.0	ltm	463	diff_vonmises	-0.0549815051842744	-3.1502081983355827	2.811540315331949	0.7403654981942622	0.1021066828677855	2.404256002757009	0.0445205893056952	-0.3581342413820029	0.4026548306876981	76.16709110618649
4	2.0	perception	463	diff_vonmises	-0.0471903254313193	-2.703806481063475	7.288311100063749	1.200984834480417	0.2446459376924228	2.8560993162005044	0.6976282456249241	-0.4778678354062866	1.1754960810312107	48.37263003206968
5	2.0	wm	463	diff_vonmises	-0.0181224613403973	-1.0383405491937676	3.295257857864215	1.077623307070802	0.2445480892641494	3.003898029902698	0.1427778854824607	-0.4444121534850101	0.5871900389674709	67.61826140889588
6	3.0	ltm	463	diff_vonmises	-0.0706018985107817	-4.045190810278765	2.865157476617564	0.8597371934365291	0.1011337593697284	2.0690604672251305	0.1850482235209263	-0.3055776311983097	0.490625854719236	76.7633794602543
7	3.0	perception	463	diff_vonmises	-0.0271710208694294	-1.5567848208801902	3.60411701533442	2.3311939570527804	0.334206135984027	3.372731016865848	0.963088115874418	-0.4761055319665366	1.4391936478409546	66.78184172070144
8	3.0	wm	463	diff_vonmises	-0.0944259558657809	-5.410208747597828	2.926318157526667	1.128904806260672	0.2327113937609477	2.520510059043426	0.2294293155833188	-0.3575618557484891	0.586991171331808	72.55734990888396
9	4.0	ltm	463	diff_vonmises	-0.128852523965631	-7.3827058028389505	1.974501836033688	1.294571264348743	0.0747235661095408	3.24455666704491	0.1069839043147231	-0.466796045718761	0.5737799500334841	91.86152890526634
10	4.0	perception	463	diff_vonmises	-0.0736866527450952	-4.22193420874004	1.9539950997388795	4.0831564501055055	0.4060098649491915	5.620792351690211	0.7880350218764944	-0.5966877908446603	1.3847228127211548	84.03704347654568
11	4.0	wm	463	diff_vonmises	-0.1331282579058421	-7.627687311933889	0.7957660621406658	370.7904133328551	0.7856440921861811	372.9189355903122	0.0762447682796505	-0.5012978685122107	0.5775426367918612	91.98439191778824
12	5.0	ltm	463	diff_vonmises	-0.0582284021996742	-3.3362416938316115	0.5573594140190378	243.31541399277285	0.5451149504486807	244.8952118984141	0.1576684605502336	-0.4564853638184587	0.6141538243686924	114.17056934531888
13	5.0	perception	463	diff_vonmises	0.0124292412739785	0.7121430675487774	1.4825444318856196	4.510541063934603	0.3723467989784958	5.980893785809902	0.6052677412889844	-0.5546700676996926	1.1599378089886772	93.9778495284218
14	5.0	wm	463	diff_vonmises	-0.0751090548123053	-4.30343184396186	0.6111249141899279	307.26346088591043	0.6006159600432412	308.86247230972697	0.1866757304701849	-0.4598275179341122	0.6465032484042972	109.14669316844578
15	6.0	ltm	463	diff_vonmises	-0.0740553870957018	-4.243061130791298	0.8141003994603854	2.2853805497274813	6.904927944497627e-12	3.679050404644836	0.1145527037460274	-0.4481213476321022	0.5626740513781296	136.67353985703227
16	6.0	perception	463	diff_vonmises	0.033842307955949	1.9390214148578893	1.0400605947980115	3.132963895915444	1.938157408798336e-20	4.505899377346589	0.377129480501432	-0.5804457258504565	0.9575752063518884	126.9156871826426
17	6.0	wm	463	diff_vonmises	-0.1465350168373893	-8.395838015660862	0.4163832203499232	259.6395666222671	0.4048799727312341	261.08635501070574	0.2176937129931104	-0.5106847302414934	0.7283784432346039	130.97859749982095
18	7.0	ltm	463	diff_vonmises	0.0550335314370195	3.1531890830417564	0.5904074498500975	213.13438768178744	0.5782809535195056	214.70090208906944	0.0788399726035251	-0.4008053654939481	0.4796453380974732	108.72571711368909
19	7.0	perception	463	diff_vonmises	0.0808280143215564	4.631104087048157	0.7767039205057529	176.0158472417177	0.7531442747975489	177.39409366506624	0.3856223380782992	-0.468323141188316	0.8539454792666152	99.8031033595526
20	7.0	wm	463	diff_vonmises	0.1506615132087462	8.632268841915666	0.8107146840470555	226.0231504353997	0.797124593788633	227.61111513313847	0.1052557638012103	-0.3923266379072032	0.4975824017084136	92.45364026966072
0	1.0	ltm	152	diff_vonmises	-0.030742528391035	-1.761417128367419	6.202194054660299	0.4006600511384228	0.0259689832372006	3.095728020680632	-0.1162552386607586	-0.4925419446640021	0.3762867060032435	53.647192036360565
1	1.0	perception	152	diff_vonmises	-0.0343324902391852	-1.9671067908794089	14.38266928931051	0.7154491168405595	0.0379715065393449	3.557412357078716	0.4848518582956453	-0.5762672457426724	1.0611191040383177	35.495216268731184
2	1.0	wm	152	diff_vonmises	-0.0039978501049848	-0.2290599381415637	4.314402873476005	0.4794893197081532	0.0076427950301879	3.4105436992393585	-0.1628420733509144	-0.5402264193525809	0.3773843460016664	65.17526258336247
3	2.0	ltm	152	diff_vonmises	-0.0268645043697383	-1.5392227190967631	2.6125923455174167	0.9295752604489012	0.3115087038188275	2.084921491960628	0.1198188619868697	-0.2827831165633701	0.4026019785502398	73.55369489968786
4	2.0	perception	152	diff_vonmises	-0.0375044812614188	-2.148848489106779	6.859745162256553	1.2275121307170838	0.3182703481316948	2.337893109436404	0.7585793972646835	-0.3916410411286057	1.1502204383932892	49.6068133476706
5	2.0	wm	152	diff_vonmises	-0.0072164948583138	-0.4134746982592453	3.5381738964067218	0.898449512970234	0.2843360825515942	2.2001194946235545	0.189559704694041	-0.3264041448500124	0.5159638495440535	65.58032990736535
6	3.0	ltm	152	diff_vonmises	-0.0404273063057622	-2.3163140284027985	2.727401754323065	0.929538599143535	0.2587533735248089	1.8161366942732495	0.2081373329238279	-0.2484303313605699	0.4565676642843979	74.80099155434377
7	3.0	perception	152	diff_vonmises	-0.0263996516904346	-1.5125886224773144	4.066461884763092	2.0468183638598005	0.3333519306158657	2.808131411761598	0.9809155090804884	-0.4088464586606584	1.3897619677411468	63.55313840194012
8	3.0	wm	152	diff_vonmises	-0.0755110374978606	-4.326463755281517	2.7321115633661988	1.1921499202029515	0.3855534341285953	2.227554833767772	0.2374654247041928	-0.293547517882621	0.531012942586814	72.07496517415186
9	4.0	ltm	152	diff_vonmises	-0.1719637105010096	-9.852794841117364	2.088952962285657	1.347875508202932	0.2382929025047274	2.7323262023746118	0.1697145293050385	-0.3519780517960878	0.5216925811011264	83.25739729543253
10	4.0	perception	152	diff_vonmises	-0.0742429427484815	-4.253807278119392	2.3209460175865013	2.832541157739381	0.2297644024947614	4.040184150608212	0.7991052469880966	-0.517096520623726	1.3162017676118225	82.762556858127
11	4.0	wm	152	diff_vonmises	-0.1321359853858066	-7.570834284409046	0.982563538269333	405.36319383736407	0.97333161032772	406.9650986357785	0.1698944005726446	-0.4175089115988726	0.5874033121715172	84.61744936345391
12	5.0	ltm	152	diff_vonmises	-0.0421952536050197	-2.417609947051801	0.61486465515322	188.4579879545584	0.6011412700519975	189.3142658451655	0.2622825703109512	-0.3326574605913652	0.5949400309023165	112.65363789265606
13	5.0	perception	152	diff_vonmises	0.000876906794907	0.0502430583745157	1.4591218915489197	4.270388260549636	0.4263434551921112	5.0446163867150124	0.6433773751610075	-0.4181930482988431	1.0615704234598506	94.5802798741135
14	5.0	wm	152	diff_vonmises	-0.0212866599897106	-1.2196357773404114	0.6771923654533215	219.34067297724803	0.6647805696249911	220.17365025244283	0.2866771580347773	-0.324084005790958	0.6107611638257353	107.54739306746502
15	6.0	ltm	152	diff_vonmises	-0.086823365556405	-4.974612409503532	0.3843110485534878	157.08094271832894	0.3715532560858555	157.70311291216328	0.2270808068603855	-0.31613068877774	0.5432114956381255	136.5050028880127
16	6.0	perception	152	diff_vonmises	0.0252017114162277	1.4439517006565177	1.11797384106466	3.4194057560885933	0.1621347502881421	4.0941972399781	0.4829773084010584	-0.4174520542539857	0.9004293626550441	115.51830264166767
17	6.0	wm	152	diff_vonmises	-0.1044729175833344	-5.985857250943154	0.4571244811930005	183.3000248974244	0.4431034220144404	183.8863008299901	0.3378337762219843	-0.3595917984074326	0.6974255746294169	129.73230179955985
18	7.0	ltm	152	diff_vonmises	0.0242659168655814	1.3903346224131432	0.7287064994737643	188.26934517835815	0.7144740788021168	189.4050117239981	0.1848303976736502	-0.3330611527961906	0.5178915504698409	100.76499546092732
19	7.0	perception	152	diff_vonmises	0.0439103573928174	2.5158781555195127	1.6078461825413712	2.571905436344396	0.2044273943740418	3.6163823675496194	0.4631396750113744	-0.4194215351535698	0.8825612101649443	97.2269890264009
20	7.0	wm	152	diff_vonmises	0.1684860184428162	9.653537763736718	0.79526880217296	130.4801863992716	0.7753129744042936	131.57020413890643	0.1714035034780749	-0.3105291796543223	0.4819326831323973	96.295592759699
0	1.0	ltm	273	diff_vonmises	-0.0164546001125654	-0.942779140025492	5.279195296706985	0.230702899165561	4.795905462133155e-21	2.409956711368912	-0.1776405561509911	-0.383551174634385	0.2059106184833938	59.38573160726765
1	1.0	perception	273	diff_vonmises	-0.0159639801146715	-0.9146686848014508	13.125750394053629	0.7288536509839062	0.0490491081726998	3.0823030157179407	0.528118303235499	-0.501019088099106	1.0291373913346051	37.11813516634504
2	1.0	wm	273	diff_vonmises	-0.0016276291421974	-0.0932562804604126	5.783813293574738	0.3012706088518352	8.750053492231205e-18	2.673480766570183	-0.1432967305667673	-0.42549500743133	0.2821982768645627	56.68062193390577
3	2.0	ltm	273	diff_vonmises	0.0177449475253824	1.0167106008855302	3.675048765769543	0.5519408408347336	0.1619779816301725	1.7764740905912797	0.0747978432799811	-0.2708349452308956	0.3456327885108767	66.04249621814685
4	2.0	perception	273	diff_vonmises	-0.0168335821395909	-0.964493210685364	7.368294961217771	1.3286179329071428	0.3352113972896924	2.5912744693016743	0.8518565672270535	-0.4420478927092339	1.2939044599362874	47.86440440287322
5	2.0	wm	273	diff_vonmises	0.0303805113526304	1.7406750799550113	4.020352413354458	0.5736958598241433	0.1449205849997239	2.002623867035632	0.0757905146044884	-0.3098253058693073	0.3856158204737958	63.67265896665401
6	3.0	ltm	273	diff_vonmises	0.0871071753658091	4.990873513766799	2.8942387716721347	0.7631274885577559	0.4413344697179611	1.4841950736130594	0.1396507193833417	-0.1990777312918232	0.338728450675165	69.05029334457652
7	3.0	perception	273	diff_vonmises	-0.0062738088376074	-0.3594627678667829	4.841809010386335	1.8743024591481416	0.3180044016343749	2.566526113646994	1.049998249476508	-0.3917712608147726	1.4417695102912806	58.904431097880064
8	3.0	wm	273	diff_vonmises	-0.0390739864656237	-2.2387745132315406	3.726049630592248	0.6247411623652078	0.2300116504211027	1.588387751291249	0.1479805950540743	-0.2391455153677801	0.3871261104218545	65.10812223522771
9	4.0	ltm	273	diff_vonmises	-0.1125799792777319	-6.450357670284304	1.4119468297253286	2.544906452300962	0.5837900615306844	4.130824452602156	-0.0215498667045352	-0.3460982762685224	0.3245484095639871	80.59443332652481
10	4.0	perception	273	diff_vonmises	-0.0522622520371271	-2.994406469576374	2.501866128195563	2.3672489072105405	0.2060808045765501	4.031925584027031	0.6155272181840188	-0.5431279404284174	1.158655158612436	79.76418299545315
11	4.0	wm	273	diff_vonmises	-0.0946146018096391	-5.421017364003166	0.9779757136021768	321.7894348317767	0.9681842325961278	323.63716529512607	-0.0229224287424898	-0.4106259203666411	0.3877034916241513	80.10259663215416
12	5.0	ltm	273	diff_vonmises	0.0064057576983853	0.3670228807009145	2.149185605860819	0.8563145170951036	8.81666528130542e-13	1.6064866491297132	0.2056234147363796	-0.2494103084831169	0.4550337232194966	93.72785472159664
13	5.0	perception	273	diff_vonmises	-0.0352854410056856	-2.0217068478836397	2.2404853183815248	2.302269308115634	0.1465370653499844	2.91209720159136	0.7378274692125638	-0.3878759183506223	1.125703387563186	86.95602885277859
14	5.0	wm	273	diff_vonmises	0.0426459085136131	2.4434305713310565	1.7052682599719498	1.1044928714797528	2.5903697171804884e-22	1.9471952519972184	0.2072745392614014	-0.2928249131500078	0.5000994524114093	104.44538702719964
15	6.0	ltm	273	diff_vonmises	-0.1078451872888092	-6.179074072446683	0.4826353581018853	72.16633818103637	0.4623620909105659	72.68832419762971	0.1470844148338095	-0.2186117257667161	0.3656961406005257	125.82537027218665
16	6.0	perception	273	diff_vonmises	-0.04620868180415	-2.6475624442407617	1.152090615521863	2.0079793851204863	4.054177618244899e-19	2.5912774835073984	0.3310365674716643	-0.3381848363176989	0.6692214037893633	122.49477182652024
17	6.0	wm	273	diff_vonmises	-0.0303129731241217	-1.7368054245056688	0.462224277861792	139.169416831275	0.4496047447201736	139.73533646758037	0.1914869175161726	-0.2603764109781341	0.4518633284943067	128.07233457029696
18	7.0	ltm	273	diff_vonmises	0.0710165340931317	4.068947679183372	0.9347219833313092	171.12850078509624	0.9200810487899724	172.1876595711687	0.1306251334665802	-0.2822423304353592	0.4128674639019394	87.47270981940312
19	7.0	perception	273	diff_vonmises	-0.0026248500089948	-0.1503928273702787	0.7411175636731674	135.8144161778827	0.7152780912229748	136.7589274402422	0.3980582220774948	-0.3883293126399465	0.7863875347174414	103.8899846335503
20	7.0	wm	273	diff_vonmises	0.0976192625415391	5.593171742809724	0.754703036765314	111.74138537412944	0.737196829495331	112.81714074496244	0.0596410904281654	-0.2632151530170858	0.3228562434452513	95.7368759747388
0	1.0	ltm	440	diff_vonmises	-0.0694992291151669	-3.982012507711795	3.361592779164519	0.2746993442627509	4.573931152720548e-16	1.8304221383037225	-0.0994615656744966	-0.2910899820014576	0.191628416326961	74.85035520423426
1	1.0	perception	440	diff_vonmises	-0.0195768679402327	-1.1216719090603031	12.88218297392036	0.7068611674309077	0.0373049815310016	2.481822972877977	0.5920557202454431	-0.40075679186927	0.9928125121147132	37.56058627547316
2	1.0	wm	440	diff_vonmises	0.0782401470038226	4.48283021180217	3.578944456815011	0.4013070574211153	1.972642206604521e-16	2.044319801430126	-0.0351618082861467	-0.3251375650342993	0.2899757567481526	72.48938592997271
3	2.0	ltm	440	diff_vonmises	0.069843652478896	4.001746512819174	4.23484765694339	0.4458295112662048	0.1990411386990311	1.221705623560415	0.1186548175004353	-0.188704945432067	0.3073597629325024	61.93918901460114
4	2.0	perception	440	diff_vonmises	-0.0021597085637652	-0.1237421856820097	6.931255057279066	1.3578088699258035	0.4766451055928398	1.9819339060777177	0.9180328144176162	-0.3392525958489894	1.2572854102666056	48.982045663389954
5	2.0	wm	440	diff_vonmises	0.0719558826141177	4.122768384927723	4.479973523520637	0.512909821368795	0.2369305757094043	1.3670351392380582	0.1474325956769617	-0.2133199102988103	0.3607525059757721	59.91220653294559
6	3.0	ltm	440	diff_vonmises	0.0797052957558789	4.566777051653858	2.9085205661641225	0.6712980799836864	0.6220205604930299	1.0932530436723844	0.1370467847574649	-0.1373410355567816	0.2743878203142465	67.22600539812652
7	3.0	perception	440	diff_vonmises	-0.0016468860226448	-0.094359618436634	4.926688429850104	1.63056081175859	0.3262304795105255	1.962047662278439	0.9813777515364216	-0.2980702841599382	1.2794480356963598	58.672834175353785
8	3.0	wm	440	diff_vonmises	-0.0289624041146252	-1.6594235203203591	3.66470160737644	0.5920033611830439	0.3936805459146926	1.1612748872002745	0.1701067659378261	-0.1694611652893474	0.3395679312271735	63.97259150774366
9	4.0	ltm	440	diff_vonmises	-0.1421978921911472	-8.147339078209024	1.2202377060775933	111.82377031446426	1.1996510759846812	112.83864764834038	0.0398943399710702	-0.2535779869396233	0.2934723269106936	73.68346198554966
10	4.0	perception	440	diff_vonmises	-0.0712802052295237	-4.084054922478048	2.645460195775033	2.217853083004272	0.2134755221710577	3.240378618988617	0.7198324940963594	-0.4351968320990025	1.155029326195362	78.49771260262344
11	4.0	wm	440	diff_vonmises	-0.071689809202665	-4.107523501410836	1.1875511282498226	275.67114076125927	1.1765706123563469	276.9290306664003	0.0891618156996116	-0.3235161040434562	0.4126779197430679	75.61205544171202
12	5.0	ltm	440	diff_vonmises	0.0127030504763876	0.7278311792386603	1.4134944712219133	1.3561021906532895	0.2424988302444227	1.9908786493360895	0.1687461261422232	-0.2126880199894636	0.3814341461316869	99.65362169604384
13	5.0	perception	440	diff_vonmises	-0.0203277150419341	-1.1646922790474286	1.9390041139551772	2.5860053158361893	0.2966692539671482	3.072629592568558	0.6656203988040955	-0.3416420273378231	1.0072624261419183	88.70892005417875
14	5.0	wm	440	diff_vonmises	0.1289863607980962	7.390374088482609	1.0834452295598878	2.198881603622558	0.2705683114975793	2.838358228881101	0.2045283247834893	-0.2484120435339017	0.4529403683173911	109.65571794967252
15	6.0	ltm	440	diff_vonmises	-0.1343496474491345	-7.697667777905955	0.5089430019144134	150.0548494297674	0.4975994823642939	150.60090732103114	0.1838033275697483	-0.2411348897040763	0.4249382172738247	123.12426200099203
16	6.0	perception	440	diff_vonmises	-0.0430203768377064	-2.464886025862941	0.6865253252838156	262.28775558618554	0.6738130570138516	262.8583524525489	0.4753423262032612	-0.3590018316351653	0.8343441578384265	109.71760826681508
17	6.0	wm	440	diff_vonmises	-0.0293937365871525	-1.6841370505631157	0.8184241746772802	3.2430263468106437	0.1893561081954038	3.7864196648806026	0.2743530289596654	-0.3003874503879427	0.5747404793476081	125.77027093645673
18	7.0	ltm	440	diff_vonmises	0.0968371571107152	5.548360402489254	0.9356061664985243	188.0515413189738	0.9217362683446444	189.21353813619365	0.116156925028207	-0.2999603382393125	0.4161172632675196	86.77559438960608
19	7.0	perception	440	diff_vonmises	-0.0147286704077696	-0.8438906522044304	2.28619772204615	1.6641587808141638	6.196989913193609e-16	2.776952418407482	0.4883000460483284	-0.4323529398596564	0.9206529859079848	90.93873293306628
20	7.0	wm	440	diff_vonmises	0.2274659442947954	13.032838591049666	1.9529322841210943	0.8578093839500254	0.1229366580007548	1.978193898237416	0.0815173753023973	-0.2721976574667745	0.3537150327691718	89.77578778533126
0	1.0	ltm	250	diff_vonmises	0.0109086282167032	0.6250183570944199	6.85399136531686	0.2650537129293476	0.0417178733796037	3.1134844276694915	-0.2450574629072811	-0.4994436856047182	0.2543862226974371	50.18647700866438
1	1.0	perception	250	diff_vonmises	-0.0057500590334853	-0.3294541145697826	13.417719672578416	0.6644847065599994	0.0732512988717529	3.590910642487544	0.3473313322708988	-0.5920873299688156	0.9394186622397144	36.5134703685963
2	1.0	wm	250	diff_vonmises	-0.0010549153209356	-0.0604421956333022	4.619411767666287	0.4266596631846528	0.0888899938291976	3.598271039799437	-0.2700576398484161	-0.5732996413242563	0.3032420014758401	58.72522875034613
3	2.0	ltm	250	diff_vonmises	-0.0152799254348076	-0.8754752386890764	3.4034526842962656	0.6118358348820708	0.1435334042245376	2.1449412034898745	0.0382437022904665	-0.325315424532554	0.3635591268230205	68.39503621753579
4	2.0	perception	250	diff_vonmises	-0.0213522476542501	-1.2233936737066435	7.585926918911242	1.21330414766457	0.2950958180809718	2.969739168655125	0.688338573023578	-0.5080182831393215	1.1963568561628994	47.09713240559796
5	2.0	wm	250	diff_vonmises	0.0328985990159836	1.884950875509107	3.79445939665128	0.70023383190883	0.1817690765388939	2.5907967276163184	0.032568333671908	-0.3994797915666133	0.4320481252385214	64.04310729474724
6	3.0	ltm	250	diff_vonmises	0.0462452271890818	2.649656340558032	2.0579794815519845	1.947120499580392	0.7352135065161797	3.118852197809225	0.1135013330858232	-0.3086380219469848	0.422139355032808	71.52816338376485
7	3.0	perception	250	diff_vonmises	-0.0151295744848268	-0.8668607638093959	4.7488644075990285	1.980103269771997	0.3161305254719564	3.2119834805100087	0.9862910406341436	-0.4938710676422697	1.4801621082764131	58.98334237426633
8	3.0	wm	250	diff_vonmises	0.008946949779176	0.5126224618622911	3.37366705141049	0.7349590171454059	0.2387977111081148	2.314403678582838	0.0531883462567316	-0.3472845195849879	0.4004728658417196	66.42948800871363
9	4.0	ltm	250	diff_vonmises	-0.0675737701954672	-3.8716918379871834	0.8092961996747344	172.743672621735	0.7920807494603662	174.7755816761638	-0.0459956090483544	-0.4347645661187869	0.3887689570704324	87.98217014309463
10	4.0	perception	250	diff_vonmises	-0.0507713285739411	-2.90898284755879	2.360367074300892	2.5127342976548386	0.2364370447782687	4.457898564316446	0.5452116481518622	-0.5852325559360271	1.1304442040878893	80.56191104370237
11	4.0	wm	250	diff_vonmises	-0.1098430293879576	-6.293541992861441	0.8493584260822732	270.91262382530635	0.8369746605527001	273.22117768543603	-0.0770028357342624	-0.4876871480109912	0.4106843122767287	84.84319050191178
12	5.0	ltm	250	diff_vonmises	0.0179180478019739	1.0266285161667692	1.8691809224087332	1.4133204189221398	0.1696496479819964	2.646909396202272	0.2042413834134255	-0.3426190022144617	0.5468603856278873	90.58080531011548
13	5.0	perception	250	diff_vonmises	-0.0460125692669162	-2.6363260235476624	2.1891648213923767	2.4970301885172512	0.1800756110248749	3.727563748336227	0.6555243355782914	-0.4873275020687258	1.1428518376470171	86.00099787486852
14	5.0	wm	250	diff_vonmises	-0.0053016573534919	-0.3037625907795888	1.3466959684733204	1.996360765219904	0.1917153577959285	3.403751411891613	0.1601304794025603	-0.389010290246485	0.5491407696490453	102.19942970648628
15	6.0	ltm	250	diff_vonmises	-0.10420176674871	-5.970321452507725	1.2367158832992138	1.352365544550561	2.5615708802524467e-14	2.3287747487570063	0.1512423741504772	-0.3266442171213034	0.4778865912717806	119.28764342347044
16	6.0	perception	250	diff_vonmises	-0.0426565025511813	-2.44403756497172	1.2611801256451989	1.841969471941128	3.780470178834832e-15	2.937861917033954	0.2514755324813094	-0.4098527213894929	0.6613282538708023	118.4528588120643
17	6.0	wm	250	diff_vonmises	-0.0769366352406647	-4.408144489227565	0.4877016156456779	185.9228883012157	0.4762269202925129	186.97334982008948	0.1430425087762685	-0.3426046048771987	0.4856471136534672	122.75642876170558
18	7.0	ltm	250	diff_vonmises	-0.0200429323964103	-1.1483754353803397	0.8592630124236296	317.01832124430564	0.8495437344721563	318.542131369768	0.1107589434485163	-0.3787865322939154	0.4895454757424318	89.76455232968559
19	7.0	perception	250	diff_vonmises	-0.0572970411807112	-3.2828786382420314	0.6900472100136802	257.4725505431744	0.6749927585925299	258.849093430243	0.3530070891024195	-0.4725679723293829	0.8255750614318025	105.48497324412295
20	7.0	wm	250	diff_vonmises	0.125630235534145	7.198082275340974	0.8786674202814934	92.9156122385312	0.8490791310459191	94.4325967505172	0.0495289415472761	-0.3549881168983582	0.4045170584456343	87.64931354068344
0	1.0	ltm	371	diff_vonmises	-0.216391693102072	-12.398330736438895	2.552593865528573	0.4338435784934103	3.4810397292066104e-14	1.22902184681019	0.0632112577214015	-0.1940349365878321	0.2572461943092336	86.07168071724459
1	1.0	perception	371	diff_vonmises	-0.0687260889124312	-3.937714837123155	15.395505409087862	0.7211016069819159	3.534096855390133e-28	1.7753642700130523	0.8367515982050817	-0.2825579993612642	1.1193095975663458	34.52135678050237
2	1.0	wm	371	diff_vonmises	0.0388095714713567	2.2236246500200685	3.723643161576554	0.4427001542409572	9.949412535297828e-27	1.3198329207414068	0.1171996293673685	-0.209867124340656	0.3270667537080245	71.02500219726642
3	2.0	ltm	371	diff_vonmises	-0.0514334412034796	-2.946919106793655	3.7996505800261056	0.5054255774704717	0.2761853025547932	0.8969796054812954	0.1931831468092187	-0.1317990619054282	0.3249822087146469	65.25198252658024
4	2.0	perception	371	diff_vonmises	-0.0358997977737194	-2.056906897807271	7.402064232510084	1.1683208488215575	0.3541959970004926	1.482368706166287	0.9192623538767386	-0.2489927871230265	1.1682551409997652	48.32264155427893
5	2.0	wm	371	diff_vonmises	-0.0047179344575495	-0.2703177324369312	4.695005294631417	0.4715566106328339	0.306583167940616	0.8580527842080075	0.2140800744208059	-0.1326028384527969	0.3466829128736028	59.04116900165678
6	3.0	ltm	371	diff_vonmises	-0.0111577218551813	-0.6392903712827709	1.502916378217209	84.51436697080685	1.483203247954641	84.67569541243117	0.2224451133420686	-0.1119125355096688	0.3343576488517374	74.63190272317814
7	3.0	perception	371	diff_vonmises	-0.0338229626934181	-1.9379130129612947	4.079939489939549	1.945568576950236	0.5113645038702892	1.98795072429824	1.017357402551219	-0.2738027117532317	1.291160114304451	62.88039280540278
8	3.0	wm	371	diff_vonmises	-0.1154440677237814	-6.614457850395127	1.665791038364597	100.50156385760394	1.6448918099174423	100.707553569957	0.2608195690974781	-0.1374862253345323	0.3983057944320105	70.50472160040982
9	4.0	ltm	371	diff_vonmises	-0.1715061338776314	-9.826577631793947	1.6074082116308337	113.61449977301604	1.586674010087889	114.06232952220864	0.202896090348716	-0.1803049019889346	0.3832009923376507	69.21658978769301
10	4.0	perception	371	diff_vonmises	-0.1196729927797609	-6.856757407979874	2.665381875633046	2.3881569582731634	0.3125654866829503	2.8510643809056258	0.8557909984931135	-0.3575691318196147	1.2133601303127282	77.35587082350048
11	4.0	wm	371	diff_vonmises	-0.1607035739513699	-9.207636540082014	1.4024412234155983	192.9700863503379	1.388965344683765	193.61748748222536	0.1967966536451655	-0.2208012485777537	0.4175979022229192	73.12839480653284
12	5.0	ltm	371	diff_vonmises	0.0388395804563981	2.225344038210412	0.7056242170099948	76.99345289500812	0.6849142736725092	77.22561499237615	0.2384544217004034	-0.1662191407833209	0.4046735624837243	109.05530429750596
13	5.0	perception	371	diff_vonmises	-0.0115475042173972	-0.661623255566383	2.229926422058285	1.9789777087078224	0.171454671278781	2.1361140387178668	0.6892901304372505	-0.2747699854078458	0.9640601158450964	87.18213774959074
14	5.0	wm	371	diff_vonmises	0.0247271587430155	1.4167618353248077	0.7306942255786251	104.09386820169937	0.7156355113880293	104.31238692941174	0.2361870961528467	-0.158270705061355	0.3944578012142017	107.07469609596228
15	6.0	ltm	371	diff_vonmises	-0.1917502159322395	-10.98647809363952	0.3899711250865487	114.95099995003102	0.379052333808879	115.21000785794246	0.1713541751892151	-0.1830826856235869	0.3544368608128021	136.43667693221374
16	6.0	perception	371	diff_vonmises	-0.0206723479316882	-1.1844382891117329	0.6332627624303644	239.4007428520962	0.6212572206048722	239.739215807116	0.4540697602109134	-0.3146494695596864	0.7687192297705998	115.10067255256556
17	6.0	wm	371	diff_vonmises	-0.1820195839599014	-10.428953949629491	0.5698785230239124	30.48024624272426	0.5113984411735215	30.70241514357748	0.2797628410849366	-0.2137749652066198	0.4935378062915565	122.37191836558058
18	7.0	ltm	371	diff_vonmises	0.1478064256570902	8.468684375065434	0.9450697488860024	126.5161445784058	0.9283372590266022	126.96951993526626	0.2535756831010118	-0.1955075274087256	0.4490832105097375	92.31768516858784
19	7.0	perception	371	diff_vonmises	-0.0323644885783626	-1.8543486016395356	2.462995915867546	1.4739507790917863	5.742022922999052e-18	1.8968240009916628	0.5592076730367735	-0.2956411074147395	0.854848780451513	87.64263612241473
20	7.0	wm	371	diff_vonmises	0.2162139089289492	12.388144453654736	2.442066124837884	0.6817414030707694	4.801067844130165e-12	1.044106284328692	0.2300884930667513	-0.1631763375235763	0.3932648305903277	87.98650277907595
0	1.0	ltm	417	diff_vonmises	-0.0624959743360579	-3.580755566014028	3.5770213659129646	0.3077734175457081	1.549397136660829e-19	1.6730240587129606	-0.0437656446878332	-0.2660960844071732	0.22233043971934	72.5079492686128
1	1.0	perception	417	diff_vonmises	-0.0453406658049786	-2.597828790938408	13.842063223208717	0.6564667715904418	8.012841368962135e-24	2.2558709895078324	0.6059052143442014	-0.359033018956861	0.9649382333010624	36.430640373119815
2	1.0	wm	417	diff_vonmises	0.0156086277897262	0.8943084963419231	4.765575893627644	0.3657874088761946	1.875884181546452e-18	1.843963943295436	0.0156755349407191	-0.2934535452957939	0.3091290802365131	62.57949331295589
3	2.0	ltm	417	diff_vonmises	0.0099161643898126	0.5681543684941844	2.957230291791563	0.8657768537321417	0.504348041934191	1.6362257696262714	0.1573278511931886	-0.2182955183897542	0.3756233695829428	67.53046476633835
4	2.0	perception	417	diff_vonmises	-0.0135322568115131	-0.7753412025868648	6.812733592477383	1.277481298148295	0.3581251492929047	1.9930368357762769	0.8642587697163984	-0.3329791690713169	1.1972379387877154	49.88220561903103
5	2.0	wm	417	diff_vonmises	0.0422824195995125	2.422604190653302	4.467445893687307	0.5098142688610068	0.2119122537772846	1.357775862194058	0.1520070754064967	-0.2113246304438536	0.3633317058503504	60.397253940797015
6	3.0	ltm	417	diff_vonmises	0.0632749328859893	3.6253866033407287	1.801241891717016	2.756749693337852	1.0486147894483937	3.2854366573150307	0.1818255663757848	-0.1848269520747439	0.3666525184505287	73.11615038488648
7	3.0	perception	417	diff_vonmises	-0.0167968159416224	-0.9623866627130272	4.884798555865801	1.7570841883356918	0.2962563960563819	2.2738583441905287	1.0286181345342147	-0.3465347451485147	1.3751528796827297	58.97445616008719
8	3.0	wm	417	diff_vonmises	-0.0321156997610013	-1.840094052414686	2.8398245768532595	0.9392645557945104	0.5404729781750534	1.6241209562776615	0.1830873336637324	-0.207733352497514	0.3908206861612465	68.63385408582471
9	4.0	ltm	417	diff_vonmises	-0.178366325658489	-10.219637667487428	1.333644564239036	12.40200543701994	1.128869717560805	13.437047622014752	0.0879470128963042	-0.2731428095970778	0.361089822493382	74.44588242462828
10	4.0	perception	417	diff_vonmises	-0.0793048292547221	-4.543832011301201	2.5896757056263926	2.1521231940315126	0.1380076401504676	3.3622661393504805	0.683338927768385	-0.4704506787588102	1.1537896065271953	80.82333337816038
11	4.0	wm	417	diff_vonmises	-0.1215067354086379	-6.961823121327752	1.204881470810511	278.7354356787138	1.1933439252526885	280.0214609825724	0.1081317476472207	-0.3370112108780532	0.4451429585252739	75.41756684803508
12	5.0	ltm	417	diff_vonmises	0.0088980250300585	0.5098192802241214	1.869938567927884	0.9742322215875662	0.0156637767024242	1.3455941960589377	0.2649655609533224	-0.1993526521988438	0.4643182131521663	99.44677864050703
13	5.0	perception	417	diff_vonmises	-0.0422079729371347	-2.4183387111002177	2.0350044013121598	2.326284628214046	0.2329673979893555	2.544671327742755	0.7082990823693516	-0.301306936894304	1.0096060192636556	89.17277871334957
14	5.0	wm	417	diff_vonmises	0.0645724196630982	3.699727119643096	1.3644038906451237	1.64226571898936	0.2477623503175551	2.0066126819625483	0.2689036138820105	-0.2016312884455158	0.4705349023275263	103.26277118740992
15	6.0	ltm	417	diff_vonmises	-0.119900890883665	-6.869815007492616	0.4683220644689374	93.68925703510844	0.454012363065421	93.9193575929296	0.1941491280730147	-0.1784484695902293	0.3725975976632441	129.25258859768172
16	6.0	perception	417	diff_vonmises	-0.0455063359300916	-2.607320989898786	0.6800331349873278	110.7370382560758	0.6570122586060505	111.02435187650784	0.4056703860321704	-0.2669320025609956	0.672602388593166	111.84322382672994
17	6.0	wm	417	diff_vonmises	-0.0415038269114835	-2.377994115669491	0.5312391149765398	68.77218480161056	0.5074176834401058	68.96773902139532	0.2585443187128611	-0.199227334948528	0.4577716536613891	124.4725881061584
18	7.0	ltm	417	diff_vonmises	0.035785114140921	2.0503360096686998	1.0016388046849185	151.6444880081998	0.9837516926927802	152.50207073882828	0.2230411756481345	-0.2700840791829169	0.4931252548310514	86.94640314747164
19	7.0	perception	417	diff_vonmises	-0.0280985247607847	-1.6099268793368045	2.0872819562174034	1.7983539332209733	0.0175154854699616	2.6015381233115	0.5305841741274187	-0.3921838287609107	0.9227680028883294	94.30805468892883
20	7.0	wm	417	diff_vonmises	0.1364374293662248	7.817288870298961	1.6822298037965373	1.056298755489056	0.1759131136602788	1.848360759303214	0.1424969592361107	-0.2300171915071295	0.3725141507432403	94.72334463433248
0	1.0	ltm	8	diff_vonmises	-0.0112911264085816	-0.6469338891604342	2.7021978762939787	0.1984741891162305	1.3391138965289309e-22	2.020126519163482	-0.1991123636405218	-0.3209626565711034	0.1218502929305815	83.66197873536984
1	1.0	perception	8	diff_vonmises	-0.0318551748879841	-1.825167076732618	16.146868908001842	0.5758933479867431	0.0300426313319997	2.582588515078184	0.4923056239255732	-0.4171592965751436	0.9094649205007168	33.563104382884035
2	1.0	wm	8	diff_vonmises	-0.0013389171411004	-0.0767143013027791	5.303554978974781	0.2209537697924323	4.502657253656395e-16	2.2763162719338665	-0.164590810827053	-0.362282095770467	0.1976912849434139	59.2465355703302
3	2.0	ltm	8	diff_vonmises	0.0513095437528694	2.9398203057812604	5.18250332546491	0.3115638852996861	5.0245800795839e-32	1.6648455560445976	0.0104040647047471	-0.26495972096663	0.2753637856713772	59.94747895593744
4	2.0	perception	8	diff_vonmises	-0.0120435906803341	-0.6900469161662379	8.180708831370158	1.2308194030525117	0.3298713509206806	2.771119795615629	0.7844338488422528	-0.4832984665929127	1.2677323154351656	45.43210392797681
5	2.0	wm	8	diff_vonmises	0.0540045018983591	3.0942300334822206	4.373011964804912	0.389751013147268	0.0951200855673721	2.1091577870346314	-0.0538227465970976	-0.3320974533357448	0.2782747067386471	61.37031907961432
6	3.0	ltm	8	diff_vonmises	0.1108454505463112	6.350976494529718	1.505643438663747	112.27712250457336	1.4808294648191622	113.20343137271271	0.0899172988647478	-0.2663945434241714	0.3563118422889193	67.45432435245738
7	3.0	perception	8	diff_vonmises	-0.0165264277420353	-0.9468945600465456	4.837192271550866	2.1429612808154443	0.379018788988372	3.145361661942074	1.1199563803790196	-0.4831323136790192	1.6030886940580389	58.21304313378533
8	3.0	wm	8	diff_vonmises	-0.0088571286436155	-0.5074760898836016	4.122571308986824	0.5076900503180372	0.2825732477883175	1.9230351780120023	-0.0012587788999851	-0.3044399650171374	0.3031811861171523	59.46080769313028
9	4.0	ltm	8	diff_vonmises	-0.0130815844674929	-0.7495195793312388	1.0513015640817305	222.20825941196043	1.0395256106458417	223.90762064401792	-0.1004850657014628	-0.3629344692808161	0.2624494035793532	74.07520826804233
10	4.0	perception	8	diff_vonmises	-0.0581287818057298	-3.330533865705169	2.520773511556825	2.4038490910925723	0.2823289197944923	4.165428227690166	0.5616301492699444	-0.545117620283546	1.1067477695534904	77.41217939837401
11	4.0	wm	8	diff_vonmises	-0.1075004008557819	-6.15931926500085	0.9927959012287676	256.85491456420334	0.9812791044265746	258.9258004377714	-0.1400922161550397	-0.4307859650839774	0.2906937489289376	75.48567218555732
12	5.0	ltm	8	diff_vonmises	0.0918829622933823	5.2645059485704895	1.741045846855734	1.656196617910284	0.4653132715749278	2.793290198147293	0.1142580185908259	-0.286974484001267	0.401232502592093	82.00836602530515
13	5.0	perception	8	diff_vonmises	-0.0321812445616559	-1.8438494928612184	2.505045949244619	1.9890561063397127	0.1067308901858121	3.1804525646001705	0.6120531892920885	-0.4521448642172375	1.064198053509326	82.89688821881268
14	5.0	wm	8	diff_vonmises	0.0459325358461613	2.631740446318408	1.7114413082903237	0.7976922375049997	1.9910541851387976e-19	2.34188177465062	0.0016270193383062	-0.3605105766404283	0.3621375959787346	104.27396899126576
15	6.0	ltm	8	diff_vonmises	-0.2620082098526395	-15.01196462233424	0.487046209628215	116.82311653640348	0.472288637833986	118.03944190011389	0.0273420542929621	-0.3121537865171842	0.3394958408101463	119.03254170732032
16	6.0	perception	8	diff_vonmises	-0.0453658036025023	-2.599269080642769	0.5896865672998094	104.0681589255282	0.562453030093343	105.45664267069728	0.1761886619103236	-0.4150003699653872	0.5911890318757109	112.39448135831378
17	6.0	wm	8	diff_vonmises	-0.0089478286465268	-0.5126728172522433	0.4122812584447556	139.45389921324815	0.4000625958220236	140.91472959246445	-0.020391684364263	-0.3577384339410088	0.3373467495767457	126.49536791806771
18	7.0	ltm	8	diff_vonmises	-0.0243104165770742	-1.3928842680712303	1.1172862431565087	258.8523156163171	1.1048438219818286	260.38392151880134	0.0485776031076881	-0.3703516754297098	0.4189292785373979	76.76871059189642
19	7.0	perception	8	diff_vonmises	-0.0301999117495056	-1.7303274849142178	1.2865453262425957	2.0703753736478494	6.188382083503123e-14	3.625998384018848	0.2407254332342381	-0.5146945644006677	0.7554199976349059	117.55024089413816
20	7.0	wm	8	diff_vonmises	0.1459886470258669	8.364533331407275	0.8426758710165446	42.89678144999328	0.7942903175872057	44.57212259243983	-0.1106014765777594	-0.3357703035511985	0.2251688269734391	83.14972056166604
0	1.0	ltm	106	diff_vonmises	-0.1981067711407672	-11.350681879330065	3.114276703255921	0.3331434403896232	3.147681120468532e-18	1.1140374521126597	0.0455623549621491	-0.1768649549199958	0.2224273098821449	77.83202300960664
1	1.0	perception	106	diff_vonmises	-0.0621301885924385	-3.5597975866985827	15.634775223221864	0.6997192455767872	9.349150257708029e-14	1.753367044130997	0.8151205830246456	-0.2790570321278187	1.0941776151524645	34.26610995019419
2	1.0	wm	106	diff_vonmises	0.0199380578180465	1.1423665646618846	3.9815481176777743	0.3893233500881674	3.759486355072983e-22	1.26795049604879	0.0967750346023092	-0.2016966601564612	0.2984716947587704	68.62373788904125
3	2.0	ltm	106	diff_vonmises	0.0202541504434663	1.160477338033646	4.334763402322311	0.4287348969548992	0.2765453305872849	0.7674992364017824	0.1863129379737772	-0.1163059741528756	0.3026189121266529	61.55984121003891
4	2.0	perception	106	diff_vonmises	-0.0242228982369547	-1.3878698365523905	7.197345776709383	1.286675665154645	0.6213044277496242	1.488600936753143	0.9499126065632956	-0.2593825735127369	1.2092951800760328	47.99056284955833
5	2.0	wm	106	diff_vonmises	0.0083583178362847	0.4788963358480333	4.436637895085092	0.4851006753066696	0.3993254560055406	0.8470663518850493	0.2012733817618841	-0.1291045184547714	0.3303779002166555	59.62234794957524
6	3.0	ltm	106	diff_vonmises	0.0548717882346738	3.1439218801824165	1.7952284074110496	90.19388342207944	1.7774794674006689	90.33665639748912	0.1940959130755715	-0.1014123981492503	0.2955083112248218	67.8300862289216
7	3.0	perception	106	diff_vonmises	-0.0233922720726565	-1.340278462984963	4.559572729732009	1.846534013514216	0.6025971203683483	1.8537861030267555	1.030760136560259	-0.2648460931783595	1.2956062297386186	59.31355088710467
8	3.0	wm	106	diff_vonmises	-0.0809876160346458	-4.640248591611237	1.7578533669697454	53.49949726288131	1.7204988224840472	53.74291404056496	0.2169095034538344	-0.13493447453809	0.3518439779919244	67.89721804361017
9	4.0	ltm	106	diff_vonmises	-0.1830270740960213	-10.48667888233022	1.6216889597460722	127.54936877806446	1.6038826696857515	127.99488908143088	0.1867419157157854	-0.1753291374422456	0.3620710531580311	68.62946030539484
10	4.0	perception	106	diff_vonmises	-0.0901998971631167	-5.1680734199606375	3.060056262853384	1.9384724146054049	0.1762304212557149	2.43569990495932	0.8252129752600953	-0.3410241654198647	1.16623714067996	74.79384984355596
11	4.0	wm	106	diff_vonmises	-0.1381410913474535	-7.914901511540262	1.415455920415161	225.13705172964035	1.4033612100446202	225.8112792235236	0.2045804375362792	-0.2304483474416301	0.4350287849779093	72.74081266642636
12	5.0	ltm	106	diff_vonmises	0.0473602845582668	2.7135444217272964	0.8507169138792728	45.37153838871543	0.8157450532244503	45.51383455357412	0.259243011969275	-0.1402921268622523	0.3995351388315273	100.850576809719
13	5.0	perception	106	diff_vonmises	-0.005219542742214	-0.2990577701170043	2.2138993730457006	1.9399941182270592	0.1809092351108339	2.001606554406142	0.6852078747207531	-0.2537941540677766	0.9390020287885296	87.44316247977994
14	5.0	wm	106	diff_vonmises	0.0752158250761004	4.309549329454818	0.9846787948919148	3.1690006310440357	0.4940898538727162	3.2781142415961817	0.2684631235962957	-0.1499176145866994	0.4183807381829951	107.76653974678192
15	6.0	ltm	106	diff_vonmises	-0.1803913673228859	-10.335664008195517	0.4590707502562645	124.66528133982948	0.4480380675416741	124.73984418023284	0.2373673597790073	-0.1686430159732932	0.4060103757523006	131.08861253712575
16	6.0	perception	106	diff_vonmises	0.0001361366256554	0.0078000540872104	0.7346354777033596	212.5739479576725	0.7208456070925869	212.75331413242333	0.5075447513079112	-0.2782513012251613	0.7857960525330725	108.3544940397396
17	6.0	wm	106	diff_vonmises	-0.1089172139557935	-6.240496675990359	0.9844401913561976	1.881247389176676	4.2760201813994615e-10	1.8983534968179043	0.3351629661336044	-0.2131560371776764	0.5483190033112809	129.14597018410836
18	7.0	ltm	106	diff_vonmises	0.1193583882996906	6.83873189905594	1.0540226063901574	129.59218375697105	1.0373287278616603	130.04785827953552	0.2485700978976268	-0.1896692508729458	0.4382393487705727	87.17216308985869
19	7.0	perception	106	diff_vonmises	-0.0364249436015691	-2.086995537371964	2.2197260352919126	1.4587294767775778	3.3224417832208026e-17	1.919304804197724	0.4957419542870192	-0.2960106088316285	0.7917525631186477	92.26102978892035
20	7.0	wm	106	diff_vonmises	0.2385582586012067	13.668381385839616	2.2618402491650262	0.680551715082235	0.0350780037799716	1.0672677058752202	0.2021269215426441	-0.1598542823105968	0.3619812038532409	89.86069912742218
0	1.0	ltm	325	diff_vonmises	-0.1700186548853649	-9.741351363422703	2.8469796682496757	0.4329517758408524	8.475032837647257e-19	2.1034444582270813	-0.0595903160882663	-0.3338471967992016	0.2742568807109353	81.46871542381191
1	1.0	perception	325	diff_vonmises	-0.0551015809636583	-3.157088033716024	15.394196530589454	0.7561403399579213	4.300774535896119e-22	2.6269061956898256	0.7555043849625953	-0.4180851060827116	1.1735894910453069	34.52350286122885
2	1.0	wm	325	diff_vonmises	-0.0032473247332289	-0.1860580019224638	4.094688679017199	0.4227634176685374	1.0271544949907334e-24	2.240666699973513	-0.0274035134797416	-0.3565217929616641	0.3291182794819224	67.64311573231103
3	2.0	ltm	325	diff_vonmises	-0.0625304051133466	-3.5827283042380267	3.8507985880112257	0.4774821587388674	0.0344044121135029	1.4109348763960212	0.1271721775271469	-0.2198174675462038	0.3469896450733507	68.4316041503136
4	2.0	perception	325	diff_vonmises	-0.0458870764894027	-2.6291358170367656	7.5913923114914255	1.2034491549548398	0.237338306526269	2.084134749765314	0.8846518437268502	-0.3462128421645261	1.2308646858913763	47.928595700648685
5	2.0	wm	325	diff_vonmises	-0.0404404258007953	-2.317065720097538	3.879952137318581	0.6164404518702271	0.1716111753155319	1.6123324745706138	0.1636721117897185	-0.245244125210705	0.4089162370004236	65.05878296141938
6	3.0	ltm	325	diff_vonmises	-0.035437020563448	-2.0303917168038863	2.2265327689530303	0.992899823242277	0.3976549350957058	1.4721494526791294	0.2110235315652889	-0.1703193189711859	0.3813428505364748	79.59566726157777
7	3.0	perception	325	diff_vonmises	-0.0311901048478753	-1.7870613703537843	3.787696465565178	2.2321995868805944	0.4284044064033117	2.5509163685102245	1.07020149566417	-0.3507970695992402	1.4209985652634105	65.25656160831181
8	3.0	wm	325	diff_vonmises	-0.1407559083559265	-8.064719490324787	2.3068249005997323	1.521079903775527	0.6869108807604157	2.0595554702709946	0.2739202852810031	-0.2071865117172276	0.4811067969982306	73.56822284670457
9	4.0	ltm	325	diff_vonmises	-0.1604804877094141	-9.19485463995051	2.031261000227662	1.6196099495539724	0.6066444656511303	2.580588067209315	0.1548528863095958	-0.2647566296704452	0.419609515980041	75.45534064891618
10	4.0	perception	325	diff_vonmises	-0.1047764242377852	-6.003246901297317	2.35509730787497	2.991218709026424	0.3536338825632289	3.934217900526909	0.8373218344101573	-0.4662862637193412	1.3036080981294984	79.95699829207575
11	4.0	wm	325	diff_vonmises	-0.1613526749622811	-9.2448272884849	1.1425012814742967	279.8301089908037	1.1317932787494245	280.9921506885564	0.1325224698126987	-0.3113826995190649	0.4439051693317637	78.34894717470772
12	5.0	ltm	325	diff_vonmises	-0.006949003364018	-0.3981485645804442	0.6232472434678156	70.30886522998509	0.5960234996338137	70.9257236506652	0.1992416869606827	-0.2448710153140689	0.4441127022747517	112.7039890707301
13	5.0	perception	325	diff_vonmises	-0.0026655881700999	-0.1527269520667249	2.1396846158829312	2.255432352306444	0.1438785010230538	2.722893537597571	0.7139956881585776	-0.3585024893030386	1.0724981774616162	89.082401618414
14	5.0	wm	325	diff_vonmises	-0.0349709030086082	-2.003685148154604	0.6408433290188672	125.42951961370063	0.6251452325362927	126.0756688381736	0.1990919351049669	-0.2465676606029792	0.4456595957079461	110.3743128246506
15	6.0	ltm	325	diff_vonmises	-0.1604135759218591	-9.19102087692393	0.328203894485144	129.11048187112996	0.3181676773292839	129.67986788342915	0.111853426870951	-0.232944011960976	0.344797438831927	141.493100488785
16	6.0	perception	325	diff_vonmises	-0.0077709059883545	-0.4452401161256537	0.4831330324731755	165.0936722852783	0.4661605091865023	165.6748276081671	0.3818000880517047	-0.3780368345207776	0.7598369225724824	127.5981255900528
17	6.0	wm	325	diff_vonmises	-0.1489031874377777	-8.53152419623008	0.4347926758866356	121.30875770720796	0.4196210295951417	121.89200577778608	0.2043440163112535	-0.2792123760073597	0.4835563923186132	131.04484196072082
18	7.0	ltm	325	diff_vonmises	0.1545289433664494	8.85385626751367	0.8558920182185091	125.64922598935642	0.8392649211891398	126.33868733195754	0.1841538015188106	-0.2240690898152522	0.4082228913340628	94.484119249866
19	7.0	perception	325	diff_vonmises	0.0357333151821865	2.0473681479500394	1.62971844124246	2.2310386259901427	0.2246330035706689	2.8379637282495445	0.4579421291757538	-0.3186672262882279	0.7766093554639818	96.85701228346142
20	7.0	wm	325	diff_vonmises	0.1209043525998833	6.927309128734877	0.7932912825275942	70.87054420612807	0.767827101498542	71.54758045283002	0.1432125399482373	-0.2086977108009744	0.3519102507492118	97.7002077023074
0	1.0	ltm	492	diff_vonmises	-0.0342325020605101	-1.9613778902401275	5.567341715764862	0.19175546998974	9.78184383753496e-19	2.282186028117794	-0.1871824597213122	-0.3632186177578785	0.1760361580365663	57.79291786303765
1	1.0	perception	492	diff_vonmises	-0.0219852697112791	-1.2596631659130946	14.187682666385667	0.701995754816928	0.0595333394883564	2.964546450814176	0.54479573182463	-0.4853511976388871	1.030146929463517	35.672128863881454
2	1.0	wm	492	diff_vonmises	-0.0096551324522831	-0.5531983401556222	6.4246800581004	0.2507578038002638	2.3563632511799455e-18	2.5765739472076348	-0.1619041155496733	-0.4100738275407226	0.2481697119910492	53.73173039352804
3	2.0	ltm	492	diff_vonmises	0.0044766536457112	0.2564933602411082	5.0186420743163085	0.3576072310622927	3.914953539023831e-14	1.6246854078017137	0.0521176499646354	-0.2585631229800804	0.3106807729447158	60.94509653466943
4	2.0	perception	492	diff_vonmises	-0.021330293410183	-1.2221357881792032	7.944384718413083	1.279675084847895	0.3442257785854044	2.6602369189141903	0.8346985784545086	-0.4623165796502372	1.2970151581047458	46.09306987207924
5	2.0	wm	492	diff_vonmises	0.0199770174906101	1.1445987894709886	4.013341452050522	0.5176809518783821	0.129646207399277	2.065513699216761	0.0260672335903974	-0.320865444889551	0.3469326784799484	63.65634559275708
6	3.0	ltm	492	diff_vonmises	0.0940793564670291	5.390350064867576	2.155364713387379	1.5354592703143806	0.8543587481783526	2.2455442090914253	0.123449861067358	-0.2085010326444624	0.3319508937118204	69.8491837511448
7	3.0	perception	492	diff_vonmises	-0.011838636996221	-0.6783039350709028	4.76596819433223	2.0091578885081347	0.4012247810044955	2.7163756647792674	1.07752164861892	-0.4126421782744985	1.4901638268934183	58.66014708419351
8	3.0	wm	492	diff_vonmises	-0.046552220259352	-2.667245747824281	3.6802664780372334	0.6160872621257738	0.2969036149789911	1.6512842819622249	0.1064903657140744	-0.2490964026302018	0.3555867683442763	63.81136873039833
9	4.0	ltm	492	diff_vonmises	-0.0790971739943444	-4.531934241287866	1.0125244617842286	161.69875857528783	0.9962944121363266	163.22738194820016	-0.0250318693503004	-0.3401341316013493	0.3151022622510488	78.56740268319018
10	4.0	perception	492	diff_vonmises	-0.0563111432710232	-3.2263908489861395	2.620735837742312	2.309785822362421	0.2491203858612689	3.916013187745565	0.6120680016976514	-0.5238039805277015	1.135871982225353	77.16525423455818
11	4.0	wm	492	diff_vonmises	-0.1169495996480139	-6.700718475575855	1.0009567051236508	318.0257404030442	0.9914995386770152	319.84071210165706	-0.0481401996453456	-0.3979233759993406	0.3497831763539949	78.27682871294584
12	5.0	ltm	492	diff_vonmises	0.0484880589865455	2.778161136710444	2.151323900402793	0.9565412694807072	0.1450152482148948	1.8403774921202007	0.1787771084173928	-0.2506641898230592	0.429441298240452	86.37060998687437
13	5.0	perception	492	diff_vonmises	-0.0312669982329305	-1.791467036789924	2.5180581415617977	2.035745867854548	0.0850469051538377	2.850911678592441	0.7117293439234751	-0.410238597432668	1.121967941356143	83.76020073625605
14	5.0	wm	492	diff_vonmises	0.0266856956204027	1.5289777324198215	1.7142673345472752	0.9962466345132908	1.8747546062283455e-18	2.071569044546152	0.1382875884702318	-0.3145197678866671	0.4528073563568989	104.20348054678914
15	6.0	ltm	492	diff_vonmises	-0.1546155616559357	-8.85881912992988	0.4926196527132022	70.82291162131587	0.4707599630095546	71.54327728072401	0.1146895622383397	-0.2451978757920088	0.3598874380303485	123.18573196236048
16	6.0	perception	492	diff_vonmises	-0.0410917597106545	-2.354384404186222	1.145035813693979	1.919284953478733	1.1945168894753294e-08	2.755168046501688	0.2695941297461159	-0.3667945561138575	0.6363886858599734	122.767526768524
17	6.0	wm	492	diff_vonmises	-0.061323292042295	-3.5135658198716957	0.4283369156718489	158.16838145324076	0.4175114010977589	158.99650096607027	0.1239761694561636	-0.2892918932294357	0.4132680626855993	129.67018884944366
18	7.0	ltm	492	diff_vonmises	0.0755914281252649	4.331069798944188	0.9877103559938746	179.2930002709038	0.9738428641004572	180.33329769399265	0.1207587163652945	-0.2747485817169917	0.3955072980822862	84.75581375403587
19	7.0	perception	492	diff_vonmises	-0.0285505320904377	-1.6358249916349028	0.694478293565361	60.68064521218086	0.6424705506895555	61.637226856478826	0.338746533491669	-0.3776338444112053	0.7163803779028743	107.87328269928408
20	7.0	wm	492	diff_vonmises	0.113307649358046	6.49205009476425	0.806481052026384	113.28461005366884	0.7895915861046294	114.37734243128172	0.0357335112830412	-0.2559344744189022	0.2916679857019435	91.39456834529022
0	1.0	ltm	181	diff_vonmises	-0.0432193149051874	-2.476284337514092	6.304410742570586	0.3227939338881823	0.021828469562821	2.824696988574229	-0.1431220602444003	-0.4494962121019749	0.3063741518575746	53.269980527105645
1	1.0	perception	181	diff_vonmises	-0.0266775639159589	-1.528511820074944	13.927133438822134	0.736154649271838	0.0641234206310633	3.3541064812741768	0.516725597626543	-0.5504097330907884	1.0671353307173317	35.96784222516581
2	1.0	wm	181	diff_vonmises	0.0103716429937265	0.5942513701569604	5.367380755420076	0.3847145075188697	0.011886325862227	3.109582697991162	-0.1544405288192893	-0.4933660134089324	0.338925484589643	58.14897384681987
3	2.0	ltm	181	diff_vonmises	-0.0666356207992191	-3.817939837029423	3.377439727274089	0.6035974777922001	0.1321869340045296	1.835290171498504	0.0907528128296115	-0.2767553702094009	0.3675081830390124	69.5648816517633
4	2.0	perception	181	diff_vonmises	-0.0381820363684439	-2.1876695371268564	7.638509618928714	1.1598399500661625	0.2742976110780157	2.428031933248076	0.7574723118831724	-0.4106102344514032	1.1680825463345756	47.33107719660234
5	2.0	wm	181	diff_vonmises	0.0039345901413377	0.2254354092124326	3.8641985425276166	0.7259055377267754	0.22408302100468	2.121839397907725	0.1303852164861489	-0.3243948083514597	0.4547800248376087	63.63314432583539
6	3.0	ltm	181	diff_vonmises	-0.0267803398189371	-1.534400445551241	2.0310781754804994	1.518694113578963	0.6376216857765074	2.264130432918599	0.1733603463668682	-0.2225904560507236	0.3959508024175918	75.84345568517278
7	3.0	perception	181	diff_vonmises	-0.0266196648176866	-1.5251944461063278	4.068919799282374	2.0166459633598204	0.38715673448749	2.697238617269145	0.9556206961016992	-0.389758327763842	1.3453790238655412	63.0611741474909
8	3.0	wm	181	diff_vonmises	-0.0734839850636743	-4.210322205950919	2.3880122254731337	1.3210904271985404	0.5584212862765889	2.239832971052271	0.1806202799472775	-0.2611854365496594	0.441805716496937	72.39964825942403
9	4.0	ltm	181	diff_vonmises	-0.1390431930729377	-7.966588133101975	1.0136620152083613	100.88815600540156	0.9850541911261465	102.1693283986086	0.1118513613133203	-0.3262926139944575	0.4381439753077778	83.11989820777188
10	4.0	perception	181	diff_vonmises	-0.0931064711461428	-5.33460784203056	2.321858174077508	2.880852970542981	0.3487060897287423	4.059778464680112	0.7367383628903378	-0.4854252180271846	1.2221635809175224	79.95988346488568
11	4.0	wm	181	diff_vonmises	-0.1515541711154668	-8.683414372519739	1.0330571438266432	338.3865741671998	1.0236261875306747	339.85076310179187	0.0952655635564383	-0.3635362025372401	0.4588017660936785	81.17945215442026
12	5.0	ltm	181	diff_vonmises	0.0045067270239554	0.2582164378901992	0.6771200780151682	124.27354030468184	0.6569013854541744	125.3159993167458	0.1899948191355704	-0.3233025991714093	0.5132974183069798	105.4114971147024
13	5.0	perception	181	diff_vonmises	-0.0204991094698388	-1.1745124563984246	2.1563903014775114	2.4067989202178857	0.18011582277904	3.383245341197612	0.6596818177705712	-0.4381903557630278	1.097872173533599	86.90961894405945
14	5.0	wm	181	diff_vonmises	-0.0357577903119221	-2.0487704695869247	0.6686604974256594	215.80388694330537	0.6569254802526073	216.8693836092618	0.1872783836746165	-0.3278195943784574	0.515097978053074	105.61786647407985
15	6.0	ltm	181	diff_vonmises	-0.1113673329100896	-6.380878151376532	0.4293200717123739	152.1436415312294	0.4169831616820768	153.0401085725044	0.1386333764610299	-0.316002418360501	0.4546357948215309	129.6716736340777
16	6.0	perception	181	diff_vonmises	-0.0213159503052731	-1.2213139888027498	0.938116183707898	3.426580636226701	0.1257817739902204	4.398983733002984	0.3398495696218556	-0.4417528595902098	0.7816024292120655	123.65787601762534
17	6.0	wm	181	diff_vonmises	-0.1812015649057045	-10.38208491026272	0.5071509276090382	148.21111102820473	0.4914745007103904	149.10551034863272	0.214935018336547	-0.3442438841959205	0.5591789025324676	122.50688518762529
18	7.0	ltm	181	diff_vonmises	0.0962166315573007	5.5128069071985815	0.751518138301523	204.36468609037664	0.7393402540365699	205.41135314479905	0.1693358314621136	-0.3038356447652219	0.4731714762273356	99.05210021341551
19	7.0	perception	181	diff_vonmises	-0.0287309123631321	-1.6461600199677089	1.4108419214385282	3.422931638693752	0.3793815306094534	4.337378894100684	0.455277096889407	-0.3812442780899873	0.8365213749793943	96.03411522530754
20	7.0	wm	181	diff_vonmises	0.1824194768432458	10.45186612410244	1.2108393493011302	3.7419212414137744	0.6044972017181433	4.724130160924021	0.1676140489609336	-0.2783439431898592	0.4459579921507929	90.39583598230448
0	1.0	ltm	302	diff_vonmises	-0.0664825855862205	-3.80917156520772	4.96953141002152	0.2647648456346514	2.102541936807632e-21	2.7613017962137065	-0.2106409392700383	-0.4394637878188281	0.2288228485487897	61.25174816578871
1	1.0	perception	302	diff_vonmises	-0.0093660274213096	-0.5366338420448411	12.596713112553108	0.8540209977502868	0.0708109134152637	3.45951974433202	0.6060158641039604	-0.5677165006453131	1.1737323647492734	37.78909442586368
2	1.0	wm	302	diff_vonmises	0.0154343975467722	0.8843258387571198	6.0978225466210345	0.3176753667808589	4.818844056004232e-21	2.983259750994821	-0.1688403058891928	-0.4747989900228094	0.3059586841336166	55.17293894041322
3	2.0	ltm	302	diff_vonmises	-0.0491054639065062	-2.813535832874805	4.284005949092291	0.4265003862089673	0.0057998894721589	1.7877541722334016	0.0541863391448847	-0.2831809165893969	0.3373672557342816	65.74609041529786
4	2.0	perception	302	diff_vonmises	-0.031983312083902	-1.832508797257353	7.896018226693223	1.2878172658082825	0.2550091264820709	2.6422181533964326	0.8853293185346772	-0.4459853752797325	1.3313146938144098	46.7450883522003
5	2.0	wm	302	diff_vonmises	0.0047517496358869	0.2722551994391485	3.954987493862448	0.6040006495290472	0.1144195674237119	2.11211446312249	0.0858357373097853	-0.3262542543076897	0.412089991617475	64.91956867197928
6	3.0	ltm	302	diff_vonmises	0.0263054363500734	1.5071904811092318	2.9269333460891023	0.537943561711189	0.1794937570626945	1.1008754108250678	0.1393868922834104	-0.1573158983840972	0.2967027906675077	74.38539792415864
7	3.0	perception	302	diff_vonmises	-0.0076119554099401	-0.4361329188313441	4.189860948150257	1.9539400397642424	0.3540436690340651	2.409964969920192	1.0107565506751195	-0.3498650555221495	1.3606216061972694	62.84635829129383
8	3.0	wm	302	diff_vonmises	-0.1010692496294346	-5.790841442320764	3.240354812546936	0.7123419678911626	0.2874315780452792	1.396958611624412	0.1970204018026121	-0.1987318696270181	0.3957522714296302	69.11986748792376
9	4.0	ltm	302	diff_vonmises	-0.1058487005849556	-6.064683810461884	1.7227851660842122	1.5705904634247392	0.4599019104665309	3.027537968671436	0.0156649273722592	-0.3257186881558266	0.3413836155280859	79.70735110889336
10	4.0	perception	302	diff_vonmises	-0.0807550411990785	-4.626923035112285	2.273237983070343	3.068777537872317	0.3808357878168703	4.508478347681926	0.6965231104438343	-0.529811824261729	1.2263349347055632	79.48500751767313
11	4.0	wm	302	diff_vonmises	-0.1184275630879404	-6.7853995429582845	0.9681968328099676	260.75513901429525	0.9573742726385308	262.3774473562697	-0.0058206044679991	-0.3641286313521163	0.3583080268841172	81.04231632449483
12	5.0	ltm	302	diff_vonmises	-0.0057811575868703	-0.3312359304277043	1.7178571049317268	0.9439637993387988	1.25267956784045e-14	1.899414927467386	0.1417049685369783	-0.2880023858957664	0.4297073544327447	104.10694241965352
13	5.0	perception	302	diff_vonmises	-0.0239962434795156	-1.37488347554457	2.467237819928243	2.2074126856141856	0.083966691121399	2.9693071645413727	0.7777728425302642	-0.4258895476373287	1.203662390167593	84.72042079886208
14	5.0	wm	302	diff_vonmises	-0.0005470282537052	-0.0313424102117246	0.610980352856294	116.739858255283	0.5921689659076752	117.7443858494429	0.1504377178637703	-0.3072804763902645	0.4577181942540349	110.47203597671812
15	6.0	ltm	302	diff_vonmises	-0.0883525444329434	-5.062227905249736	0.4362520865177507	82.60147134453585	0.4190611126157251	83.36534500271166	0.0850158007354409	-0.2468515772466872	0.3318673779821282	128.39675360907813
16	6.0	perception	302	diff_vonmises	-0.0604484019162779	-3.4634383081132443	0.7166149248838498	3.286874695177255	3.0782394406612314e-08	4.032346487238749	0.303929531386594	-0.4161732279967707	0.7201027593833648	141.26838905566927
17	6.0	wm	302	diff_vonmises	-0.1213496390786311	-6.952822164641366	0.4494557212791825	149.00151978718793	0.4370414173035545	149.7948889980519	0.1558869581715143	-0.2967894000354274	0.4526763582069417	128.00256265104662
18	7.0	ltm	302	diff_vonmises	0.1965598148725184	11.262047814068096	0.7935570826321451	94.30256482279182	0.7729882263020231	95.17272197780252	0.1106877262247714	-0.2371254229979182	0.3478131492226897	95.67681814000709
19	7.0	perception	302	diff_vonmises	0.0148997310777803	0.8536917066367246	0.8473032611312349	182.75570875023445	0.8290926882260407	183.458007980796	0.4180815994024627	-0.3245395124336721	0.7426211118361348	97.87334469137332
20	7.0	wm	302	diff_vonmises	0.1130399545003029	6.476712309218217	0.7960387741847501	88.23902027254093	0.7749649492049937	89.11936887599727	0.0919917839134676	-0.2315669410827698	0.3235587249962375	94.8904861471738
0	1.0	ltm	469	diff_vonmises	0.021330574415548	1.2221518886006335	4.915900637124181	0.3200109170226954	7.465225245480223e-15	3.361197149923185	-0.2599679809984629	-0.534936369053588	0.2749683880551251	61.59239640534005
1	1.0	perception	469	diff_vonmises	-0.0169537716811025	-0.9713795641555896	13.66839207464846	0.6836720439319642	0.0120403300756757	3.819372525797677	0.3836049121710062	-0.6106086996034996	0.9942136117745058	36.55171183961156
2	1.0	wm	469	diff_vonmises	-0.030317881486222	-1.737086652938341	4.659945751435674	0.3935655192056471	0.009552015099584	3.6722594398583945	-0.2614114368162655	-0.5821045890815443	0.3206931522652788	62.40924433931548
3	2.0	ltm	469	diff_vonmises	0.0012573216032598	0.0720392213574098	2.864060356702214	0.8650414307487424	0.2032602121832744	2.6214005387375754	0.0457228182623632	-0.3815405901315799	0.4272634083939431	72.1081922019753
4	2.0	perception	469	diff_vonmises	-0.0259622205120605	-1.487525662129044	6.8041548445029	1.3267211627205862	0.2085128052843338	3.169946691778783	0.7381795006822537	-0.5206160298856708	1.2587955305679244	50.21504963496028
5	2.0	wm	469	diff_vonmises	0.0019882014463348	0.1139155516967932	3.511538123529809	0.7983479626912138	0.1387095144113864	2.798072631584469	0.0621907731940906	-0.4261407312630358	0.4883315044571264	67.64717580953624
6	3.0	ltm	469	diff_vonmises	0.0328282040112415	1.88091753883858	3.2411718605826367	0.7623801614695108	0.0524000154442781	2.2234418649844723	0.1490245859492796	-0.3407118370032454	0.489736422952525	73.71849971078856
7	3.0	perception	469	diff_vonmises	-0.0141463944540585	-0.8105286975448297	4.305364146812173	2.1746021000178097	0.1832949367691071	3.58013530272153	1.061410677726136	-0.5415610296223128	1.6029717073484488	63.1242891673989
8	3.0	wm	469	diff_vonmises	-0.0483383431564957	-2.769583051522293	3.526164007382406	0.8173047436965725	0.0603114657342903	2.528218510851104	0.1592274799378314	-0.3888640474370866	0.5480915273749181	70.4291809211905
9	4.0	ltm	469	diff_vonmises	-0.0726465073335631	-4.162338266579353	2.063982825751701	0.8200957079326845	1.748901951934239e-16	3.371668825404554	-0.1054276271797852	-0.5296687441206149	0.4242411169408297	95.56545701264956
10	4.0	perception	469	diff_vonmises	-0.0383475059830876	-2.197150247683596	1.7493916557224245	3.910720900892528	0.2867207919333611	6.37357007942699	0.5361166054996078	-0.7264270786455855	1.2625436841451934	89.21142358651082
11	4.0	wm	469	diff_vonmises	-0.0602940855873118	-3.4545966337535328	0.6934626943038161	293.86058274372067	0.6817561521330293	296.6748690123289	-0.1357640144170488	-0.5742669183972282	0.4385029039801793	93.03241152145154
12	5.0	ltm	469	diff_vonmises	-0.0410581572664673	-2.35245912595297	1.7595393806666508	1.182767923806711	9.026104943216984e-18	2.211379952196663	0.2125559430257672	-0.3352264188916251	0.5477823619173923	102.97964609389648
13	5.0	perception	469	diff_vonmises	-0.0333816676066821	-1.9126286669714652	1.632848960479652	3.713037161016597	0.3103401603129876	4.640807768232567	0.709832882053681	-0.4749686638989734	1.1848015459526544	93.88093618029814
14	5.0	wm	469	diff_vonmises	-0.0118247367206717	-0.6775075079478556	1.4458008469600658	1.6419680091827438	0.0878214711399573	2.7980201852653104	0.2102929312351296	-0.3684974902558119	0.5787904214909415	106.4519923816135
15	6.0	ltm	469	diff_vonmises	-0.0793047553423184	-4.543827776432415	0.8982306221748627	1.3930405662804897	8.550098944286566e-15	2.105338698895063	0.1140086678717893	-0.2605746200532997	0.374583287925089	132.8927787415441
16	6.0	perception	469	diff_vonmises	-0.0309486299676262	-1.7732258788570867	1.0396841536929762	2.205915222249957	5.972328069437792e-16	2.9616447097342817	0.2989480903340982	-0.3750632142721551	0.6740113046062534	126.943418815315
17	6.0	wm	469	diff_vonmises	0.0062654723974438	0.3589851250292463	0.4566534898443379	217.97247965803732	0.4480106887452678	218.77365055881413	0.1593305745898092	-0.2988647317872832	0.4581953063770925	127.10783394126418
18	7.0	ltm	469	diff_vonmises	-0.0263885267740798	-1.5119512117227458	0.8301827707628827	170.24797740340003	0.8126869867730816	171.8574828672312	0.0760542059334667	-0.3853880761077484	0.4614422820412152	90.65824650781433
19	7.0	perception	469	diff_vonmises	0.0941703510640055	5.3955636712328205	0.662664858105647	255.49523934733057	0.6467125981528045	256.96606644824686	0.3712399700549582	-0.5108933374098577	0.8821333074648159	107.7117898487706
20	7.0	wm	469	diff_vonmises	-0.0166937489637547	-0.9564813598740372	0.7554496150637519	154.45140223309596	0.7387884855591755	156.1419087297297	-0.0023306314997739	-0.3748413171889062	0.3725106856891322	92.72933472881158
0	1.0	ltm	158	diff_vonmises	0.0072710751282931	0.4166019173737421	5.408034634970063	0.3623886800837386	7.096118657888332e-16	3.80207190158046	-0.277549797085266	-0.6051119595279122	0.3275621624426462	58.66324393622958
1	1.0	perception	158	diff_vonmises	-0.0092867365337029	-0.5320908088311325	13.29933670050113	0.7035995063752553	0.0266746159332877	4.147517475686731	0.3354104667534416	-0.6675264696440516	1.0029369363974934	36.9473018251181
2	1.0	wm	158	diff_vonmises	0.0147147290975623	0.8430918739686667	3.5603978882129974	0.5488050975803573	0.0389806722184485	4.193246551179602	-0.2978737100127412	-0.6566704041296201	0.3587966941168788	68.99185864241574
3	2.0	ltm	158	diff_vonmises	-0.0252629803298824	-1.4474621508242822	2.81190186519424	0.8380751075674889	0.1708279078042451	2.595292012860223	0.0424186072158674	-0.3791239302102811	0.4215425374261485	73.65320022719465
4	2.0	perception	158	diff_vonmises	-0.0306007059912165	-1.7532913034174034	6.7093762419950655	1.2716944813139033	0.1987348836134209	3.034567591452027	0.7042374441459046	-0.4962951261248441	1.2005325702707488	50.61696937561823
5	2.0	wm	158	diff_vonmises	0.0131147713842626	0.7514210495971958	3.603741451980485	0.8716387838497623	0.1723706807418948	2.817873347903378	0.1038843478206835	-0.4284078247741253	0.5322921725948089	66.29924009252511
6	3.0	ltm	158	diff_vonmises	-0.0262420100391404	-1.5035564211826853	3.0257439779077107	0.8071723241588274	0.0424944997899957	2.222264234925571	0.1623120920260914	-0.3404772198599116	0.5027893118860031	76.7287578204726
7	3.0	perception	158	diff_vonmises	-0.0186961769313489	-1.0712120311961464	3.820839710115048	2.21002980294673	0.2030810410320636	3.51013323102744	0.9796441893560496	-0.517370504581865	1.4970146939379148	66.50736303882348
8	3.0	wm	158	diff_vonmises	-0.0651952384018754	-3.735412004776693	3.0348171470714163	1.0087466489418375	0.1414896079066567	2.585988563415164	0.1932582575139869	-0.3807045052663399	0.5739627627803268	73.29359879082332
9	4.0	ltm	158	diff_vonmises	-0.0858763565657268	-4.920352791176724	2.2271548136331933	0.8786287809766236	3.9146487925194555e-19	3.214904185047436	-0.0281154383743187	-0.5060449536556701	0.4779295152813513	92.10448524137249
10	4.0	perception	158	diff_vonmises	-0.0676635692931767	-3.8768369472900246	1.6064873205637538	5.171003507956156	0.4291871569733638	7.221982536200756	0.6481453350475705	-0.6786628190885481	1.3268081541361187	88.69818236498378
11	4.0	wm	158	diff_vonmises	-0.0845400694176405	-4.843789177373807	0.74003825888747	312.1891703350133	0.7285097214929764	314.72450474210524	-0.0484142645161824	-0.5451372672207313	0.4967230027045488	92.3592879012312
12	5.0	ltm	158	diff_vonmises	-0.0564023173749488	-3.231614740341964	1.0877495655134306	2.536403886947854	0.1882866269617244	3.926368976214071	0.1609091801742596	-0.4099183914617467	0.5708275716360063	111.6749453288556
13	5.0	perception	158	diff_vonmises	-0.0196679996457518	-1.126893371166381	1.400723671858782	5.136135508160323	0.4257445739235299	6.417545064620975	0.639672319081469	-0.5295055838502085	1.1691779029316776	94.76223981060164
14	5.0	wm	158	diff_vonmises	-0.0281437788612023	-1.6125197482963949	0.6133103600909666	288.45621162181044	0.6030557029874244	289.90475397674305	0.1747754141793507	-0.4189446797527409	0.5937200939320917	109.04617812160346
15	6.0	ltm	158	diff_vonmises	-0.0675323512675028	-3.86931870822287	0.8634434307489788	1.797770902234119	4.404276038172361e-19	3.012579274596502	0.0881866588339402	-0.3785165239725038	0.466703182806444	134.44799062789536
16	6.0	perception	158	diff_vonmises	-0.0231924548371303	-1.3288297787153405	0.7431204767563545	5.677576632051102	0.2114818875378862	6.857777175365279	0.3287438835743212	-0.4975564629582599	0.8263003465325812	126.93865349902958
17	6.0	wm	158	diff_vonmises	-0.0563987835365392	-3.231412266315609	0.4569172595960699	301.1387512003261	0.448567539236517	302.41415962545267	0.1637137656862677	-0.418651322723452	0.5823650884097198	125.88454998289303
18	7.0	ltm	158	diff_vonmises	-0.0047071319038448	-0.2696987917016871	0.6788674183314116	185.936855896752	0.6633331415992427	187.8151543922405	0.0283409572970612	-0.4337593202987833	0.4621002775958445	99.20180491709658
19	7.0	perception	158	diff_vonmises	0.086713442343645	4.968314273341861	0.7504099368339362	291.1350050214638	0.7342978062720186	292.8415798250579	0.3985533515089656	-0.5503071458977047	0.9488604974066704	100.65347864683524
20	7.0	wm	158	diff_vonmises	0.070978386470422	4.066761981403646	0.7753992898501908	182.66054988856465	0.7588085748502474	184.5694139918945	0.014065137158731	-0.4292698826008028	0.4433350197595338	91.97111588310663
0	1.0	ltm	37	diff_vonmises	-0.0356581089409712	-2.043059147735361	5.058906623635644	0.3767793763946005	4.0321050372631264e-11	2.720115676220764	-0.1041558812004607	-0.4329065885654395	0.3287507073649788	60.69485824553868
1	1.0	perception	37	diff_vonmises	-0.0434175284661216	-2.487641137997883	14.465890531391056	0.6648450640173538	0.0048755930066576	3.132895532010578	0.4982196638554094	-0.4994162190082902	0.9976358828636996	35.59928216753963
2	1.0	wm	37	diff_vonmises	0.010037563304458	0.5751100139408346	4.766984127010773	0.4639347161972911	0.0243786804987825	2.983634111177992	-0.0943900226321703	-0.4715903558900711	0.3772003332579007	61.212475980679216
3	2.0	ltm	37	diff_vonmises	-0.0938877429793275	-5.379371420724493	2.5367719161373308	1.0982858684965977	0.3549654597611638	2.4059443693424587	0.1235383908546715	-0.3194781159677159	0.4430165068223874	73.28311824779425
4	2.0	perception	37	diff_vonmises	-0.0437594029598232	-2.507229103610157	6.927987707444643	1.1342649733318857	0.1685608613397452	2.476867033616033	0.7043369183449664	-0.4026140843731242	1.1069510027180909	50.223749325847
5	2.0	wm	37	diff_vonmises	0.0044385639202703	0.2543109797305307	3.984106754438372	0.7241933339941262	0.1996659145641977	2.114184599592796	0.1487916386180093	-0.3245617512651785	0.4733533898831878	63.33910591250017
6	3.0	ltm	37	diff_vonmises	-0.0604443796913116	-3.4632078515984213	1.6063219474015935	2.8468492147611903	0.6708067757074726	3.836812971155369	0.2149702114307523	-0.2923214912453259	0.5072917026760783	81.43852293970562
7	3.0	perception	37	diff_vonmises	-0.0380856263421377	-2.1821456495167664	3.814945877766113	2.1216847591993604	0.2772978081694631	3.072714819829704	0.9563892258007758	-0.444739047825287	1.4011282736260628	65.84859218779036
8	3.0	wm	37	diff_vonmises	-0.0722587600776726	-4.140121985299045	1.7542276482311971	2.810763803891427	0.7271869507061838	3.897812491715838	0.2097232297459479	-0.3141743417029746	0.5238975714489226	77.5125052341869
9	4.0	ltm	37	diff_vonmises	-0.1556322611422209	-8.917071719527144	1.90425770163313	1.6648623235183082	0.3954821762460404	3.104524312301807	0.127820667061254	-0.3546345630813073	0.4824552301425614	80.91033837327097
10	4.0	perception	37	diff_vonmises	-0.113156106687235	-6.483367339310637	1.952202915795637	3.604704383815241	0.3725725938700721	4.994082443751103	0.7178305089892842	-0.5427280502579521	1.2605585592472364	84.90657142531853
11	4.0	wm	37	diff_vonmises	-0.1648876117986469	-9.447364250053983	1.0173880275569511	353.6789533040658	1.0077019749163572	355.28224413859294	0.0971075339785159	-0.3949286557424543	0.4920361897209702	81.69173826526011
12	5.0	ltm	37	diff_vonmises	-0.0181195024673036	-1.0381710182533797	0.6244565015773356	102.18679191591534	0.5994261808490624	103.1222963726377	0.2363217848370737	-0.3352888628404358	0.5716106476775096	111.53120950997962
13	5.0	perception	37	diff_vonmises	-0.0381781498345186	-2.187446855136	1.9089364609407056	2.771759350934438	0.2412617615474246	3.626129270048034	0.6660977309155389	-0.4266992570604116	1.0927969879759505	90.05372749775574
14	5.0	wm	37	diff_vonmises	-0.0478559050169301	-2.741941382249041	0.7174617884218861	230.86785104797983	0.7063836493020205	231.78814779198837	0.2247139558117084	-0.3055412421967745	0.5302551980084829	103.02710964167812
15	6.0	ltm	37	diff_vonmises	-0.0940490238766819	-5.388612135458981	0.3778911822932639	70.28103771556704	0.3543369016614415	71.07901367793283	0.125885726324606	-0.2949180248997303	0.4208037512243363	136.30631539525638
16	6.0	perception	37	diff_vonmises	-0.0453242999386968	-2.596891095872384	0.9232883621358874	3.2743903126323697	0.1371619083025775	4.106984756927416	0.3249851850661753	-0.3981799798188036	0.723165164884979	123.76830224229133
17	6.0	wm	37	diff_vonmises	-0.1612690193451637	-9.24003417469151	0.5419955008021923	163.2488344678198	0.5292043714619509	164.0011783805322	0.2025417767678945	-0.2940175977647268	0.4965593745326213	119.18607502695428
18	7.0	ltm	37	diff_vonmises	0.0359092058785431	2.0574459425068867	0.7404644819263732	164.3236880122172	0.7235265413835397	165.4580416605471	0.2032328506195782	-0.3396657315760834	0.5428985821956616	100.3731084915732
19	7.0	perception	37	diff_vonmises	-0.018275500114773	-1.0471090250673492	0.8768003963247106	207.4367262641892	0.855486785340504	208.4413856801136	0.5275246590741176	-0.4297293887759927	0.9572540478501104	95.85593008638878
20	7.0	wm	37	diff_vonmises	0.1361924349430149	7.803251723844792	1.784388305975854	1.558424979268721	0.3167929662203039	2.592001576777035	0.1978517084858317	-0.2928022995327354	0.4906540080185672	87.18536608174918
0	1.0	ltm	377	diff_vonmises	0.0055861522342714	0.3200629467413272	5.8873450582673925	0.3006759630723324	0.0048611449855889	3.596462436698184	-0.2909158647156913	-0.5716765403936868	0.2807606756779954	55.75870001282706
1	1.0	perception	377	diff_vonmises	-0.001731058562067	-0.0991823496964264	13.297278383065764	0.6924390433739215	0.0525044402658847	3.969591096450986	0.3321249562127466	-0.6473231473721471	0.9794481035848938	36.775645633887535
2	1.0	wm	377	diff_vonmises	0.0388504562691504	2.2259671763798883	3.847956531538825	0.4863156255970158	0.0487700760247832	3.99616809362475	-0.3013498592024661	-0.6278291803519195	0.3264793211494533	65.76535306278174
3	2.0	ltm	377	diff_vonmises	-0.0378848997876113	-2.1706448651062016	3.462991254882991	0.5723391489364459	0.0573270453056828	2.323506369601728	0.0151275028691618	-0.358918097940487	0.3740456008096489	70.52360086685644
4	2.0	perception	377	diff_vonmises	-0.0272665816931603	-1.5622600527667638	7.347992392401278	1.1912948279106468	0.203551138780597	3.019598888111211	0.6815342121493947	-0.500627517912759	1.1821617300621536	48.40129210084624
5	2.0	wm	377	diff_vonmises	0.0330013202774452	1.8908363702571156	3.831564402423568	0.7651490057376806	0.1639887720767768	2.7588428813868804	0.0607254318457923	-0.4250995873480895	0.4858250191938819	64.37251977341015
6	3.0	ltm	377	diff_vonmises	-0.0219194281132395	-1.2558907202290337	2.60156829113327	1.000961503664251	0.2852412419765589	2.2723208201225225	0.1324454451142425	-0.3100818617852592	0.4425273068995017	74.32336515122617
7	3.0	perception	377	diff_vonmises	-0.0190053095904275	-1.0889240278710062	3.900134566373864	2.1423729963163827	0.2532374158741348	3.3734901283842538	0.943874619911604	-0.4955506499398679	1.4394252698514718	65.23884024265044
8	3.0	wm	377	diff_vonmises	-0.0488938801069297	-2.8014129741457263	2.855424666570737	0.976654561032746	0.2379088208698084	2.486136102390819	0.1268957154644243	-0.3545329778581264	0.4814286933225507	72.28137772459726
9	4.0	ltm	377	diff_vonmises	-0.0585286179841299	-3.353442791224132	1.4967296549595484	1.7803700407104024	0.29380973615794	3.9102468375916057	-0.0470138217142999	-0.4476891933844942	0.4006753716701943	88.26886473799854
10	4.0	perception	377	diff_vonmises	-0.0837368154855283	-4.79776611718649	1.7261268960309448	4.764034526643679	0.4851076331556299	6.620717397588557	0.6322575274756708	-0.6213979284972622	1.253655455972933	85.068814079411
11	4.0	wm	377	diff_vonmises	-0.0989845622543449	-5.671397654123917	0.7944096347626081	281.87645112506345	0.7827228027072163	284.2057475226046	-0.0704953647135937	-0.4918668700354942	0.4213715053219005	88.11239086869617
12	5.0	ltm	377	diff_vonmises	-0.0134029527724077	-0.7679326268721289	0.9470584909047832	4.263166870920452	0.3736562841189505	5.938077412560954	0.0874538775152879	-0.4202649813594599	0.5077188588747479	103.97534616074906
13	5.0	perception	377	diff_vonmises	-0.0277776199937002	-1.5915403905572385	1.810328398722072	3.313195955441318	0.2760573552054076	4.931256450842543	0.5939952849956858	-0.5644337886232658	1.1584290736189515	89.55255850028394
14	5.0	wm	377	diff_vonmises	-0.0355608250918243	-2.037485193764455	0.5921172671356262	273.4376695828957	0.581512070301018	275.238332774192	0.0762481727788042	-0.4525607830261116	0.5288089558049158	108.09278088809936
15	6.0	ltm	377	diff_vonmises	-0.1031825417699201	-5.911924162848753	0.4276246900300933	167.33943062569165	0.4147553396327803	169.0162710107665	0.0096329975947213	-0.4285694182861626	0.4382024158808839	125.62434573027568
16	6.0	perception	377	diff_vonmises	-0.0488291151376324	-2.7977022147446986	0.4603588749992235	97.97611101629845	0.4265609700587319	99.6204321979844	0.2295943853677151	-0.5552676234640472	0.7848620088317624	127.1703311363358
17	6.0	wm	377	diff_vonmises	-0.116087792477707	-6.6513405619631625	0.4764684158600379	262.3521398972675	0.4665558301720772	264.103298630125	0.0626222763004804	-0.466270077897164	0.5288923541976445	120.78811595345994
18	7.0	ltm	377	diff_vonmises	0.028896711510742	1.6556596113726252	0.6899353960061694	226.2893154929405	0.6771938327116306	228.2546941727576	-0.0016129534815405	-0.4391777660614906	0.43756481257995	97.2495998868052
19	7.0	perception	377	diff_vonmises	0.0150457006678127	0.8620551480828356	0.7565135514212639	246.14996537332647	0.7375920478812991	247.94075058432853	0.366645919093969	-0.5534109707580015	0.9200568898519704	99.82142495030028
20	7.0	wm	377	diff_vonmises	0.1232926871747159	7.064150619937958	0.8532463713739558	93.99072676409146	0.8194421226586481	95.96095862678214	0.000902976969467	-0.4382611793829341	0.4391641563524011	87.48345077476671
0	1.0	ltm	14	diff_vonmises	-0.120058946248382	-6.8788709128203	1.546322647206207	0.3555978158682862	6.643217421061343e-16	1.6789580271381612	-0.1103191808865161	-0.2600942377084801	0.149775056821964	108.99441569885506
1	1.0	perception	14	diff_vonmises	-0.0332127803803822	-1.9029521416908093	14.048481886049842	0.6811007681661794	0.0196412391482149	2.180557759622316	0.6551569944498259	-0.3496509360835331	1.004807930533359	36.056304912930784
2	1.0	wm	14	diff_vonmises	0.054273202051777	3.109625418227586	5.474091216951272	0.2729428372958887	6.593115209392286e-19	1.686457539087729	-0.0200668816554528	-0.2684036852622852	0.2483368036068323	58.29455669364228
3	2.0	ltm	14	diff_vonmises	-0.0253414936745194	-1.4519606341074367	5.959672553588587	0.2921176017619761	7.2263675641621845e-19	1.26426373092402	0.0767141079978702	-0.2012119703766923	0.2779260783745625	55.82876447829585
4	2.0	perception	14	diff_vonmises	-0.0167978797695112	-0.9624476155611804	8.224025152349714	1.1885219161530116	0.2587856604959845	2.173140936144896	0.8971911436711868	-0.367867699120268	1.2650588427914549	45.97254317050829
5	2.0	wm	14	diff_vonmises	0.0683194018103033	3.914413382588816	5.414934029265631	0.3122160572434611	0.0692803887917332	1.3856768008715217	0.0463716918938221	-0.2197418784908031	0.2661135703846253	56.732475807134165
6	3.0	ltm	14	diff_vonmises	0.0831991353729267	4.766959316006301	1.4768274145920113	86.82323648964376	1.4566497783323331	87.23493547375878	0.1333727588400606	-0.1450106460823335	0.2783834049223941	71.41076310102159
7	3.0	perception	14	diff_vonmises	-0.0154509483082012	-0.8852741275347323	4.511464209811817	1.8627380089952208	0.3776339205237156	2.2191441184000635	1.0313335423181922	-0.32789352508107	1.3592270673992624	60.68858779664143
8	3.0	wm	14	diff_vonmises	-0.0749848735084275	-4.29631677935523	2.403694262044465	1.0750224330472964	0.7568237956330763	1.6415620345676858	0.1341462615249276	-0.1746046057616859	0.3087508672866136	69.43172320311345
9	4.0	ltm	14	diff_vonmises	-0.0608085518542933	-3.484073379553426	1.379136830373677	162.64102178998087	1.3646144317460631	163.6617128960905	0.0061726308437926	-0.2585047979538544	0.264677428797647	67.85544844188416
10	4.0	perception	14	diff_vonmises	-0.1078756240205872	-6.180817968719737	2.338714214955929	2.793964651506871	0.4374750080223349	3.94474601964359	0.6555892731025668	-0.4533202380840199	1.1089095111865863	77.76209927304245
11	4.0	wm	14	diff_vonmises	-0.1274121050371377	-7.300175877505529	1.2362369606779364	196.5180319616806	1.2235098397629698	197.7472123497968	-0.0114579454772041	-0.2929008382195803	0.2814428927423762	71.11887108881047
12	5.0	ltm	14	diff_vonmises	0.1111748943853141	6.369852236091172	2.3421895850687475	0.6734760547043765	0.1179288456650899	1.47959271903633	0.117871877745445	-0.2098525308636082	0.3277244086090531	83.66708402837949
13	5.0	perception	14	diff_vonmises	-0.0445609699521554	-2.553155509267784	2.80862746735046	1.8086305448895483	0.0727604112268933	2.496787794243929	0.713754871255587	-0.3675160578291352	1.0812709290847222	79.84379669778554
14	5.0	wm	14	diff_vonmises	0.0760744737733699	4.35874627589277	1.0786449707851935	1.6805585984099614	0.2675542895108436	2.6160210041249474	0.0646965278971635	-0.2443513276708217	0.3090478555679853	105.67471830628924
15	6.0	ltm	14	diff_vonmises	-0.2267236341798163	-12.990307354371494	0.4811154038478986	93.04940665772146	0.4675580611195395	93.92545800798746	0.023937418694448	-0.2282419165570672	0.2521793352515153	119.95774711080588
16	6.0	perception	14	diff_vonmises	-0.1141240321065224	-6.538825380719237	0.4955932407144452	71.92504577479113	0.4608572982231738	72.85942883960702	0.2415449232907676	-0.3761526880321995	0.6176976113229671	124.99287086245994
17	6.0	wm	14	diff_vonmises	-0.1547827721966031	-8.868399588200221	0.5352936765686014	77.13418081747338	0.514818462816371	78.07189231509417	0.062306692753836	-0.2577761884943905	0.3200828812482266	115.82753622108784
18	7.0	ltm	14	diff_vonmises	0.1419580838981526	8.133599075128195	0.9839361057520044	120.88740544753458	0.9649923972231368	121.81964796559876	0.1217467536518484	-0.2508321066270564	0.3725788602789048	85.40743944341284
19	7.0	perception	14	diff_vonmises	-0.0695268172817301	-3.983593193220373	2.2750321500933977	1.5130514872943712	1.2512041486157567e-09	2.3684513759735912	0.4663905773846769	-0.3680395547214388	0.8344301321061156	91.15358368302148
20	7.0	wm	14	diff_vonmises	0.1684942955084448	9.654012004663995	2.285145895169768	0.6604073732231281	0.1775937451736034	1.5727096683661843	0.0724503156186771	-0.2165472664266969	0.288997582045374	81.51241822156032
0	1.0	ltm	423	diff_vonmises	-0.1743014122993447	-9.98673528792211	2.2323307129699086	0.5293276684598598	1.4258754860485478e-16	2.0201200365650256	-0.0297923345485498	-0.3181548055324839	0.2883624709839341	91.97798282193612
1	1.0	perception	423	diff_vonmises	-0.078417328899526	-4.492981986632104	16.91112938008732	0.6890270078640246	5.3233200434213196e-20	2.409279651768779	0.7376639061168531	-0.3834487658697192	1.1211126719865725	32.93781799270877
2	1.0	wm	423	diff_vonmises	-0.041884378050437	-2.399798089820425	3.784993263906492	0.4472898330857561	2.081444557742136e-25	2.102793322921855	-0.0010527287736353	-0.33449787373411	0.3334451449604747	70.43491605129032
3	2.0	ltm	423	diff_vonmises	-0.0559623793623222	-3.2064081489710845	3.147527746635548	0.6838550767467904	0.1746649194982885	1.6386414340328854	0.1520476629279807	-0.2399091396673963	0.3919568025953771	71.51461443373981
4	2.0	perception	423	diff_vonmises	-0.0526058686659469	-3.014094252178263	7.063954930962423	1.1785751692408482	0.172308574036251	2.1462400205124377	0.8230785259083729	-0.3483118001873135	1.1713903260956866	49.91982658537245
5	2.0	wm	423	diff_vonmises	-0.0705699649825554	-4.043361153886435	3.565187721935894	0.6618295814400627	0.1771952179404046	1.6993943241272569	0.1572547291611022	-0.2548436930458263	0.4120984222069285	67.44347835119615
6	3.0	ltm	423	diff_vonmises	-0.043851598849477	-2.5125115389757737	1.789863956356529	1.949171772953745	0.5648313869018757	2.664572611947812	0.2501149959121125	-0.2405430802753982	0.4906580761875108	82.14041969358081
7	3.0	perception	423	diff_vonmises	-0.0477751900501143	-2.7373167553069564	3.748042501690328	2.46038019008966	0.3494312602474755	3.127661851066096	1.1404086541989429	-0.4399659896130147	1.5803746438119577	65.97359784906021
8	3.0	wm	423	diff_vonmises	-0.1515842879822986	-8.68513994188136	1.709955698259952	3.4149368957506128	0.8500458405193331	4.23463880904683	0.2754973675187937	-0.2773373313356113	0.5528346988544051	77.56552482845296
9	4.0	ltm	423	diff_vonmises	-0.1836159203950964	-10.52041729004912	2.562331859495829	1.1430101470184235	0.3687085834482199	2.268743194730261	0.1786154768655108	-0.2964714698486823	0.4750869467141931	73.61763929960114
10	4.0	perception	423	diff_vonmises	-0.1031147112834497	-5.908037762251679	2.1832539250287555	3.1156366798155517	0.2713229973877999	4.33981836529395	0.8048403587981989	-0.5288180060025582	1.3336583648007572	83.9479453115629
11	4.0	wm	423	diff_vonmises	-0.1774996985213731	-10.169983590119177	1.1169255454003442	305.8938611966849	1.1056901961070271	307.28031038523085	0.1412275673926757	-0.3646963280806332	0.505923895473309	78.9943147338322
12	5.0	ltm	423	diff_vonmises	-0.0058190554200616	-0.3334073163222582	1.051683019397108	2.698499546748289	0.3305258795485702	3.1658833724634547	0.2659498393187408	-0.236610542135927	0.5025603814546679	109.44935979527544
13	5.0	perception	423	diff_vonmises	-0.0082350916252237	-0.4718359940288495	1.8010425537181425	2.641274928754169	0.2287425853727391	3.0044632597306014	0.6853117508325679	-0.3430686811703469	1.0283804320029148	93.78326149683012
14	5.0	wm	423	diff_vonmises	-0.0550047458028916	-3.1515397876956217	0.6805026957351742	127.61689899011236	0.6646884893066015	128.16590767230142	0.2315947749451012	-0.2345462330825913	0.4661410080276926	108.16700559507552
15	6.0	ltm	423	diff_vonmises	-0.1783454389539546	-10.218440947469668	0.2836453063894983	83.65060008808501	0.2694876678791661	84.08521064698034	0.1215042631072442	-0.2113444376075914	0.3328487007148357	147.21899097374532
16	6.0	perception	423	diff_vonmises	0.0106200973594491	0.6084867567144634	0.572030545827511	119.98475458605216	0.5505863718420303	120.47191044153234	0.3601096901665244	-0.3161518886289975	0.676261578795522	119.6365245732746
17	6.0	wm	423	diff_vonmises	-0.0921800843488867	-5.281529788351145	0.4082119761651647	139.2257066630956	0.3968570983535725	139.6979336293158	0.1826851602773693	-0.2421076026402815	0.4247927629176509	133.9490978337924
18	7.0	ltm	423	diff_vonmises	0.0406084474947775	2.3266926540293538	0.9760824166215584	127.17977590234204	0.9560800084280064	127.94303245402712	0.2280726877838006	-0.2517901811824163	0.479862868966217	88.69421217004819
19	7.0	perception	423	diff_vonmises	0.0717385031895997	4.110313461349862	1.5980663158339576	2.053270255058946	0.061695769209468	2.822958719252172	0.4468118605268797	-0.3841846575022298	0.8309965180291096	104.4668657113792
20	7.0	wm	423	diff_vonmises	0.0282275635367275	1.6173202565918667	0.7417142581953531	88.87851691598908	0.7211925447470159	89.66475797761568	0.1211166365354152	-0.2266664688557371	0.3477831053911524	99.85382461047872
0	1.0	ltm	233	diff_vonmises	-0.0133285358006286	-0.7636688484650427	5.630008797184032	0.3199131685570731	1.0051137198562766e-22	3.879185919495872	-0.3219711418213695	-0.6173878095754716	0.2954166677541021	57.46628370073756
1	1.0	perception	233	diff_vonmises	0.0116496004761859	0.667472940299048	11.838651027442744	0.8257033547766441	0.0690754284870412	4.320636160757582	0.3847761016864918	-0.7081464355553934	1.0929225372418852	38.85217817318591
2	1.0	wm	233	diff_vonmises	0.0581190776524563	3.329977858678847	4.759988158702215	0.4304647034027116	0.0152985928131076	4.136092898794964	-0.3048281242796035	-0.6553079318875841	0.3504798076079806	61.3254417835675
3	2.0	ltm	233	diff_vonmises	-0.0886826981643225	-5.081144320648256	3.3887639809186214	0.6003663120445679	0.050509265391643	2.475180815266957	0.0071248487849295	-0.3826597788052344	0.3897846275901639	71.510965002908
4	2.0	perception	233	diff_vonmises	-0.0348197089840042	-1.9950223686571988	7.479585324573994	1.2169993807297566	0.1545454661639222	3.1064842363277565	0.7304790686270901	-0.508719473510233	1.239198542137323	48.35094093219283
5	2.0	wm	233	diff_vonmises	0.0280617020224974	1.6078170918428316	3.9138782522985776	0.7565113907413789	0.1307745444439947	2.760008651339206	0.0762123206717698	-0.426332795495375	0.5025451161671448	64.64008065071425
6	3.0	ltm	233	diff_vonmises	-0.0435011021856112	-2.492429559402844	2.6424322133380675	0.7314702675253081	0.0923309565262748	1.7452108591438762	0.1412807533876747	-0.2562420866601259	0.3975228400478006	79.99510963699467
7	3.0	perception	233	diff_vonmises	-0.0119337769580843	-0.6837550533487013	3.5476308484410226	2.1434367930916087	0.2609449130647819	3.091176942227487	0.9146595740862198	-0.4403004492316987	1.3549600233179184	68.25051361584497
8	3.0	wm	233	diff_vonmises	-0.0845847640777076	-4.846349992762423	2.794514770648285	0.9574227234676644	0.2410393440741356	2.0558127895499325	0.1916696318325691	-0.2869817109398663	0.4786513427724354	73.9301663381998
9	4.0	ltm	233	diff_vonmises	-0.0665767119803388	-3.81456461033148	2.0650436614114818	0.984153079200258	0.1379299621865331	3.028098340549292	-0.0329835080757751	-0.425215545076573	0.3922320370007979	84.68516957881292
10	4.0	perception	233	diff_vonmises	-0.1003994433898151	-5.752464371699039	1.5465899787789128	6.876616122257124	0.6423429459968075	8.65084518905738	0.6676233360379626	-0.6213272653525338	1.2889506013904963	84.89216493480839
11	4.0	wm	233	diff_vonmises	-0.1078052429798534	-6.176785432127951	0.7869975100943613	263.452873315867	0.7756879093274994	265.5811651582966	-0.0673620319330439	-0.4481907092919392	0.3808286773588953	88.4259230220317
12	5.0	ltm	233	diff_vonmises	-0.0479094770071088	-2.745010831186393	0.532364414994516	60.98443285095261	0.4915656604782777	62.689175101155946	0.0479146721893872	-0.4340409419065976	0.4819556140959848	115.54099642574693
13	5.0	perception	233	diff_vonmises	-0.0307595574482563	-1.7623928214752858	2.0889137096116235	2.883938206883347	0.1931711225057435	4.450619223703619	0.6759917718029695	-0.5711166370109706	1.24710840881394	87.08401435711156
14	5.0	wm	233	diff_vonmises	-0.0454562002319946	-2.604448425994888	0.5901931488761917	290.45541521990623	0.580591240495897	292.16592052831834	0.0791068588021772	-0.433731146508439	0.5128380053106163	108.42920081406965
15	6.0	ltm	233	diff_vonmises	-0.0399468549058255	-2.288786190925274	0.4138135935614492	77.87552856269313	0.3897981186115413	79.53224950472608	-0.0317540848614044	-0.4010150985910723	0.3692610137296679	126.73949384382266
16	6.0	perception	233	diff_vonmises	-0.0831545483015147	-4.764404664993545	0.3025460579403776	72.58776881383778	0.2615371460577518	74.09857232567056	0.2227487092294495	-0.5812321607526272	0.8039808699820767	146.2023435334687
17	6.0	wm	233	diff_vonmises	-0.1708937913742297	-9.791492990732555	0.4980709194150114	245.4434706397257	0.4877994432306661	247.0910878320798	0.0678924210952871	-0.4379220162265085	0.5058144373217957	118.44045504349656
18	7.0	ltm	233	diff_vonmises	0.1990645617299228	11.405559237746024	0.538550023907355	86.4708376101696	0.512422633290052	88.11246020807063	0.0149689734520528	-0.3961109843971018	0.4110799578491546	112.73855793144756
19	7.0	perception	233	diff_vonmises	0.0286213462687691	1.6398823451829785	0.8846890525623751	335.9832840759292	0.8706746085472218	337.35157386070745	0.4636972059433475	-0.4803687909105498	0.9440659968538974	93.6782079069778
20	7.0	wm	233	diff_vonmises	0.1108542980927275	6.351483421598422	0.8749375945644365	45.22186210064976	0.8101098108723302	46.82806248028309	0.0686371512955279	-0.381625742763978	0.4502628940595059	89.27238656548096
0	1.0	ltm	354	diff_vonmises	-0.0316041752805629	-1.810785858567942	7.060352584901035	0.1530182037919639	0.0117227776819357	2.224795445012626	-0.1991359196333913	-0.3543461155199597	0.1552101958865683	50.475369144419886
1	1.0	perception	354	diff_vonmises	-0.014885713251903	-0.8528885443760027	14.411572777809871	0.6633012395267919	0.0977317255245313	2.8851604082683906	0.4903909039859795	-0.4826403746100574	0.9730312785960368	35.22572995820033
2	1.0	wm	354	diff_vonmises	0.0317455562209836	1.81888638975764	6.577045714089538	0.2194167749686415	0.0011519772293083	2.548306212809589	-0.186174389702649	-0.4054006173124408	0.2192262276097917	52.99130295667641
3	2.0	ltm	354	diff_vonmises	0.0141411079154313	0.8102258011932578	5.52473307326595	0.2959848120956996	6.988781202643227e-26	1.4872406307123989	0.0339141904381331	-0.2366973960734404	0.2706115865115736	58.0224069816619
4	2.0	perception	354	diff_vonmises	-0.0158531315920919	-0.9083175322923798	8.270083995869433	1.2301828009751206	0.4187920354118518	2.582961166258656	0.7903090573816283	-0.4632377264934434	1.2535467838750716	44.84151622788366
5	2.0	wm	354	diff_vonmises	0.0522379982649606	2.9930168307939646	4.245228887822473	0.4844550417839723	0.1756943839613409	2.0217925134688777	0.0040884051347038	-0.317860230339916	0.3219486354746198	60.78961083495773
6	3.0	ltm	354	diff_vonmises	0.0864275910712584	4.951936201865668	1.6035585990852317	84.16507717112444	1.5764129941148997	84.82047622401899	0.0994740132984333	-0.2042135951820665	0.3036876084804998	66.25462393351356
7	3.0	perception	354	diff_vonmises	-0.0129870750708987	-0.7441045897820632	4.8473456900648255	1.948083181029351	0.4845044421070803	2.6488177238374413	1.0155435837849114	-0.4053101252849917	1.4208537090699032	57.531344688926026
8	3.0	wm	354	diff_vonmises	-0.0112224162288106	-0.6429970858499698	3.5933795301123013	0.5899973459308603	0.4243154498893171	1.6551698051243129	0.0425011909201746	-0.2515982153134025	0.2940994062335772	61.43214420047346
9	4.0	ltm	354	diff_vonmises	-0.0546524935405723	-3.131357219740791	1.1219662832797523	211.40313530295137	1.110007459670686	212.7366553713981	-0.0108764949882669	-0.3079349948346603	0.2970584998463934	74.82742332892164
10	4.0	perception	354	diff_vonmises	-0.0619864325520167	-3.5515609723029007	2.76930493009695	2.1509804343715824	0.3059272384089198	3.47867381094887	0.610960915270058	-0.4609722325858365	1.0719331478558949	74.47774016241857
11	4.0	wm	354	diff_vonmises	-0.1160343541656028	-6.648278772215285	1.0716296338570528	255.54373638611145	1.0602476725054566	257.18069281947606	-0.0313004523052455	-0.3683302896584592	0.3370298373532137	76.03240568109658
12	5.0	ltm	354	diff_vonmises	0.0927245496435925	5.312725351829137	1.3063783742523596	3.656991470673883	0.6627559583105741	4.846107786014385	0.1131193561526442	-0.3030823314381924	0.4162016875908367	84.85742523706912
13	5.0	perception	354	diff_vonmises	-0.0307693932754512	-1.7629563728615734	2.7082364322514336	1.8921733555047664	0.1045683417361062	3.1199147281828887	0.6186836882088035	-0.4499642579364107	1.0686479461452143	79.91768838342978
14	5.0	wm	354	diff_vonmises	0.0563158476146537	3.226660388021544	1.815553476276873	0.8290563426150407	1.429106442552959e-15	2.3016447013977346	0.0369964124535817	-0.3556352967245625	0.3926317091781443	101.50529945422689
15	6.0	ltm	354	diff_vonmises	-0.1963562741512187	-11.250385789778576	0.5437231097713441	144.2391805129783	0.5295664832563108	145.4323164949497	0.082663672560912	-0.3272897188800172	0.4099533914409292	114.63378815488876
16	6.0	perception	354	diff_vonmises	-0.0417156847259381	-2.3901326742946054	0.7996909145260788	6.734816205626578	0.3799305391143293	8.128058284701266	0.219517280238555	-0.4405832403269497	0.6601005205655046	113.00786467205236
17	6.0	wm	354	diff_vonmises	-0.1286348555789472	-7.370234322948549	0.4551409017304299	100.2763033901572	0.4349502916775494	101.64604289548863	0.0534340817685929	-0.3739977514710517	0.4274318332396447	124.15847064634846
18	7.0	ltm	354	diff_vonmises	0.0581347507968732	3.3308758637056344	0.9897111578558058	231.96560724772985	0.9778126256556454	233.25098827403568	0.0889930604211741	-0.3192200703207675	0.4082131307419416	83.236626919726
19	7.0	perception	354	diff_vonmises	-0.0982914425212358	-5.63168481871953	1.777355014504408	1.6104598008176738	2.8085044057558263e-20	2.838974656312761	0.3215233362334661	-0.4297251181271159	0.751248454360582	102.49247875381737
20	7.0	wm	354	diff_vonmises	0.2372258176919752	13.592038145290076	1.42541146970462	2.1692022072189983	0.5456132668924705	3.4930091777347507	0.019316558070076	-0.2994070117054375	0.3187235697755136	82.80865065714849
0	1.0	ltm	400	diff_vonmises	-0.0049711153954255	-0.2848239316303885	5.041212412826559	0.2670235006463575	2.0285618922735958e-15	3.821790000518626	-0.3757103398267775	-0.6082470465485177	0.2325367067217402	60.805489071338
1	1.0	perception	400	diff_vonmises	0.0103393926406134	0.5924035610357755	13.27319506196799	0.767289143638637	0.0644193649723703	4.280907450979599	0.378051251915864	-0.702418105798342	1.080469357714206	36.749317718822056
2	1.0	wm	400	diff_vonmises	0.0526230987196054	3.01508146153368	4.021175050718701	0.3668001829956397	1.4319444837419618e-18	4.119589343242185	-0.3728222839325814	-0.6555620625678434	0.282739778635262	68.27396356881334
3	2.0	ltm	400	diff_vonmises	0.0035551235116289	0.2036935728640692	3.2323650591168307	0.4817308427172502	2.9913528737629165e-18	2.3441437962945857	-0.043954600783251	-0.3725694646412545	0.3286148638580035	76.36847419389323
4	2.0	perception	400	diff_vonmises	-0.0254506561303951	-1.4582151821103966	7.763835910648906	1.2669112753074352	0.2196719898312648	3.170363685120964	0.7627585883130426	-0.5313877954649903	1.294146383778033	47.07744228631546
5	2.0	wm	400	diff_vonmises	0.027868088458177	1.5967238517507851	3.7139378259375326	0.7473991492509099	0.1285280406633974	2.907895839588991	0.0275580848483035	-0.4476755555537898	0.4752336404020933	65.95130972763255
6	3.0	ltm	400	diff_vonmises	0.0009026272102111	0.0517167296187682	3.398457293560706	0.5602505463167585	0.0728847346177687	1.639227197290469	0.113446734146058	-0.2502157723530621	0.3636625064991202	71.35331757720044
7	3.0	perception	400	diff_vonmises	-0.0076033572033017	-0.4356402778795834	3.791821011443312	2.232831086294239	0.2808896218955626	3.252482139959757	0.9948136523383942	-0.4699701575989222	1.4647838099373165	65.96776988529348
8	3.0	wm	400	diff_vonmises	-0.0894702943615024	-5.126270258707219	3.4815314030282103	0.7345937175436089	0.1189843051308838	2.069698714044366	0.1534833902258849	-0.3129990171080521	0.4664824073339371	69.28645644305018
9	4.0	ltm	400	diff_vonmises	-0.0147311871550705	-0.8440348512028732	1.864145636479147	1.0197915811143174	0.1645449980241488	3.2333447133794264	-0.0984225569246738	-0.4418784969229388	0.343455939998265	85.71062171824602
10	4.0	perception	400	diff_vonmises	-0.0719619973694306	-4.12311873459991	1.6914902460651318	5.590824644218587	0.570352545878736	7.468256949045565	0.6637403221981175	-0.6372975916161353	1.3010379138142527	83.734564163719
11	4.0	wm	400	diff_vonmises	-0.0569984857380436	-3.265772671426514	0.7282154510077572	234.86835644325777	0.7154079549171325	237.305939921804	-0.1269764485759452	-0.494174115821842	0.3671976672458967	90.28150293103997
12	5.0	ltm	400	diff_vonmises	-0.0199787977947975	-1.1447007933871782	0.9467234876943283	3.343790908322364	0.3227140933629053	5.181374901324356	-0.0008098606928115	-0.4193631890869669	0.4185533283941554	104.1788314683312
13	5.0	perception	400	diff_vonmises	-0.0045418959797285	-0.2602314706258798	1.909434065439985	3.1276704379810125	0.2288698605729328	4.910807012790405	0.5989991915237255	-0.5988714215006614	1.1978706130243868	88.90443579439156
14	5.0	wm	400	diff_vonmises	-0.0299348426475574	-1.7151401440932643	0.488923743127104	251.4713263296668	0.4783996348294865	253.55386318498816	-0.0121062399357896	-0.4969011199703068	0.4847948800345172	116.80963756241336
15	6.0	ltm	400	diff_vonmises	-0.1269337018189258	-7.272765392196512	0.4114554149993281	182.55790145607725	0.4001767191047677	184.53950757494368	-0.0740777985059395	-0.4545154274352079	0.3804376289292683	124.67303242592456
16	6.0	perception	400	diff_vonmises	-0.0320937800907001	-1.8388381478181064	0.3706952604418549	264.4688193449533	0.3577465364369647	266.3670723547827	0.2045622912825848	-0.6366977297695939	0.8412600210521788	135.89107351092798
17	6.0	wm	400	diff_vonmises	-0.0929428639811433	-5.325233841977991	0.4002296360485964	310.1485595687535	0.3918921877518521	312.33136076799576	-0.0209201527227094	-0.5441631847736517	0.5232430320509422	128.09724144439303
18	7.0	ltm	400	diff_vonmises	0.1512817702175012	8.667806950730737	0.660901863688228	193.79492485817735	0.6482324350899309	195.772633753209	-0.076494744449441	-0.4118668621244588	0.3353721176750177	96.46787266083588
19	7.0	perception	400	diff_vonmises	0.0803962035397757	4.606363151703878	0.7202637662148837	182.4108860652057	0.6967486560220876	184.2196213053384	0.3042536463675418	-0.5378323241542411	0.8420859705217829	101.85586789615994
20	7.0	wm	400	diff_vonmises	0.102774217048122	5.888528879618869	0.7735192888256013	186.55445420284164	0.758373893761163	188.68053882400451	-0.0891648569881056	-0.4396868803125144	0.3505220233244088	88.47576097861293
0	1.0	ltm	331	diff_vonmises	0.04353391489025	2.4943095888930555	4.716513089720007	0.2015163256711753	3.2667561887226846e-21	2.3554886070988585	-0.2055425841818212	-0.3748740966490675	0.1693315124672463	62.917602940067525
1	1.0	perception	331	diff_vonmises	0.0102402176819742	0.5867212544723643	11.739370837350396	0.6914612765960132	0.0707410005324673	2.9927467804002674	0.4237998832895258	-0.4902228989574966	0.9140227822470224	39.08616520776846
2	1.0	wm	331	diff_vonmises	0.0888794757476606	5.092418845676313	4.719047532557322	0.3206628056763329	7.875458222571069e-15	2.5836584754787286	-0.1416084555913375	-0.4111805491069463	0.2695720935156088	62.89525288345408
3	2.0	ltm	331	diff_vonmises	0.0618801421224622	3.545470979286797	4.1593722164520095	0.4524392142106814	0.147027061631835	1.6175204898602538	0.0586913210477755	-0.2514623500599889	0.3101536711077645	62.61112346688935
4	2.0	perception	331	diff_vonmises	0.006273541799149	0.3594474676901523	7.097779141330917	1.3370971364035027	0.378122902147899	2.5030480320351325	0.8328616385806703	-0.4279994526815474	1.2608610912622176	48.50786812735362
5	2.0	wm	331	diff_vonmises	0.1023900753286925	5.866519180360657	4.425794326667644	0.5271674010209397	0.1816915720665256	1.8695304381403544	0.0742773591365976	-0.2936101069369602	0.3678874660735579	60.21745188289108
6	3.0	ltm	331	diff_vonmises	0.0921391876798699	5.279186581820338	2.603923996922169	0.8694232323677571	0.6420593986579458	1.5605412796777465	0.0979023458728721	-0.1900952297247822	0.2879975755976544	67.94992277781444
7	3.0	perception	331	diff_vonmises	0.0050954256224394	0.2919463829886019	5.144086262843267	1.6160143529125504	0.2511113866086381	2.333421783421642	0.9526209758551484	-0.3616726069001183	1.3142935827552666	57.72261602831412
8	3.0	wm	331	diff_vonmises	0.0224819069905366	1.2881183859634144	4.080788457878129	0.4926856778671433	0.2242168625214008	1.4433216935029165	0.0990693468056543	-0.2227182065550417	0.3217875533606961	62.19459934700353
9	4.0	ltm	331	diff_vonmises	-0.0661804916401479	-3.791862857081303	0.9699783800288752	152.0597676741904	0.9547593293660034	153.62241714402305	-0.0814802711681395	-0.3290352970487902	0.2475550258806507	77.80882749763242
10	4.0	perception	331	diff_vonmises	-0.0596653885799097	-3.418574948636891	2.378490621158095	2.438185842994597	0.2624195184718063	3.977578464785228	0.5862545618443045	-0.5118177029745008	1.0980722648188053	80.19071294965829
11	4.0	wm	331	diff_vonmises	-0.0388548821314766	-2.226220759611887	1.0094178781030654	256.9949536172992	0.9975211889991584	258.8299686579315	-0.0479874136427724	-0.4031746505436118	0.3551872369008393	78.0066268776836
12	5.0	ltm	331	diff_vonmises	0.0173032155783003	0.9914012246416294	1.91918678105814	0.9694401978857876	0.1312889455930853	2.014488025704309	0.1237586842491574	-0.2725740054328256	0.396332689681983	90.71816246010778
13	5.0	perception	331	diff_vonmises	-0.0454924969070652	-2.606528072286789	2.0605878049710222	2.629494448038427	0.264836586590607	3.600155486870607	0.6473162930218066	-0.4304438934131851	1.0777601864349915	86.2548327004547
14	5.0	wm	331	diff_vonmises	0.126909944212059	7.271404181591714	1.609950557884579	1.1368415357082735	0.0316515174577719	2.306069079970056	0.1352993591555931	-0.3349576431639737	0.4702570023195668	104.81725727995013
15	6.0	ltm	331	diff_vonmises	-0.1162147792772653	-6.658616369631722	0.5534110922179704	174.30621817324598	0.5419115158586225	175.30224114806654	0.1235724446921722	-0.3024377307183794	0.4260101754105516	115.29410293343778
16	6.0	perception	331	diff_vonmises	-0.0878724116806778	-5.034718324938919	0.6296047619768694	236.86142109424665	0.6156362411302073	237.91337451605065	0.3450433939189068	-0.4158442018177837	0.7608875957366905	111.55381872643764
17	6.0	wm	331	diff_vonmises	-0.0098477668584682	-0.5642354786190369	0.5307707654338645	134.03396200027842	0.5136123570741127	135.09760850907588	0.1660907927731187	-0.3492649019979108	0.5153556947710296	118.81554361290875
18	7.0	ltm	331	diff_vonmises	0.0401402496551913	2.299866893843922	0.8933971982235152	229.01284298101208	0.880397612726624	230.71815113237184	0.0233599666204895	-0.3884020489720257	0.4117620155925152	85.53801227934181
19	7.0	perception	331	diff_vonmises	-0.0441167220235436	-2.5277019779009	2.2384738208277306	1.7616655588168988	2.8425461212271326e-20	3.3670944084837378	0.4365089535360563	-0.5248337513485452	0.9613427048846016	91.8884656203618
20	7.0	wm	331	diff_vonmises	0.2132272596801258	12.21702205681124	2.0111099754089854	0.949780805927998	0.1855435375685398	2.628849258428047	-0.0077715896320856	-0.356367159477255	0.3485955698451694	83.73058152489688
0	1.0	ltm	89	diff_vonmises	-0.0029712364107202	-0.1702393062698703	3.026291755844216	0.3112684433725309	4.6010663112285447e-20	2.5258530227570675	-0.1971212472056668	-0.4015201471266018	0.204398899920935	78.983698032045
1	1.0	perception	89	diff_vonmises	-0.013756425316961	-0.7881851118487839	13.054224139096682	0.6740018371442433	0.021685700634571	3.020769183237261	0.4705273774324887	-0.484698707413962	0.9552260848464508	37.3617980336773
2	1.0	wm	89	diff_vonmises	0.0610457223380845	3.497662247299734	4.191057221885849	0.3704219674227347	1.4832610449452524e-19	2.691749196993665	-0.1363237266643087	-0.4283383042589249	0.2920145775946162	66.84619494328444
3	2.0	ltm	89	diff_vonmises	0.0121898131103217	0.6984248442746737	4.060974406301278	0.4779088877717663	0.0810594150891643	1.825472424746225	0.0559202735570148	-0.2837009669577308	0.3396212405147456	64.85038704320738
4	2.0	perception	89	diff_vonmises	-0.0107074074431394	-0.6134892560188571	7.130245788689607	1.2671888138929737	0.2408086950178916	2.6100325096305155	0.803365744305876	-0.4327621965050758	1.236127940810952	49.11236824152852
5	2.0	wm	89	diff_vonmises	0.0643476730773487	3.686850088819678	4.375277007870009	0.5462648943718865	0.1289415356550265	2.0274357565503074	0.0753639588640625	-0.3169718778341841	0.3923358366982467	61.54044809693522
6	3.0	ltm	89	diff_vonmises	0.0416612973226037	2.387016505624873	2.609130247513374	0.8610038736737724	0.3826298784475975	1.731857370645822	0.1305486643996898	-0.2275290135452872	0.3580776779449771	72.66826170113964
7	3.0	perception	89	diff_vonmises	-0.0087268889498555	-0.500013905106076	4.382675767290387	1.894842157781063	0.2205262678126948	2.7401127934500065	0.9935452210445724	-0.4118933638721557	1.405438584916728	62.47216667323568
8	3.0	wm	89	diff_vonmises	-0.0430186779743906	-2.46478868816498	3.11236904115362	0.7692537442960539	0.2667815495868429	1.8233147746164	0.1421555107081868	-0.2622579819447506	0.4044134926529375	69.59896818447464
9	4.0	ltm	89	diff_vonmises	-0.0753955556410118	-4.319847132273744	1.5633615852244005	1.8390217387635237	0.5111721792413271	3.5230869379515624	-0.0598304647423619	-0.3547383926247459	0.2949079278823839	78.56465801024345
10	4.0	perception	89	diff_vonmises	-0.0838407148991051	-4.803719115078326	1.9742282492447667	3.465464588719014	0.3798892040736443	5.107283531395221	0.6270587439157882	-0.5635926182975396	1.1906513622133277	83.64217255854123
11	4.0	wm	89	diff_vonmises	-0.076308215710957	-4.372138702411718	0.9624383960300912	301.07103893151987	0.9521982303685588	302.9844796709624	-0.0513392534743957	-0.4158468931259591	0.3645076396515634	79.88484704792478
12	5.0	ltm	89	diff_vonmises	0.0069757440572905	0.3996806934462162	1.678673304930064	1.0782746335003246	0.0910601086745561	2.1816406724546025	0.1205664692099602	-0.298923877770368	0.4194903469803282	98.73129132748616
13	5.0	perception	89	diff_vonmises	-0.0377798146699358	-2.16462393137376	1.9710593189361003	2.7599388668910216	0.2482801664997087	3.7657967868544375	0.6547563640399947	-0.4484057306771752	1.10316209471717	88.33191154041268
14	5.0	wm	89	diff_vonmises	0.050981435718298	2.9210211001759854	0.60685895212163	90.47651333594716	0.5817412410855141	91.6953225922771	0.110428748491266	-0.3360631951130282	0.4464919436042942	109.40039753575628
15	6.0	ltm	89	diff_vonmises	-0.1295963600479612	-7.42532447100602	0.4606247522136977	169.224925311779	0.45049661387156	170.32564526493422	0.0564878099293153	-0.3070139451362408	0.3635017550655561	123.36148263592726
16	6.0	perception	89	diff_vonmises	-0.078269201809897	-4.484494929564805	0.5263914929013405	269.73974853024254	0.5150240835740556	270.8461436337455	0.2987304042379577	-0.4381150522228125	0.7368454564607703	120.74752859326487
17	6.0	wm	89	diff_vonmises	-0.0445585107103838	-2.553014605093469	0.4998555241627327	181.5623601446466	0.4881740429266287	182.7310110424594	0.1102471106212732	-0.3480984497166055	0.4583455603378787	120.35385445372631
18	7.0	ltm	89	diff_vonmises	0.0513232922262988	2.9406080352835136	0.8491204281966186	167.75600466062122	0.8322121795405601	169.3777066764833	0.0389741276198165	-0.3743165133717063	0.4132906409915229	88.503480259714
19	7.0	perception	89	diff_vonmises	0.0039594325632753	0.2268587751423421	1.666277193427148	2.628515328259331	0.1790569507341901	4.149984244623068	0.4299296887357048	-0.5073178124383101	0.9372475011740148	95.90580648086734
20	7.0	wm	89	diff_vonmises	0.1228631432168853	7.0395395640389165	1.5057256639800003	1.5389543661321412	0.3129714189107624	3.15986693783918	-0.0030388897531555	-0.3524886839955043	0.3494497942423488	88.3135691303425
0	1.0	ltm	498	diff_vonmises	-0.021153420647746	-1.2120017253807427	7.425614342142056	0.3088363824697593	0.0338649842935857	3.7144605030016704	-0.2816847413799759	-0.5954114048863258	0.3137266635063499	48.553046879729095
1	1.0	perception	498	diff_vonmises	-0.0112849351560328	-0.6465791565194883	14.332846297298364	0.7408155514919329	0.0770077713655246	4.15582568817199	0.3951961395026728	-0.6880781143085468	1.0832742538112197	35.32311440079957
2	1.0	wm	498	diff_vonmises	-0.0199516477173246	-1.1431452085345275	4.646271390168164	0.4202190602703266	0.0536544829687753	4.185757436330535	-0.3520396335288429	-0.6644035444224338	0.3123639108935908	59.68930187802161
3	2.0	ltm	498	diff_vonmises	-0.045838588026099	-2.626357632734389	3.798756303217369	0.4882466978977398	1.5436682049713981e-07	2.1453253811718933	0.0234578163160594	-0.3412559886441691	0.3647138049602285	70.30341499002915
4	2.0	perception	498	diff_vonmises	-0.0397815191914455	-2.279313152288515	7.945023103764358	1.1956980935311117	0.2682424136459637	2.996709820090741	0.7093072348974778	-0.5118882784291175	1.2211955133265953	46.25072593019115
5	2.0	wm	498	diff_vonmises	-0.0131928541214848	-0.755894860892853	3.40033609347557	0.874340457086643	0.1992602079121939	2.902065333914066	0.0564079406523909	-0.4377635851937743	0.4941715258461653	67.01017193426424
6	3.0	ltm	498	diff_vonmises	-0.0100327033310906	-0.5748315579783373	2.616138854461601	1.0182443937816947	0.3632403412171278	2.138455208647558	0.1425826848064772	-0.2843561693379972	0.4269388541444744	72.69361047341044
7	3.0	perception	498	diff_vonmises	-0.0227862037570193	-1.3055533064023492	4.072214721793276	2.249491468968085	0.3713570826072927	3.322247402685518	1.005626053924418	-0.4857491128216485	1.4913751667460664	62.8303519472727
8	3.0	wm	498	diff_vonmises	-0.0697660298726759	-3.9972990650879554	3.1444186002770027	0.9022906168520612	0.247722108766418	2.3543294627707425	0.134198561306127	-0.3430359115272128	0.4772344728333398	69.1961248347128
9	4.0	ltm	498	diff_vonmises	-0.0973825150790817	-5.579607112400482	1.0632594865934666	5.23646699312014	0.540897694730784	7.192261283119924	0.0220590669466591	-0.4409490823157984	0.4630081492624576	91.10634013917408
10	4.0	perception	498	diff_vonmises	-0.0631443081342466	-3.617902356365925	2.2105530570361567	3.180392197901034	0.3459435972469175	4.9077623824027645	0.6708061440916118	-0.5854860523074263	1.256292196399038	80.72366352046882
11	4.0	wm	498	diff_vonmises	-0.1358823811175419	-7.785486948223304	0.815752764247134	322.92131645894824	0.8052359256434782	325.1113185960511	-0.0186744408966035	-0.4796607819318552	0.4609863410352517	88.3828247101111
12	5.0	ltm	498	diff_vonmises	0.0009310172319427	0.0533433580442731	1.1892030876982191	2.9155498971312044	0.3319654647214246	4.381823981154279	0.1538536549231147	-0.3923341591508492	0.546187814073964	99.55616904389652
13	5.0	perception	498	diff_vonmises	-0.0111869110550608	-0.6409627892432322	2.1058282047848413	2.613940580302329	0.163609253588978	4.040954128393134	0.6386084475310418	-0.5313457743039045	1.1699542218349464	87.78789368742883
14	5.0	wm	498	diff_vonmises	-0.0680924130567921	-3.9014078850156912	0.6061970172589304	242.92129276386072	0.5941039012777001	244.5498963271941	0.1253551194915587	-0.4358810526504726	0.5612361721420314	108.32365981208542
15	6.0	ltm	498	diff_vonmises	-0.112910501195395	-6.469295181202971	1.02491750036503	1.6145381151341436	1.476379155379404e-11	2.880754345018106	0.1008011469962537	-0.3864696464977533	0.487270793494007	127.46476104263716
16	6.0	perception	498	diff_vonmises	0.00471794112918	0.2703181146932021	1.0103733239113974	2.5891299197138458	5.158682928323812e-17	3.92217866594844	0.2655672343963877	-0.5062825560683968	0.7718497904647845	128.1522555415971
17	6.0	wm	498	diff_vonmises	-0.1407439109856562	-8.064032091643046	0.4118390743969541	224.22920760315316	0.401117016584063	225.606505584298	0.12708730324605	-0.4343858793414128	0.5614731825874628	130.40888645627336
18	7.0	ltm	498	diff_vonmises	0.0554792493809532	3.178726840082404	0.7530007989435727	224.2456451466812	0.741303955851791	225.6444957607547	0.0916206895884528	-0.3480444577722323	0.4396651473606852	96.056999595651
19	7.0	perception	498	diff_vonmises	0.0123400746488097	0.7070341962531792	0.6865801149863998	199.69667970095588	0.6689155937022873	200.93102437039724	0.3276662889648492	-0.4303929225872061	0.7580592115520552	106.00230863781836
20	7.0	wm	498	diff_vonmises	0.1284097066028035	7.357334236853824	0.8537979820734027	187.80098952237455	0.8394092654105706	189.25151368181247	0.0642989027984484	-0.3454853206473594	0.4097842234458078	89.101521860508
0	1.0	ltm	187	diff_vonmises	-0.0963649935176202	-5.521307421365177	4.295128198020679	0.3885884397647898	3.498902775728144e-18	1.9668369279763696	-0.0025225147241424	-0.3129740757410008	0.3104515610168583	66.01214338787707
1	1.0	perception	187	diff_vonmises	-0.060518176753711	-3.4674361118143704	15.006081409209672	0.7274777165430265	1.0560614880464503e-20	2.5388424473277835	0.7099659789099533	-0.4040693252236386	1.114035304133592	34.978336272820684
2	1.0	wm	187	diff_vonmises	-0.0230483250602631	-1.320571750798688	5.278043936361927	0.4145136348732388	7.2108167507212e-21	2.153030319831258	0.0272400813154886	-0.3426557861308439	0.3698958674463325	59.39469510895461
3	2.0	ltm	187	diff_vonmises	-0.0600751664951495	-3.4420534937177973	2.6088184739686717	1.0389592516873087	0.4814603336575882	1.835645584489672	0.1811750675978737	-0.2299957899030837	0.4111708575009575	71.639183109751
4	2.0	perception	187	diff_vonmises	-0.0437974114441796	-2.509406829349464	7.0347477441727175	1.2094211146153484	0.2818005923456971	1.9748177623026664	0.8464907604334528	-0.3271296156922565	1.1736203761257094	49.509302542326935
5	2.0	wm	187	diff_vonmises	-0.0265715779279578	-1.5224392702749558	3.8433235297383024	0.6783727912867076	0.2513367953855981	1.5355736543551473	0.200900142545476	-0.2306458645519057	0.4315460070973818	64.36522155092948
6	3.0	ltm	187	diff_vonmises	-0.029599107146865	-1.6959039168708805	1.859594411841497	1.7505194757911973	0.6708461876567368	2.244602085436441	0.2378196100417883	-0.1877769643289405	0.4255965743707288	79.72587007292336
7	3.0	perception	187	diff_vonmises	-0.033348931473297	-1.9107530246909197	4.1476897106644905	2.0265773359118	0.3843029778725689	2.44134210669679	1.0390947886890136	-0.3513057756909699	1.3904005643799835	62.92083646593221
8	3.0	wm	187	diff_vonmises	-0.1031565670877738	-5.910435923187577	1.833218001025452	2.966023966208182	0.960303119800068	3.5399805575395984	0.2684113018144503	-0.2208634969013115	0.4892747987157618	74.97654411719333
9	4.0	ltm	187	diff_vonmises	-0.1981618551110599	-11.353837958346658	2.000449426324803	1.8150683309794455	0.6163125119351281	2.700092266486512	0.2110985818029978	-0.2651688448321344	0.4762674266351322	76.74413188975001
10	4.0	perception	187	diff_vonmises	-0.0969461717542972	-5.554606481471625	2.5285293653291423	2.4630636150044585	0.1928898007554179	3.4351105147105727	0.804324290523545	-0.4592693429762666	1.2635936334998117	80.77574532926243
11	4.0	wm	187	diff_vonmises	-0.1657091587683856	-9.494435424091776	1.1800279495465105	339.80076561581325	1.170445715943646	340.90499167765694	0.1909654059315642	-0.3181823020878624	0.5091477080194267	78.23521909596323
12	5.0	ltm	187	diff_vonmises	-0.0186943225331572	-1.0711057820062262	0.9826584096647276	3.12573347335993	0.3483276184833707	3.4433305226217006	0.3044767825546361	-0.2271445698849231	0.5316213524395593	112.35988843582274
13	5.0	perception	187	diff_vonmises	-0.0206706996115961	-1.1843438473271688	2.0250186846749125	2.322739720885434	0.1848186990146213	2.510480471664319	0.7307017535650495	-0.3101813811585024	1.040883134723552	90.69638731249552
14	5.0	wm	187	diff_vonmises	-0.0150873603147452	-0.8644420700280726	0.7582673878004068	136.28720034540447	0.7432800077998061	136.58558390647622	0.3025649731277369	-0.2021135188518457	0.5046784919795826	104.95615941248224
15	6.0	ltm	187	diff_vonmises	-0.10669676264052	-6.1132741870109175	0.3675693454326194	86.62489187173152	0.3524419305646752	86.80596230059572	0.1984450799755492	-0.1855067952354225	0.3839518752109718	139.71339916869562
16	6.0	perception	187	diff_vonmises	-0.0081754608121987	-0.4684194001135848	1.0390793009838597	2.779840683243036	0.1470545571377316	3.0025979974542074	0.4197822963732751	-0.2888459436117567	0.7086282399850319	120.04194764655584
17	6.0	wm	187	diff_vonmises	-0.1203115433157854	-6.8933436586998935	0.4916388299067941	99.13472782531557	0.4745303968943128	99.25435552248784	0.2871868514969087	-0.2053214142830874	0.4925082657799962	128.30808513494634
18	7.0	ltm	187	diff_vonmises	0.0800825794987701	4.588393817800418	0.8845878945612599	114.93070009954052	0.8647718859786471	115.4694024127254	0.2639729037625997	-0.2220340094478761	0.4860069132104758	95.15136962350266
19	7.0	perception	187	diff_vonmises	0.0024331765092074	0.1394107447879596	1.3639313925688914	3.5792247748624564	0.4411323313164855	4.030876948996972	0.513532892766177	-0.3049362296721867	0.8184691224383637	97.1251466371416
20	7.0	wm	187	diff_vonmises	0.1288989751669833	7.385367260629748	0.8170106337817101	63.4250840757696	0.7877903443466356	63.90231379067957	0.2101015271484989	-0.19251942744184	0.402620954590339	99.04437083156066
0	1.0	ltm	66	diff_vonmises	-0.0281842497155141	-1.614838557441752	5.70469258201603	0.2067869592632137	1.0844223619488015e-19	2.469536594196037	-0.2007663197301251	-0.3930368230852902	0.1922705033551651	57.083760967942
1	1.0	perception	66	diff_vonmises	-0.0023213681198469	-0.133004595963451	12.169002023201186	0.8112844722392484	0.0809316332288827	3.2252520557419397	0.561275405799419	-0.5312716342840775	1.092547040083497	38.375763807947976
2	1.0	wm	66	diff_vonmises	0.0165431768333471	0.9478542122893888	6.589493968691079	0.2802385260300908	1.2679786201410785e-17	2.716906635139773	-0.151307376957276	-0.4324085896452669	0.2811012126879909	53.03592836140518
3	2.0	ltm	66	diff_vonmises	0.0002536384736568	0.0145324140626752	4.071654794760783	0.4689098029339087	0.1070837217973064	1.7095298250635351	0.0620658378751297	-0.2651635115303372	0.3272293494054669	64.15349184891781
4	2.0	perception	66	diff_vonmises	-0.0175389112858226	-1.0049055939320084	7.652885527987871	1.3450149723803324	0.3383375768129435	2.609967800949576	0.8922078938988977	-0.4484765364400389	1.3406844303389365	47.03503152233944
5	2.0	wm	66	diff_vonmises	0.038458535538262	2.203511772596303	4.153405804557973	0.5385072464316096	0.1249382127701687	1.9649228591955217	0.0696327634218148	-0.3053852567858385	0.3750180202076534	63.12414211784929
6	3.0	ltm	66	diff_vonmises	0.0939423631949711	5.382500928556964	3.04160272395903	0.5690418880899333	0.3920504547603516	1.1136234963521008	0.1230906215430941	-0.1531745444653087	0.2762651660084029	68.77552365144382
7	3.0	perception	66	diff_vonmises	-0.0002186697054419	-0.0125288512291912	4.818452712092773	1.7766574709643483	0.3466306229395062	2.278682671663885	1.0126318082091803	-0.3456931559957057	1.358324964204886	58.96043869578856
8	3.0	wm	66	diff_vonmises	-0.0531273941443487	-3.0439754609992247	3.656619680544501	0.5668690776921995	0.2579623600030833	1.30442797692809	0.1505914402050679	-0.1941052150339337	0.3446966552390016	65.52483866682292
9	4.0	ltm	66	diff_vonmises	-0.0912503818943246	-5.228261761501784	0.9773335133545143	66.86709548423721	0.9408822665492914	68.35150345973865	-0.0280307327525513	-0.3261428587106447	0.2981121259580934	80.31564796704075
10	4.0	perception	66	diff_vonmises	-0.0587126995110918	-3.3639898858053727	2.5324971109476846	2.4028540793500057	0.2630906354447254	3.961648768744341	0.6206015826433088	-0.520095434325081	1.1406970169683897	78.09202173936029
11	4.0	wm	66	diff_vonmises	-0.0909730663994298	-5.212372754050731	0.9925349169952554	284.25561425428344	0.9824286672605554	285.9579162033673	-0.0320137647346143	-0.3762244536965227	0.3442106889619083	79.11219218089244
12	5.0	ltm	66	diff_vonmises	0.0113221112261528	0.6487091884362473	2.148422448743193	0.7928739060621309	2.0051375036168241e-22	1.5883371117827534	0.174246594086678	-0.2469786283877801	0.4212252224744582	93.74342787853324
13	5.0	perception	66	diff_vonmises	-0.0378910779249474	-2.170998846300811	2.502013092518337	2.1448817408153653	0.0956640528874913	2.762884254707564	0.7819290638700644	-0.3924853208384379	1.1744143847085025	83.93096158166895
14	5.0	wm	66	diff_vonmises	0.0517896772514474	2.9673299288526294	1.6886784828427772	1.0575784712870175	7.476766511712914e-17	1.925617651703278	0.1858269518178317	-0.2896656871381379	0.4754926389559696	104.89718110600106
15	6.0	ltm	66	diff_vonmises	-0.0890368503747998	-5.101435747613833	0.5066706897457854	75.64598655686156	0.487803109428163	76.20358274994766	0.130332121082116	-0.2127418846871753	0.3430740057692913	122.7202280540394
16	6.0	perception	66	diff_vonmises	-0.0712297904356698	-4.0811663675651975	0.9335393841326346	2.397932937498368	3.779220103423981e-21	2.987124128043538	0.3137555705855728	-0.3534295672601991	0.667185137845772	131.36431770136147
17	6.0	wm	66	diff_vonmises	-0.0604979526400062	-3.466277355454692	0.4702715661835291	122.4299681222258	0.4561831509062053	123.01659394703164	0.1804396622631436	-0.2569968969512004	0.4374365592143441	127.06105324401202
18	7.0	ltm	66	diff_vonmises	0.1393941592969372	7.986697016488788	0.8945580144895491	127.78000756044884	0.8778040631146826	128.691819131317	0.1175854725036344	-0.2453383002217943	0.3629237727254288	89.7293461581398
19	7.0	perception	66	diff_vonmises	-0.0174301686399461	-0.9986750992701972	0.8097385395735169	189.68940501337508	0.7920786499030122	190.44934332704972	0.4101196074241926	-0.3394287914368377	0.7495483988610303	99.82899913647871
20	7.0	wm	66	diff_vonmises	0.1184984973697188	6.789463777926976	0.7775989597862678	76.82130141697426	0.7540934634331882	77.73518572084271	0.075306600338397	-0.2329744347203011	0.3082810350586982	95.43654963407435
0	1.0	ltm	164	diff_vonmises	0.0269724478900698	1.5454074272375438	6.049651824006223	0.2876922866501241	0.0079799305490127	3.528256516301379	-0.2901478102314158	-0.5608854127664938	0.270737602535078	54.79285148239615
1	1.0	perception	164	diff_vonmises	0.0137753521242499	0.7892695380260967	11.656873208622011	0.755914819667167	0.0624157500854843	4.032566164121306	0.335560717008083	-0.6585532541097565	0.9941139711178396	39.18349639969952
2	1.0	wm	164	diff_vonmises	0.0313786029681822	1.7978615170935222	4.297723964122545	0.4460586879505068	0.0370371876618513	3.875019853219222	-0.2831866216449583	-0.611689171934785	0.3285025502898267	63.123234747670864
3	2.0	ltm	164	diff_vonmises	0.0031673685308787	0.1814768489819025	3.0536485170616694	0.7442248126473292	0.1939366599188391	2.3663027746138816	0.0394298720099486	-0.3498622499009616	0.3892921219109103	70.34006086767849
4	2.0	perception	164	diff_vonmises	-0.0150171671161756	-0.8604202959995112	6.924601997462451	1.322069796528163	0.2586353852439554	3.005359061079382	0.7516537025380884	-0.5004235944486658	1.2520772969867542	49.494123067102976
5	2.0	wm	164	diff_vonmises	0.0444572644649909	2.5472136225409114	3.832223070811553	0.7461731200421939	0.162159140087105	2.5780296427422806	0.0809525288557104	-0.3964801085746057	0.4774326374303161	64.59719819553163
6	3.0	ltm	164	diff_vonmises	0.0337952042123792	1.936322569152073	3.252402317995589	0.6568552262424947	0.1311578665119377	1.782277827080705	0.1283215958746237	-0.2662557005311311	0.3945772964057548	71.19130706737667
7	3.0	perception	164	diff_vonmises	-0.0019123140978153	-0.1095675269081879	4.480246604371597	1.87889583441662	0.1992281613609987	2.9768186075614405	0.963660894716023	-0.4520348106473164	1.4156957053633394	61.86235496206695
8	3.0	wm	164	diff_vonmises	-0.023137678014267	-1.325691297950136	3.494116629031464	0.7236738964455279	0.1195853016157409	2.067861637439969	0.1468370327369009	-0.3129771785234694	0.4598142112603703	69.1140667379585
9	4.0	ltm	164	diff_vonmises	-0.0566564146216979	-3.246173440166578	1.8164312693045628	1.007682348553924	0.1155513848104499	3.246360489209515	-0.0876768152397269	-0.4539175782006962	0.3662407629609693	90.0185035320261
10	4.0	perception	164	diff_vonmises	-0.0510251770902824	-2.9235272961808048	1.924311385523509	3.491512674053149	0.3157227559450096	5.551766857462923	0.5776518587203991	-0.6409057248265246	1.2185575835469238	85.50947078595354
11	4.0	wm	164	diff_vonmises	-0.045180995339078	-2.5886803471294164	0.7661506909370726	290.9387720105664	0.7547108950873755	293.3929532042065	-0.0885147418796776	-0.5124344092662696	0.4239196673865919	89.33031169837574
12	5.0	ltm	164	diff_vonmises	-0.039288287753979	-2.2510530725985176	1.7613394884009703	1.1349503578029965	1.0239389581360716e-14	2.3775365344276	0.1636352058033626	-0.3623952362677118	0.5260304420710744	102.93135742350104
13	5.0	perception	164	diff_vonmises	-0.0371261870665106	-2.12717382832424	1.7870269078787864	3.3898001850969908	0.2922433760424689	4.531532682891141	0.6875398557266056	-0.4989640992501367	1.1865039549767422	90.5821594783996
14	5.0	wm	164	diff_vonmises	0.0214348517933132	1.228126542245272	0.974598776740628	3.843545210008732	0.333037877141737	5.16126350030925	0.1799405446691677	-0.3889173742572301	0.5688579189263978	107.74142975692664
15	6.0	ltm	164	diff_vonmises	-0.0583145156595132	-3.341175631639659	0.4682614566609515	49.56394187757366	0.4294832117171064	50.56375426909538	0.122490859353233	-0.3254219238614206	0.4479127832146536	126.21681825726628
16	6.0	perception	164	diff_vonmises	-0.0563000141489482	-3.225753197261554	1.0103694251444777	2.7331310763694607	0.0314022616427194	3.7294312878143896	0.3269500468542763	-0.4505543284028677	0.777504375257144	126.1983700001866
17	6.0	wm	164	diff_vonmises	-0.0319574245342002	-1.8310255499175057	0.4895793256234162	237.21362518803045	0.4796560626128354	238.25963829240587	0.1847549426095085	-0.3664240320550611	0.5511789746645697	123.2472156396708
18	7.0	ltm	164	diff_vonmises	0.0252498582328813	1.446710310047758	0.7286340772189083	198.166963076882	0.7144670428468777	199.90890753546407	0.0350333547584185	-0.4023023006392598	0.4373356553976784	95.73696628422326
19	7.0	perception	164	diff_vonmises	0.0326652611453463	1.8715816003210175	0.7679323639580817	339.70166536023345	0.7545837605508431	341.2376723678236	0.4127259616561503	-0.5152179778839212	0.9279439395400716	99.89083903485624
20	7.0	wm	164	diff_vonmises	0.0972425629631745	5.571588446825075	0.7682932074364893	168.87535381679734	0.7518031351591253	170.6154250209203	0.0193313786134581	-0.3939878542288184	0.4133192328422765	92.64251296067766
0	1.0	ltm	43	diff_vonmises	-0.0448530985364038	-2.569893244220353	3.285209048588949	0.3470794777087838	1.5851226953449805e-21	2.946378029502052	-0.229644385234978	-0.4685952749137828	0.2389508896788048	75.74226904387601
1	1.0	perception	43	diff_vonmises	-0.0053141468440411	-0.3044781858763259	12.341598419948044	0.8085118895126009	0.0357961813702641	3.530411062442972	0.5388440225202665	-0.5696145160313959	1.1084585385516623	38.33956267686855
2	1.0	wm	43	diff_vonmises	0.0387196810793486	2.218474309939228	3.5195189210445665	0.4414348208655426	9.380141759584124e-23	3.156133329072323	-0.186014853427576	-0.5020368211471714	0.3160219677195954	73.10990859497394
3	2.0	ltm	43	diff_vonmises	0.0290357728034473	1.6636272365382725	3.7898102749389833	0.5110253087000914	0.0784307085656758	1.8525084208989349	0.0630312896302457	-0.286183393719546	0.3492146833497918	67.15464942607156
4	2.0	perception	43	diff_vonmises	-0.0183332200064593	-1.0504161312549256	6.986687554269015	1.388755295524031	0.2787209986100324	2.612776004142977	0.8972772274954341	-0.4345849798797764	1.3318622073752104	49.46445760213774
5	2.0	wm	43	diff_vonmises	0.0260334998830584	1.4916096692535714	3.9157888242461087	0.6623375998492829	0.1314956895496554	2.1146779942899725	0.1210780111366352	-0.3251550606069308	0.446233071743566	65.04949726864979
6	3.0	ltm	43	diff_vonmises	0.0388270786798351	2.224627739176936	3.4314698254990743	0.4774713675636345	1.1745666695719856e-18	1.194796786877241	0.1471705724067771	-0.1898050061741003	0.3369755785808774	74.06582673115287
7	3.0	perception	43	diff_vonmises	0.0007523024199347	0.0431037535797415	4.241025231965874	1.916758222493472	0.2311673494981304	2.494047979921998	1.0278130481922385	-0.3697945507322772	1.3976075989245158	63.54920720737079
8	3.0	wm	43	diff_vonmises	-0.0891594447643278	-5.108459888725768	3.571376142336016	0.6911693667883102	0.1292528805317595	1.5107557782162249	0.2268063419409051	-0.2266343441510589	0.4534406860919641	68.99774245494376
9	4.0	ltm	43	diff_vonmises	-0.1148604391767383	-6.581018397846203	2.842549751226746	0.597522936184893	0.0872733518373027	2.3027656378887524	-0.0197312683381563	-0.3470402298029729	0.3273089614648166	75.75289423894279
10	4.0	perception	43	diff_vonmises	-0.0629853361663222	-3.6087939335429695	2.0503286844918733	3.4445178265409746	0.3412985654345002	5.042204409229982	0.7070125829242	-0.5785898990608346	1.2856024819850345	83.66815468939348
11	4.0	wm	43	diff_vonmises	-0.0558982786583867	-3.20273544917176	0.8994110716136751	302.43045543890605	0.8889536654764668	304.34037027858835	-0.0098441329914464	-0.4234246167796058	0.4135804837881593	84.14194127563016
12	5.0	ltm	43	diff_vonmises	-0.0538510070947854	-3.0854354290602566	1.4442996177337522	1.089142896350949	5.782181831148376e-18	2.03442823460097	0.1373017891502018	-0.2981276098198447	0.4354293989700465	112.2131553839641
13	5.0	perception	43	diff_vonmises	-0.012014935262379	-0.688405081657228	1.8325658523464816	3.0706956178305007	0.2620866223538099	3.806445606016199	0.7283013669262207	-0.429229710037822	1.1575310769640428	91.3721680164236
14	5.0	wm	43	diff_vonmises	0.0441524313481104	2.5297479714878426	0.7170880934478311	7.678134680751612	0.4339003186960979	8.669502759853751	0.1772809509914319	-0.3267875166991852	0.5040684676906172	114.27346784377669
15	6.0	ltm	43	diff_vonmises	-0.0784040456253102	-4.492220911081421	0.4056002379973247	145.98865355041295	0.3950085295936377	146.78210090483196	0.1033316298872293	-0.2714511081456496	0.374782738032879	131.95119284903157
16	6.0	perception	43	diff_vonmises	-0.0372693218541646	-2.135374847558319	0.4559120000989332	203.3725215863384	0.440781607824878	204.09279654926533	0.4002739981223868	-0.4330549976825111	0.8333289958048979	129.90077914240385
17	6.0	wm	43	diff_vonmises	-0.0248741552202128	-1.4251841130715024	0.4344934166696958	178.76896996530405	0.422369070245515	179.61708547501334	0.2029461087483	-0.3444281738884349	0.5473742826367349	130.1937980003566
18	7.0	ltm	43	diff_vonmises	0.1471757829429869	8.43255120916664	0.7766872736070457	126.0855809766512	0.7583930137460225	127.38293378193802	0.0568068294192443	-0.3102765363799324	0.3670833657991768	93.80716357498628
19	7.0	perception	43	diff_vonmises	0.0853156976352599	4.888229400714654	0.8051261365638623	153.0808260562966	0.7785203155082635	154.23360589772273	0.4324859042636575	-0.4348116731107971	0.8672975773744547	99.13801116083977
20	7.0	wm	43	diff_vonmises	0.0803700116476025	4.604862466824896	0.6683104342738166	133.350294077761	0.652601745287794	134.70131091508506	0.0261471935760866	-0.3153873213758427	0.3415345149519293	100.29970477535474
0	1.0	ltm	452	diff_vonmises	0.1029057523429108	5.896065296867273	4.743931232208331	0.2714696520904606	1.0798197491099308e-19	3.2179990146541675	-0.2832818084847286	-0.5121431085840705	0.2288613000993419	62.72583099482748
1	1.0	perception	452	diff_vonmises	0.0287183413214298	1.645439752334084	10.429747665143855	0.7185558448007056	0.0447524938928057	3.77277468824321	0.2863566110943202	-0.6094291211022526	0.8957857321965728	41.53523084196823
2	1.0	wm	452	diff_vonmises	0.0437633643112712	2.5074560723292936	4.0409614365910205	0.4137694924651168	0.0149964250238649	3.4678786634538983	-0.2403824454203288	-0.5477858564612831	0.3074034110409542	66.59854668646906
3	2.0	ltm	452	diff_vonmises	0.0733310363077731	4.201558887756002	2.8440976002651377	0.9307658514276614	0.3379461632631957	2.469413142648202	0.0556205417627233	-0.3494604275274268	0.4050809692901501	69.17702782865868
4	2.0	perception	452	diff_vonmises	0.0108947072867652	0.6242207465620726	6.236581900420154	1.481924790083063	0.3072489649069163	3.054750852163408	0.7983437873247486	-0.5037654026138634	1.302109189938612	51.72136326966847
5	2.0	wm	452	diff_vonmises	0.0810725324705655	4.645113945000732	3.997158834656089	0.6785357587031086	0.1506595878552086	2.3965176208678454	0.0805253461721469	-0.370732194994573	0.4512575411667199	63.649226197618646
6	3.0	ltm	452	diff_vonmises	0.1103440459638502	6.322248128126186	4.268853754371702	0.5085849391161728	0.0380306513080594	1.7694585213530023	0.1126517845756445	-0.2769694266371801	0.3896212112128246	64.77432372148715
7	3.0	perception	452	diff_vonmises	0.0148349271266493	0.8499787137411472	5.201369747741478	1.7147891328135445	0.0934042920716673	2.978165672977333	0.9992423225462986	-0.4645930212512823	1.463835343797581	58.614090423462045
8	3.0	wm	452	diff_vonmises	0.040547991116053	2.3232287586837974	4.415137261736274	0.5655826403301023	8.780886704122919e-14	2.081362505197942	0.1274984501211657	-0.3311920338093377	0.4586904839305035	65.08033405544805
9	4.0	ltm	452	diff_vonmises	0.1748356176129575	10.017342997785589	0.3716221169819094	104.50360376585688	0.3541625535751506	107.13714190714248	-0.2470798815626835	-0.5155546538527656	0.268474772290082	122.9417465871731
10	4.0	perception	452	diff_vonmises	-0.0043108519353885	-0.2469936220035649	1.7463154232203455	3.44953611889383	0.2298933604426873	5.976787661700402	0.4574361821320247	-0.7178888832178147	1.1753250653498395	90.9354430977764
11	4.0	wm	452	diff_vonmises	0.0937675730213509	5.372486189308171	0.6864564422911449	90.43246546263796	0.6502480524306737	93.36185602108438	-0.1827847922265668	-0.5819744265785847	0.3991896343520178	92.83951272274588
12	5.0	ltm	452	diff_vonmises	-0.0562330794849857	-3.221918123513375	1.864223680450097	0.9876572874276665	4.4133810662925073e-17	1.94595325399118	0.1785497836236783	-0.29797485769825	0.4765246413219283	100.27590058934923
13	5.0	perception	452	diff_vonmises	-0.0501437157305952	-2.873023280466864	1.3175264195097385	6.332946132258617	0.5452760463988565	7.1913537351189865	0.7018245691411309	-0.4591050371376216	1.1609296062787524	94.48767424864738
14	5.0	wm	452	diff_vonmises	0.0829209004670996	4.751017630189189	1.6375385445997568	1.3380277589571348	5.712199117561503e-22	2.414272375876456	0.2270420147083074	-0.361127549852369	0.5881695645606765	106.32549718631634
15	6.0	ltm	452	diff_vonmises	-0.0527408230402735	-3.0218265682540064	0.476369109447148	83.14453438987081	0.456007600705029	83.83565845764055	0.1497855534867831	-0.2628158326207161	0.4126013861074993	125.82220260254918
16	6.0	perception	452	diff_vonmises	-0.0698408839306728	-4.001587886690607	0.8985134030279612	4.567354869961985	0.285729494135294	5.26452892694298	0.3801217693576193	-0.3728179983938673	0.7529397677514866	117.45487626557708
17	6.0	wm	452	diff_vonmises	0.08102537727693	4.642412151423295	0.535297166076909	179.50028522352403	0.5228685278903294	180.2613742310496	0.2276909513146705	-0.3123505860725615	0.540041537387232	120.2132538379701
18	7.0	ltm	452	diff_vonmises	-0.0553696750059511	-3.172448690852	0.8306297850073954	81.4612139911233	0.7906005899905031	83.60041846043515	-0.0230691697297622	-0.4668250709719821	0.4437559012422198	88.23476864469126
19	7.0	perception	452	diff_vonmises	0.0710597903516301	4.071426080232854	0.708206450889337	283.98889545962066	0.690648147076559	285.9702505748645	0.3901071530617628	-0.6180275032357585	1.0081346562975213	103.1382016367088
20	7.0	wm	452	diff_vonmises	0.020262484668788	1.160954853970089	0.6435731455308846	136.9998948922694	0.6245273014273459	139.17371639848355	-0.0920397726170989	-0.4503421782675971	0.3583024056504982	97.75729450220896
0	1.0	ltm	141	diff_vonmises	-0.0725435953740966	-4.1564418456405	3.213513730344336	0.4212527389613059	5.831680686343579e-22	2.790304229202574	-0.1572273822662391	-0.44362676967701	0.2863993874107708	76.59692124400593
1	1.0	perception	141	diff_vonmises	-0.0444929775285677	-2.549259830357344	14.788074231881478	0.7052270239734769	7.949122595299151e-22	3.2002294571556686	0.5626587173800898	-0.5093323371344641	1.071991054514554	35.2380158758489
2	1.0	wm	141	diff_vonmises	-0.0046886076813957	-0.268637431936593	4.518363722354805	0.4158957079465273	6.463424890125447e-17	2.9540784334566337	-0.1285782003983752	-0.470115546982697	0.3415373465843217	64.31302666579322
3	2.0	ltm	141	diff_vonmises	-0.0783127980649095	-4.486992810979599	3.1438348518634074	0.6945964440106636	0.119101226757403	2.16326032986628	0.0806702881793622	-0.3244321173822185	0.4051024055615808	72.1038564855495
4	2.0	perception	141	diff_vonmises	-0.0458340655017481	-2.626098511176336	7.162258773608851	1.1950719403551429	0.1391096426568482	2.6814015994585843	0.763763320552309	-0.4344817678554721	1.198245088407781	49.619344847945
5	2.0	wm	141	diff_vonmises	-0.0204519304292808	-1.1718092964929765	3.7941890901220536	0.6917899680906537	0.1290207255254373	2.2688564237347104	0.10758517042205	-0.3479907114296993	0.4555758818517493	65.93307064951753
6	3.0	ltm	141	diff_vonmises	-0.0456271545908559	-2.614243389247002	2.1949327026138787	1.1720723562874695	0.2486460141266978	2.184119367140237	0.2004940609190057	-0.2808459530186191	0.4813400139376249	82.11252558456161
7	3.0	perception	141	diff_vonmises	-0.0335730535000147	-1.9235942709177616	3.621074048700924	2.370054721281289	0.2805110476976395	3.292494741476804	1.0449938491478707	-0.4681856959698562	1.513179545117727	67.49710412235743
8	3.0	wm	141	diff_vonmises	-0.1167474324484811	-6.689135148286647	2.437403556770624	1.365590693781384	0.3804690759253233	2.468028660967137	0.2384690007659275	-0.3105858732182581	0.5490548739841857	75.52828414041579
9	4.0	ltm	141	diff_vonmises	-0.1373593902872874	-7.870113339951841	2.5288089342219724	0.9296737810067612	0.1724780944755541	2.597302569060078	0.0640512287157497	-0.3698786689040512	0.433929897619801	77.4172483268737
10	4.0	perception	141	diff_vonmises	-0.1034673848011356	-5.928244466361113	1.806989667091992	4.380411083031706	0.4358681511739235	6.001246656187771	0.7156753430620786	-0.5971137061448337	1.3127890492069123	85.5334906411743
11	4.0	wm	141	diff_vonmises	-0.1562105856612747	-8.950207273657856	0.9372534104910324	314.6120558834372	0.9267699995135033	316.4641645919036	0.0199218975517112	-0.4220579376028297	0.441979835154541	83.1914443022606
12	5.0	ltm	141	diff_vonmises	-0.0232253001017712	-1.330711673756253	1.1503989056572812	2.025733122312877	0.1731589749632226	3.018932450858081	0.1823344513554533	-0.3259971362803406	0.508331587635794	111.28023515255538
13	5.0	perception	141	diff_vonmises	-0.0241383631417099	-1.3830263323741236	1.9325818452884451	2.748296469720026	0.2006663131005872	3.609723611449392	0.6934702741406527	-0.4422603152334201	1.1357305893740728	90.86038686091922
14	5.0	wm	141	diff_vonmises	-0.0568725370364175	-3.2585563423881903	0.6396084951056726	203.3916070966786	0.6279028656245361	204.443867497857	0.1669543594313793	-0.3201400371547969	0.4870943965861762	107.71888401281949
15	6.0	ltm	141	diff_vonmises	-0.1250699986115512	-7.165983064148949	0.4197831218887288	6.2253437167708325	0.211812640172776	7.114363694318231	0.0594874090363972	-0.2825878553091162	0.3420752643455135	141.4638759950107
16	6.0	perception	141	diff_vonmises	-0.0390775920794992	-2.2389810996891586	0.4296799667729431	85.66551937530824	0.3986149140202715	86.54591847100298	0.2889821257056937	-0.4131173392576066	0.7020994649633003	132.4389059828368
17	6.0	wm	141	diff_vonmises	-0.117140184038216	-6.711638156775512	0.4500720213190466	200.902137870138	0.4408491549620444	201.81863300169772	0.1270229418050519	-0.3084162184902794	0.4354391602953313	126.8643565770978
18	7.0	ltm	141	diff_vonmises	0.0767376585970223	4.396743967325177	0.7899261505454719	123.9932738662641	0.7694527154256213	125.16927619703766	0.1345373828947416	-0.314494645495083	0.4490320283898246	95.55350005169888
19	7.0	perception	141	diff_vonmises	0.049443664289409	2.8329132874448444	0.788265431090514	245.89659871809903	0.7719892542415944	246.9539929956276	0.4488832984380622	-0.4238587909821234	0.8727420894201856	100.33980978683717
20	7.0	wm	141	diff_vonmises	0.0581826552256976	3.333620585297262	0.8219344242401561	91.74608906598236	0.7962430878063831	92.9278332379734	0.0921015252363304	-0.2971841627692768	0.3892856880056072	92.56649588540546
0	1.0	ltm	20	diff_vonmises	-0.0847694731253754	-4.856933041631667	4.692979154847956	0.4053125788553033	1.7902562644007827e-19	1.8635290311914268	0.0431587388852706	-0.2965613532593518	0.3397200921446224	63.0742662013557
1	1.0	perception	20	diff_vonmises	-0.0761336042870201	-4.362134204765366	15.964436160119345	0.6875810496883321	3.5886743687739816e-20	2.3753908902978838	0.7087646259455979	-0.3780552019663514	1.0868198279119494	33.904627031747964
2	1.0	wm	20	diff_vonmises	-0.0397501055172117	-2.277513281335922	6.473549114461283	0.4030268212241101	2.197098601776355e-17	2.0352049432168227	0.0765886936215307	-0.323911972327941	0.4005006659494718	53.51863642759696
3	2.0	ltm	20	diff_vonmises	-0.1213911358883427	-6.955199756701099	2.055806107694224	2.0068311193823027	0.767762194297784	2.800924596544826	0.2193970055225675	-0.2524886450338858	0.4718856505564534	73.67256799836707
4	2.0	perception	20	diff_vonmises	-0.0607713773308896	-3.4819434362569823	7.08177975286931	1.0898829349102226	0.1811042647044923	1.967474139923791	0.7626106858639163	-0.3199425268595948	1.0825532127235111	49.82594956552353
5	2.0	wm	20	diff_vonmises	-0.040225559943021	-2.3047548132856117	3.886248127288253	0.6909783765482774	0.2748057673599391	1.5417608137421726	0.2059459008150232	-0.2317833267610356	0.4377292275760588	63.71981510066348
6	3.0	ltm	20	diff_vonmises	-0.0675998548721796	-3.873186379872772	1.229996238988567	149.65179210124228	1.2117988307173184	150.19447470341078	0.2945243909301496	-0.2231666665347198	0.5176910574648694	80.41983669592076
7	3.0	perception	20	diff_vonmises	-0.0535621724628904	-3.068886423675461	3.9420667171923767	2.1415527307082582	0.3943885369639994	2.714954090033693	1.0166806828032375	-0.3856377532301287	1.4023184360333665	64.06111950661725
8	3.0	wm	20	diff_vonmises	-0.0995902461203225	-5.706100783363605	1.3794320731754313	170.93517815141038	1.3618242591905412	171.57344829909738	0.2793460011588848	-0.2436191248268002	0.5229651259856851	75.00624671038895
9	4.0	ltm	20	diff_vonmises	-0.2014969301152114	-11.544923680444112	1.334095086325795	16.415556902606134	1.1486952108697208	17.19376504224788	0.2707541247365181	-0.269867795903312	0.5406219206398302	78.31533445510865
10	4.0	perception	20	diff_vonmises	-0.1238926881006839	-7.098528140699866	2.394026486248816	2.5985512758167357	0.2349540207097644	3.535549039982784	0.7908628913447581	-0.4530168582752468	1.243879749620005	81.83078474709154
11	4.0	wm	20	diff_vonmises	-0.2060779451560496	-11.80739650817009	1.237210679745384	274.17568484598723	1.225356889159274	275.1676239889911	0.2167654265812615	-0.3026004705297787	0.5193658971110402	77.06709337916925
12	5.0	ltm	20	diff_vonmises	-0.0032930750199646	-0.188679300263935	0.7561905110818484	13.30673180256	0.5880061336895366	13.537951896390554	0.3648182462684328	-0.2336977368971908	0.5985159831656237	111.81374017567708
13	5.0	perception	20	diff_vonmises	-0.0396536088193267	-2.271984427810162	2.20240444094644	2.071784212096315	0.1198633780422202	2.276004552572585	0.7256841596572434	-0.306785555707625	1.0324697153648683	88.96208595368867
14	5.0	wm	20	diff_vonmises	-0.0593569136464152	-3.400900636862073	0.8426667474491206	166.09947819209592	0.8302229670550249	166.3466231394192	0.3180367302355122	-0.1867581149821298	0.5047948452176421	100.01553852849314
15	6.0	ltm	20	diff_vonmises	-0.1128357716352321	-6.465013492800771	0.6882629721241371	1.7829293603769556	6.316599311638685e-20	1.9274785376596597	0.1965803725935619	-0.1796896966250468	0.3762700692186087	142.52707991394277
16	6.0	perception	20	diff_vonmises	-0.0240549908322738	-1.378249450915181	1.198266002516347	1.77906075823443	1.9655413215158745e-13	2.0347903760208923	0.3500734003792194	-0.2624946782758295	0.6125680786550489	120.75949064533708
17	6.0	wm	20	diff_vonmises	-0.191302298831075	-10.960814334171062	0.5727856249673287	90.12671585952276	0.5562745308370296	90.21520661828689	0.2578139779697146	-0.1658599508082261	0.4236739287779407	121.18404135021736
18	7.0	ltm	20	diff_vonmises	0.0534055234946396	3.059911098929612	0.86974661701515	115.79112024061553	0.8490068569347531	116.15827113020453	0.3431976811104462	-0.2197350655087433	0.5629327466191896	97.93934251786884
19	7.0	perception	20	diff_vonmises	-0.0473323005711459	-2.711941057371321	0.936880174717105	127.66050334222908	0.9096796810606798	127.9549862707268	0.5649350405434461	-0.2864655028356573	0.8514005433791034	95.96323994199396
20	7.0	wm	20	diff_vonmises	0.1429731948842467	8.191760650368748	2.002485409176707	1.060344487867089	0.2043335318828698	1.342820158457595	0.2879688969831109	-0.1651305558877193	0.4530994528708303	89.62902080557762
0	1.0	ltm	360	diff_vonmises	0.0118483356546369	0.6788596272650703	6.871396166918086	0.2860518982232374	0.0109802807266429	3.7795351115238023	-0.3149048145562413	-0.6016594244717631	0.2867546099155218	51.24785479011538
1	1.0	perception	360	diff_vonmises	0.0145679596360811	0.8346826032643869	12.048655331167865	0.7917652723316854	0.0724826927760061	4.307296312214861	0.3484386811169098	-0.7077069783178047	1.0561456594347145	38.47581161281303
2	1.0	wm	360	diff_vonmises	0.019086479679092	1.093574731374183	4.3182515454278025	0.4205669285032998	0.0209373665633352	4.145219725760996	-0.336528343320635	-0.6553754566385133	0.3188471133178782	63.81699215218305
3	2.0	ltm	360	diff_vonmises	0.0196403705643846	1.125310341412214	3.2332941020021155	0.6372161383916755	0.1298773602734858	2.232056337952895	0.0326235089332595	-0.3368599208441603	0.3694834297774198	70.35783460799794
4	2.0	perception	360	diff_vonmises	-0.0190936121046873	-1.093983389258486	7.066444246802755	1.3501810341634963	0.297326139820251	2.985154740838224	0.7789393063498128	-0.5033004833212995	1.2822397896711122	48.809607985300346
5	2.0	wm	360	diff_vonmises	0.0276429168382818	1.583822468264667	3.616596307689953	0.8197295672705048	0.1795191494458389	2.679020219170181	0.0901105356346432	-0.4076810984752858	0.497791634109929	65.96672610752563
6	3.0	ltm	360	diff_vonmises	0.0344067039230122	1.9713589217448144	3.685615784793114	0.5421787401161959	0.0581410936423371	1.5875123127235946	0.130983907776358	-0.2448259274315035	0.3758098352078615	69.14146759172195
7	3.0	perception	360	diff_vonmises	-0.0006026433770248	-0.0345289220550332	4.423400988992615	1.9325043961506216	0.2424497992589745	2.9183435041227512	0.9858913302175656	-0.4399021700590175	1.425793500276583	61.86237647042023
8	3.0	wm	360	diff_vonmises	-0.0432374206152074	-2.4773217182833247	3.781541171468907	0.6842576250956454	0.0898094156045218	1.975694346833173	0.1667923025921162	-0.3030576974939075	0.4698500000860237	67.44368175267209
9	4.0	ltm	360	diff_vonmises	-0.0714570032545631	-4.094184703139055	1.91249015233728	0.9514764947676912	0.0730809518060594	3.143141605887644	-0.0597242039520246	-0.4561677727896095	0.3964435688375848	91.58717124232844
10	4.0	perception	360	diff_vonmises	-0.0403413383172729	-2.3113884254891293	2.0454145881459964	3.340179925908745	0.3038507723281533	5.290163541226241	0.63160309599206	-0.6294331438823046	1.2610362398743646	84.04643877745696
11	4.0	wm	360	diff_vonmises	-0.0460388110513398	-2.637829567042023	0.7549752837724893	293.9981235822132	0.7433642048906468	296.42628983982735	-0.0594014408626861	-0.5170805213764709	0.4576790805137847	90.98102572383152
12	5.0	ltm	360	diff_vonmises	-0.0469618842998261	-2.6907177683617203	1.6851921761684308	1.1902517570264164	0.0107617994948213	2.466085002097885	0.1566224412970634	-0.3692541576885845	0.525876598985648	104.23141711564436
13	5.0	perception	360	diff_vonmises	-0.0171675793964405	-0.983629843871792	1.7340819538939485	3.504267667855188	0.2948138745206636	4.672745546243152	0.6804560272006049	-0.5063844207260404	1.1868404479266452	91.5614962793683
14	5.0	wm	360	diff_vonmises	0.0153905601994971	0.881814143773208	1.0922387919056864	2.754212656088389	0.2152808865756227	4.125823521566982	0.1839619720880525	-0.4120838802366408	0.5960458523246934	110.10682988947258
15	6.0	ltm	360	diff_vonmises	-0.0643559649566786	-3.687325178509512	0.4464986563397181	96.28666103737828	0.4254269821695468	97.31023081903182	0.1366019727544625	-0.3434557170472256	0.4800576898016881	127.89800429819516
16	6.0	perception	360	diff_vonmises	-0.0209284932683992	-1.1991143358472294	1.0577258003135284	2.732927307815458	2.57256811868541e-09	3.7513240331679967	0.3665860775328065	-0.480847165439318	0.8474332429721245	126.21432822786734
17	6.0	wm	360	diff_vonmises	-0.0335767010811897	-1.923803261924521	0.4454877421015454	255.4320020984744	0.4355461482005429	256.53603233025154	0.2105733726692449	-0.4097819901496997	0.6203553628189447	128.29793175412294
18	7.0	ltm	360	diff_vonmises	0.0530313832916266	3.0384744443507965	0.7174825659627728	214.01072492067976	0.7051451629961407	215.66990858924328	0.0297273707321821	-0.3822476620035004	0.4119750327356826	96.3375216394266
19	7.0	perception	360	diff_vonmises	0.0655389483497833	3.7551051341684776	0.7365399188605245	267.4393158430342	0.7209084211124669	268.9049314257998	0.3747376524204924	-0.4902964591823	0.8650341116027924	101.9729688171984
20	7.0	wm	360	diff_vonmises	0.1098773406651962	6.29550788423692	0.7353149452697038	221.8478112651312	0.7233394625315022	223.56159065455108	0.0116150783138095	-0.3860732875416559	0.3976883658554655	94.42920602626904
0	1.0	ltm	406	diff_vonmises	-0.0129518729228882	-0.7420876552712675	5.536084064364887	0.2411255680934278	2.9904708976638784e-12	2.435023270252822	-0.1668536391352278	-0.3875425603164477	0.2206889211812198	57.96328633402388
1	1.0	perception	406	diff_vonmises	-0.0232254840314208	-1.330722212148901	14.097502926360464	0.6570731236340915	0.042477481447854	3.0081795823279323	0.4756603832660521	-0.4881660327160961	0.9638264159821482	35.84963257273134
2	1.0	wm	406	diff_vonmises	0.0148983441876097	0.8536122436833017	5.061254943162518	0.3258619609215757	5.04903189740151e-21	2.7212439368283494	-0.1486981455306421	-0.4330880004966165	0.2843898549659743	60.68078872069748
3	2.0	ltm	406	diff_vonmises	0.0129299421056369	0.7408311120014922	3.864515678189135	0.5017269665298346	0.1153368084044136	1.713059960276875	0.0735795875552795	-0.2637999059235628	0.3373794934788424	65.63994780617486
4	2.0	perception	406	diff_vonmises	-0.0171016899706848	-0.9798546578614504	7.362297145307863	1.2440242382149096	0.327655497829272	2.512351237800996	0.781859967346831	-0.4283158348025874	1.2101758021494184	47.86687231329512
5	2.0	wm	406	diff_vonmises	0.0383114666580704	2.195085346463607	4.063911491920417	0.6032831000480757	0.1860773960091821	2.033382642283039	0.0813989415178464	-0.3151351879789146	0.3965341294967611	62.53600370372831
6	3.0	ltm	406	diff_vonmises	0.0482725557182128	2.765813708963707	2.241788076194722	1.4320397304717871	0.7142000032389971	2.2778252792110245	0.1368598742426373	-0.2389955087781114	0.3758553830207488	70.90907702873267
7	3.0	perception	406	diff_vonmises	-0.0152231835018573	-0.8722241654096101	4.653452468415572	1.925958929635384	0.3231821097665552	2.7674842883714352	1.014191853450304	-0.4197242497332555	1.4339161031835594	59.794136386828086
8	3.0	wm	406	diff_vonmises	-0.025119699136861	-1.439252743180556	3.318587884386188	0.7458906100035669	0.3163471550653651	1.8813872165391587	0.1164012588623163	-0.2755155059316457	0.3919167647939621	66.36649002256073
9	4.0	ltm	406	diff_vonmises	-0.1085367627236164	-6.2186984260760605	0.9824591386097076	126.90494379402496	0.961014871538768	128.42867377460502	0.006571019492938	-0.3461970744562617	0.3527680939491997	81.07120048077425
10	4.0	perception	406	diff_vonmises	-0.0668120318586394	-3.82804744619364	2.414024630809469	2.5089282351072177	0.2462812727893804	4.016447226696766	0.6429885368118734	-0.522091832267062	1.1650803690789355	80.25983099346732
11	4.0	wm	406	diff_vonmises	-0.1072214911016623	-6.1433389132247616	1.0058733672199267	334.245109169521	0.9960245367127424	336.04133901329374	0.0102523744554758	-0.4109942653275027	0.4212466397829786	79.89456728107163
12	5.0	ltm	406	diff_vonmises	0.0221897534833506	1.2713792230317105	1.588265464439608	1.5122950041496976	0.2378024778811878	2.47248124362122	0.1860125721930005	-0.2830930468599177	0.4691056190529182	94.43032161290512
13	5.0	perception	406	diff_vonmises	-0.0303071035712404	-1.73646912389794	2.0526246620349937	2.504392116858753	0.216873725773142	3.413407424462811	0.6454049863188889	-0.4222439675760246	1.0676489538949134	87.82535984582992
14	5.0	wm	406	diff_vonmises	0.03068100459556	1.7578920745470716	1.3349274419721264	1.670376737363929	0.1551514685686503	2.7553970411085933	0.165413531307043	-0.3265448337571786	0.4919583650642216	105.49256517250052
15	6.0	ltm	406	diff_vonmises	-0.1387664261045309	-7.950730553903634	0.4789252555985405	148.73644381338164	0.4664995141808468	149.57594320936363	0.1419952487140392	-0.292839393365977	0.4348346420800162	124.35225848121922
16	6.0	perception	406	diff_vonmises	-0.0326898809920224	-1.8729922136278212	0.7637657457524067	8.80829146598664	0.4328650327430652	9.756101291563803	0.328159617548569	-0.3942566678438579	0.722416285392427	114.5309391343824
17	6.0	wm	406	diff_vonmises	-0.0620962691218327	-3.557854144189553	0.4755761844549048	166.4566261755114	0.4629031332645578	167.36894036668036	0.1734705358386961	-0.3310120476858049	0.504482583524501	125.12455507572412
18	7.0	ltm	406	diff_vonmises	0.0210789565110104	1.2077352446207084	0.9120506890700631	228.99232427056893	0.8993712723080551	230.3462040445073	0.1160660248742857	-0.3426003211251149	0.4586663459994007	87.48520087350346
19	7.0	perception	406	diff_vonmises	-0.0206596118636865	-1.183708566167642	1.7756554234799646	1.9336088129047893	0.0358705245535841	3.2225708095888623	0.3965764702583637	-0.4680347758418873	0.8646112461002511	100.56097623572742
20	7.0	wm	406	diff_vonmises	0.1583130003601073	9.070666762687232	0.9765854216447596	6.822404382038906	0.6531870639117494	8.176679606037197	0.0471663710950442	-0.3176820027657194	0.3648483738607637	90.84929378862964
0	1.0	ltm	216	diff_vonmises	-0.0698384730580583	-4.001449753864853	3.738996811622472	0.2842161422788188	7.690053702293758e-20	1.7083760627678095	-0.0613123241042369	-0.2717774327246291	0.2104651086203921	70.87416555450395
1	1.0	perception	216	diff_vonmises	-0.0309081551965213	-1.770906845296017	12.91718649671005	0.7196122800443504	0.0213948203704427	2.357645976743448	0.638031440369898	-0.3780078853470959	1.016039325716994	37.59706663521604
2	1.0	wm	216	diff_vonmises	0.0286828272705436	1.6434049471048915	5.297384886270765	0.3453348319608046	1.8374109221582736e-16	1.868098563104064	0.0114468035236969	-0.2973093854064972	0.3087561889301942	59.28426211272807
3	2.0	ltm	216	diff_vonmises	-0.004427156607227	-0.2536573888375675	3.246863721864113	0.7178998086931941	0.4171219455828705	1.5026132994695267	0.1440737838069095	-0.2127390858016538	0.3568128696085633	66.14200799734641
4	2.0	perception	216	diff_vonmises	-0.0141167564943061	-0.8088305675376404	7.095648051523452	1.29082394001282	0.3603136959607554	2.000272454004172	0.903753829210682	-0.3370270133932234	1.2407808426039055	48.956428730163225
5	2.0	wm	216	diff_vonmises	0.049842735106468	2.85577836098916	4.610079214516488	0.4797793827953035	0.1872698276387276	1.3281566746373534	0.1456440412851553	-0.2076407916427546	0.3532848329279099	59.8456176628375
6	3.0	ltm	216	diff_vonmises	0.0700269173843811	4.012246818436334	2.057475483839507	1.4210384762973711	0.8854598740704062	1.8217016915090816	0.1628811681054318	-0.1457691801901181	0.30865034829555	72.87765527630077
7	3.0	perception	216	diff_vonmises	-0.0101898187284641	-0.5838336071443605	4.861655326598798	1.6654087903791703	0.3260832179538921	2.006660151714205	0.9915268795213614	-0.3038259122865442	1.2953527918079055	59.03410726642238
8	3.0	wm	216	diff_vonmises	-0.045730257914584	-2.6201507745503974	2.7853042015467646	0.878851636101016	0.5951782577805977	1.391933961836212	0.1832126435157172	-0.1706423161005057	0.353854959616223	68.98262678070338
9	4.0	ltm	216	diff_vonmises	-0.1605234938938627	-9.197318712812375	1.268204201228372	99.91642926575253	1.2436523049234052	100.8830108857321	0.0749783384000792	-0.2548970021938022	0.3298753405938814	73.42248570756004
10	4.0	perception	216	diff_vonmises	-0.0848918633099886	-4.863945482663832	2.6306623568706584	2.169388156796361	0.1980925819251107	3.291416029762151	0.6848428176472473	-0.4462357097077826	1.13107852735503	78.86384681385877
11	4.0	wm	216	diff_vonmises	-0.1191371265652015	-6.826054535501973	1.2178593994905615	243.86797909830088	1.2059329858555694	245.04746621782812	0.0878152408188981	-0.3066694123616535	0.3944846531805517	74.72994294216974
12	5.0	ltm	216	diff_vonmises	0.0130718984899917	0.7489646136999591	1.8769615153922308	0.8884959488800924	2.490288445456219e-18	1.3083963389568392	0.2328172178701169	-0.197905366452198	0.430722584322315	99.96332793463556
13	5.0	perception	216	diff_vonmises	-0.0451564095710805	-2.587271686387071	2.3166772500509767	2.089556330531533	0.1554234197947144	2.305299454721041	0.751223414254223	-0.3041868308394529	1.055410245093676	85.96824856119449
14	5.0	wm	216	diff_vonmises	0.0747815417551898	4.284666728053715	1.2196840889890963	1.980377664396612	0.3296595111358755	2.371892021054082	0.247082066116001	-0.1984322169640137	0.4455142830800147	103.96556177703738
15	6.0	ltm	216	diff_vonmises	-0.1037093585440953	-5.942108540585688	0.489328255613587	107.27519982860692	0.4772739754388606	107.53837878010764	0.1772230959689906	-0.1725433191457703	0.349766415114761	126.741721794256
16	6.0	perception	216	diff_vonmises	-0.0694093943342888	-3.976865353913997	0.7846801255569027	6.17461026936735	0.3923672240394073	6.465472360567949	0.3903746216157366	-0.2825029400332634	0.6728775616490001	118.71941086737311
17	6.0	wm	216	diff_vonmises	-0.0720828667259821	-4.130044038602771	0.5496980862817528	56.2435819951387	0.5210371620168999	56.45891641164846	0.2488477995536104	-0.1952218916652253	0.4440696912188357	122.8098353497112
18	7.0	ltm	216	diff_vonmises	0.1014088729747092	5.810300426629112	0.9524119678850006	126.9179590210424	0.9338842613522252	127.66918167071223	0.1994808875847056	-0.2392178479751816	0.4386987355598872	89.37304247527703
19	7.0	perception	216	diff_vonmises	-0.042804807082636	-2.452534788706737	1.8681924134160195	2.191599437632566	0.2101946998504387	2.8210958036149574	0.5368446084291898	-0.3380732066045427	0.8749178150337326	91.99788805045614
20	7.0	wm	216	diff_vonmises	0.1595980865531956	9.144296777861724	1.9398404584754252	0.8293466845333621	0.1057698465771838	1.5030646932956395	0.1548428101017184	-0.2064383760518254	0.3612811861535439	92.50772965841472
0	1.0	ltm	314	diff_vonmises	-0.1940996378001972	-11.121090050969242	1.2503358833259812	0.5303326860070222	3.562588186333768e-17	1.9944937419037152	-0.1114531384041613	-0.3005368971610004	0.1890837587568391	118.657779159727
1	1.0	perception	314	diff_vonmises	-0.038632527654735	-2.213480786538753	13.961470567864584	0.7746833186898477	1.2479260311281252e-20	2.418075163483587	0.7591313520622702	-0.3848486150353012	1.1439799670975714	36.26598651842141
2	1.0	wm	314	diff_vonmises	0.0085772323906995	0.4914392158899918	4.920774684193666	0.3158754050773302	2.0558170434819487e-32	1.8833392552187092	-0.0282086877609912	-0.2997283025490427	0.2715196147880514	61.568852615939534
3	2.0	ltm	314	diff_vonmises	-0.0189291337315608	-1.084559472657157	4.878372758985005	0.3543361882578914	5.0547581310862445e-18	1.3566446463546282	0.0873279119326071	-0.2158991426000581	0.3032270545326653	61.83218594479371
4	2.0	perception	314	diff_vonmises	-0.0278081909989366	-1.5932919801327532	7.864633011304073	1.2871646186908674	0.2367799634899605	2.2215574928863706	0.9735912189573536	-0.3707138488828355	1.344305067840189	47.13714178915578
5	2.0	wm	314	diff_vonmises	-0.0068623721243022	-0.3931849601707461	4.460768082928474	0.3892648974883864	0.0192617736511126	1.472562519007545	0.0785853251146574	-0.2320321475724155	0.310617472687073	63.92202847279276
6	3.0	ltm	314	diff_vonmises	0.0713191235685387	4.086284779049267	2.7305659173798458	0.614971875427418	0.3403303941015234	1.015686704184369	0.1608311474641029	-0.1328851275266506	0.2937162749907536	74.03201060881045
7	3.0	perception	314	diff_vonmises	-0.0121612220824517	-0.696786699045784	4.2955554475267546	2.0148629411895094	0.3578824452983719	2.2502459507185018	1.1140231711708777	-0.3260879067219359	1.4401110778928137	62.401725190454215
8	3.0	wm	314	diff_vonmises	-0.1273671621247032	-7.297600838304004	3.1209910384549997	0.7526007409261793	0.4057496870322026	1.2378949138766044	0.2202925528402979	-0.1670509549128388	0.3873435077531368	69.07414408924302
9	4.0	ltm	314	diff_vonmises	-0.0939933288607252	-5.3854210461047485	1.637156010108373	2.832677000518803	0.893630288300262	3.969968271386598	0.0175556846085822	-0.2754443598386881	0.2930000444472703	71.7838565025151
10	4.0	perception	314	diff_vonmises	-0.0920524813274618	-5.274218673770383	2.378576015229884	2.8062222472624234	0.3450544636201597	4.106078646713647	0.7100579767561425	-0.4999462720833586	1.210004248839501	78.98427582498545
11	4.0	wm	314	diff_vonmises	-0.1242368371241229	-7.1182464272664685	1.138948947142398	224.5331889392148	1.127164059049332	225.88387061094093	-0.0004548563221362	-0.3161657033123077	0.3157108469901715	74.6214441883753
12	5.0	ltm	314	diff_vonmises	0.0338749971276502	1.9408943664321447	1.9662305391406405	0.7086362859132735	1.2920174334691938e-16	1.2848563355072842	0.1573372242422329	-0.197401053261615	0.354738277503848	97.80191952095949
13	5.0	perception	314	diff_vonmises	-0.0264672696813822	-1.5164628479777642	2.561846594099211	1.957234590432004	0.033707070085328	2.27115928718408	0.7963088299724346	-0.3424186861034303	1.138727516075865	84.95053921589556
14	5.0	wm	314	diff_vonmises	0.0331629148851952	1.9000950592732653	1.4394894260900843	0.994443194868443	0.0346085664923449	1.6457538747488685	0.1490803674064897	-0.2293348087611523	0.3784151761676421	110.18877931403476
15	6.0	ltm	314	diff_vonmises	-0.1657233452764536	-9.495248251130098	0.3999302365817952	65.60155573739156	0.3850216346926481	66.09283956881723	0.0683511852056337	-0.1719630942284729	0.2403142794341066	132.85651586729762
16	6.0	perception	314	diff_vonmises	-0.0705293687567116	-4.041035161481429	0.4029009051603071	96.73612993346218	0.3798037081947202	97.22573197543072	0.299197608052971	-0.327369006073587	0.626566614126558	135.89119738215703
17	6.0	wm	314	diff_vonmises	-0.0710983331261777	-4.073634418545159	0.4239413272260741	87.40120016980171	0.4085611684250593	87.94181892350812	0.1232384450893171	-0.217591658678991	0.3408301037683081	131.3931158069302
18	7.0	ltm	314	diff_vonmises	0.1766771662294952	10.122855961281353	0.9766349750038597	105.3222404385278	0.9588324819472448	105.99883229335096	0.1297010609363482	-0.1967008699271737	0.326401930863522	87.01278468632992
19	7.0	perception	314	diff_vonmises	0.0219739395518703	1.2590139955977608	0.8828278716438868	18.818914131554628	0.7197628610165061	19.400343081628424	0.4180734250081768	-0.3051688861404844	0.7232423111486612	100.75085323332804
20	7.0	wm	314	diff_vonmises	0.0431691564958906	2.4734104723542987	0.7193809343168667	50.35456805443879	0.6916252933608951	51.064125302368645	0.0656566211459281	-0.1867909610666736	0.2524475822126018	100.0075115652875
0	1.0	ltm	481	diff_vonmises	-0.1388993705164202	-7.958347707614743	1.9383794912988077	0.36459606799714	1.9513022879038242e-17	1.8791952102977565	-0.1145224916430999	-0.2952594991438997	0.1807370075007997	98.43747317177672
1	1.0	perception	481	diff_vonmises	-0.0266498937543758	-1.5269264365977893	13.273503178985088	0.7524624439141823	0.026236139392478	2.44972320986994	0.6823330719134233	-0.3937153374689632	1.0760484093823866	37.07469292643009
2	1.0	wm	481	diff_vonmises	0.0568328714488954	3.2562836716312638	4.368853907838196	0.344309560916779	1.04566746033702e-22	1.943839618366312	-0.0316711132544063	-0.3093271308929423	0.277656017638536	65.43165822875969
3	2.0	ltm	481	diff_vonmises	0.0062121311179109	0.3559288948381818	5.230300881331605	0.3340420661895457	0.0092017348487218	1.252919591209328	0.0954065566175122	-0.1985242964927005	0.2939308531102127	59.3414232536646
4	2.0	perception	481	diff_vonmises	-0.0166397325485062	-0.9533864472558762	7.647965176344157	1.2815904801600957	0.3108761917104339	2.103948566226418	0.943167047531576	-0.3561023108276283	1.2992693583592043	47.444830957507776
5	2.0	wm	481	diff_vonmises	0.0488340129294633	2.7979828375455424	4.778941973171976	0.4186044955098787	0.1060996593432924	1.4061884842810404	0.1061604458965052	-0.2207555287990153	0.3269159746955205	59.85108118510885
6	3.0	ltm	481	diff_vonmises	0.0674215122959052	3.862968102944756	2.486765772895541	0.7407399579190975	0.5908208083162511	1.1189448102145263	0.1400017293808146	-0.1274280146002627	0.2674297439810774	72.25612911632354
7	3.0	perception	481	diff_vonmises	-0.007727570966341	-0.4427572022591706	4.477756296202236	1.799694124390122	0.3508969543071218	2.053261440715044	1.020629503795638	-0.3021310160962219	1.32276051989186	61.2372787524709
8	3.0	wm	481	diff_vonmises	-0.0874546005658695	-5.010779511426748	2.9741826692584006	0.7522170432921399	0.5123780020490418	1.23097330712959	0.183668287314118	-0.1595920571735457	0.3432603444876637	68.54370206694568
9	4.0	ltm	481	diff_vonmises	-0.0998373414865911	-5.720258304988032	1.265443808960434	92.53625249944304	1.2403476397235045	93.56511471339512	0.0277349100867994	-0.2566155035138333	0.2843504136006327	71.91886199952003
10	4.0	perception	481	diff_vonmises	-0.0939219856627606	-5.381333381964411	2.4393959642544387	2.645161598716063	0.3526417036997505	3.741686391959592	0.7149613634184083	-0.4559626869484229	1.1709240503668312	78.31055113300687
11	4.0	wm	481	diff_vonmises	-0.1028719863173051	-5.894130646109139	1.181986926534815	223.23051482339392	1.1700486884533965	224.4629291573684	0.0335764103849953	-0.301114320678252	0.3346907310632474	74.34566707585648
12	5.0	ltm	481	diff_vonmises	0.040989712880028	2.348537551478638	1.9657500349520889	0.7162761096807886	0.010740068275003	1.4133621626610966	0.1382964198341448	-0.2153615135094907	0.3536579333436356	97.1570085857386
13	5.0	perception	481	diff_vonmises	-0.0282773430367727	-1.620172411850726	2.441582045951268	2.045337634448168	0.120770797907991	2.5473914027863533	0.7329106394480234	-0.35248474485044	1.0853953842984634	84.32877641053261
14	5.0	wm	481	diff_vonmises	0.0800262369544239	4.585165627802355	0.6371690389454383	29.34548631579219	0.5772961685479047	30.089961348315565	0.1382329361929688	-0.2411335986727811	0.37936653486575	110.78264654950004
15	6.0	ltm	481	diff_vonmises	-0.1542685760967924	-8.838938321838983	0.4664038126448822	113.016350288067	0.454718998672055	113.68218104094014	0.0865243900286216	-0.217986129263199	0.3045105192918207	124.9505811080468
16	6.0	perception	481	diff_vonmises	-0.0738590840155326	-4.231813792792181	0.4989260351847769	181.0967443892906	0.4838521344099213	181.7639392848048	0.3469037929407577	-0.3719807472015652	0.718884540142323	125.44643809153972
17	6.0	wm	481	diff_vonmises	-0.0915722285764768	-5.2467022180393945	0.4899932886678225	64.60203927922905	0.4629999902879164	65.29977324446797	0.1573289770902395	-0.267010854489297	0.4243398315795366	124.80805443940356
18	7.0	ltm	481	diff_vonmises	0.1744109417660989	9.993010864099448	0.9148376397991936	131.89034518722832	0.8985076888295729	132.7839760022308	0.1219253614502591	-0.2425971364084329	0.364522497858692	88.84699847345527
19	7.0	perception	481	diff_vonmises	-0.0143296404158301	-0.8210279177671599	1.991369566577001	1.8162386602601277	0.1077152272122727	2.607869504844469	0.4735938637852493	-0.3543869997400605	0.8279808635253099	92.522914601339
20	7.0	wm	481	diff_vonmises	0.1498670691330057	8.586750549316562	1.5486287055928118	1.0823909956072149	0.2552353149301761	1.9608602017353365	0.0816435087191669	-0.2235017053746399	0.3051452140938069	92.95578157073794
0	1.0	ltm	49	diff_vonmises	0.0044865622539152	0.2570610816720439	6.322282411178395	0.2501783194723284	5.47102427021401e-22	3.3984995782712386	-0.2953342133636604	-0.5408872149556917	0.2455530015920313	54.16721102332187
1	1.0	perception	49	diff_vonmises	-0.0083552495437072	-0.4787205356330321	13.998244780827612	0.7076620426734649	0.0496869165894199	3.9152037363765455	0.3915392885262089	-0.6380951546964768	1.0296344432226858	35.89832509826508
2	1.0	wm	49	diff_vonmises	-0.0202803626829878	-1.1619791887298152	4.916763271442735	0.3387069964782072	0.0115405219842932	3.7777156069543194	-0.3171197999594354	-0.5992291821802841	0.2821093822208486	60.488475161652985
3	2.0	ltm	49	diff_vonmises	0.003220653428773	0.1845298487430314	3.77985699920652	0.5025728851468322	0.0257287776991268	2.2258109717160965	0.0111769026604375	-0.3487402042969441	0.3599171069573817	68.9163329518087
4	2.0	perception	49	diff_vonmises	-0.0265877696607634	-1.523366988227723	7.537144408726121	1.2808528209330916	0.2549093873455643	3.1427190115336296	0.7425920660402507	-0.530395419866569	1.2729874859068198	47.51638659278839
5	2.0	wm	49	diff_vonmises	0.0057972435532567	0.3321575884110375	3.5253993187789865	0.7642764655515174	0.1475217041791389	2.839699152588973	0.0271591329389908	-0.4335852509453251	0.460744383884316	67.0125664303973
6	3.0	ltm	49	diff_vonmises	0.0365872659471065	2.0962959226919238	3.0883966938913225	0.7849195942189399	0.2252170714987854	2.0223554929180727	0.1245414050722147	-0.2940106293367897	0.4185520344090044	70.35901837275995
7	3.0	perception	49	diff_vonmises	-0.0129266724719474	-0.7406437757905311	4.325414383718662	2.1876460306942853	0.2794742101364973	3.398160629880309	1.053473943215416	-0.5096804079427492	1.5631543511581651	62.01711586914425
8	3.0	wm	49	diff_vonmises	-0.0537455169789293	-3.0793912906413587	3.671332831598504	0.723030246778982	0.1188196394968535	2.3087726179663925	0.1179876127950678	-0.352773401573696	0.4707610143687639	67.26971886639288
9	4.0	ltm	49	diff_vonmises	-0.0553506166281508	-3.1713567262396816	1.5955185299159187	1.3758946820735964	0.1994559403430584	3.6705511907369175	-0.0873705768469277	-0.4677825138813895	0.3804119370344618	89.76483599309273
10	4.0	perception	49	diff_vonmises	-0.0458610002271184	-2.6276417572623982	2.054811649451837	3.333013979618976	0.3122866044255365	5.462631794618994	0.5880447664446602	-0.6518730956556669	1.239917862100327	83.2986570680703
11	4.0	wm	49	diff_vonmises	-0.0795476716693059	-4.557745856743616	0.7403280927310223	288.87296486264665	0.7290067809996404	291.4499970300827	-0.12348614675129	-0.5265979055459908	0.4031117587947008	89.87137466010668
12	5.0	ltm	49	diff_vonmises	-0.0076728416348866	-0.4396214425512646	1.866160298323224	1.1636884172466682	0.0671907705479696	2.471907204178407	0.1553367361720225	-0.3536564553056958	0.5089931914777184	95.60377688768368
13	5.0	perception	49	diff_vonmises	-0.0210521406558393	-1.2061988092953688	1.9594374598666884	2.866367672861994	0.1997820176766665	4.134152376589025	0.6649686871999237	-0.5145279131639426	1.1794966003638665	89.69212823470664
14	5.0	wm	49	diff_vonmises	-0.0216629846164741	-1.241197590180798	1.3041758958638028	1.7921495752983716	0.1068410837829355	3.3232782715807354	0.1267897852643562	-0.4214001031077999	0.5481898883721561	108.76482683105264
15	6.0	ltm	49	diff_vonmises	-0.1140863849104277	-6.53666835527251	1.044192099708202	1.387000323843758	2.595193806845909e-17	2.494860282163621	0.0884385229347916	-0.3369170521987414	0.4253555751335331	126.67676495658812
16	6.0	perception	49	diff_vonmises	-0.019025426558536	-1.0900766452402242	1.034373077508742	2.3827624545722133	6.811340171909715e-19	3.5500128804251854	0.2646816100880157	-0.4601761899605329	0.7248578000485486	127.16413264344828
17	6.0	wm	49	diff_vonmises	-0.03929821888165	-2.2516220842998718	0.4173711102997816	222.52072819529985	0.4076807982298705	223.77960674934383	0.1075780812209146	-0.3897170019405074	0.497295083161422	129.63337592983524
18	7.0	ltm	49	diff_vonmises	0.0208135345896517	1.192527688736597	0.8306487918062356	213.6514390756069	0.8174835764477325	215.26011567432988	0.0431787475590539	-0.3729380526220822	0.4161168001811361	89.57601486720301
19	7.0	perception	49	diff_vonmises	0.0560470686884676	3.2112604899290225	0.6334722409758927	228.25037361123523	0.6172104294170074	229.72467656163968	0.307810684207439	-0.4891844953204511	0.7969951795278902	109.5392311634289
20	7.0	wm	49	diff_vonmises	0.0538103806748519	3.0831077066613437	0.7829657455128793	187.536064908612	0.7693701838668071	189.25789539727032	-0.0258586266457285	-0.3727360652855047	0.3468774386397761	89.98086314185895
0	1.0	ltm	389	diff_vonmises	-0.0280627820513607	-1.6078789729384515	7.185514966222475	0.3311638502898199	0.035701382732142	3.4972720990735566	-0.2291766134405551	-0.5602049917626425	0.3310283783220873	49.40332589825377
1	1.0	perception	389	diff_vonmises	-0.0228537547025107	-1.3094236904811218	14.144932207040622	0.7598469427302831	0.0683498787767101	3.968631703112462	0.453918730087651	-0.6534384688815434	1.1073571989691944	35.62240018013168
2	1.0	wm	389	diff_vonmises	-0.0401717720406199	-2.301672993489164	5.702646433807588	0.4337803590113288	0.0783851031955514	3.975223807608929	-0.2799365848190376	-0.6394227107405644	0.3594861259215268	53.767110480679065
3	2.0	ltm	389	diff_vonmises	-0.1069764282513741	-6.1292978461878045	3.407319757031873	0.6665318466437544	0.0870310100204658	2.385166430104265	0.0557072796866146	-0.3646605252346023	0.4203678049212169	70.21131873197137
4	2.0	perception	389	diff_vonmises	-0.0532115965234437	-3.0487999019463308	8.124021257675409	1.1498939231875982	0.2043802668581134	3.069332802954465	0.6930859022701484	-0.5153314866398593	1.2084173889100076	46.102566741508326
5	2.0	wm	389	diff_vonmises	-0.0377068889188131	-2.1604455936166063	3.3581837338047777	0.8612423714620778	0.1821725370947939	2.883591125539076	0.0550684417414811	-0.4345732653978887	0.4896417071393699	67.80009404093295
6	3.0	ltm	389	diff_vonmises	-0.0261607236534855	-1.4988990543527834	1.941817752681508	1.7656593388823143	0.5224589582678405	2.8864351959337538	0.1703654153214835	-0.3021111411391929	0.4724765564606764	78.37041064996225
7	3.0	perception	389	diff_vonmises	-0.0316275387599375	-1.8121244873308469	4.0213119713241605	2.29649975849478	0.3725277190410395	3.393106066072749	1.0134759179649953	-0.4941868279249988	1.507662745889994	63.156584531482224
8	3.0	wm	389	diff_vonmises	-0.0773599913195306	-4.432401005777792	2.6024852291596194	1.2026445747994114	0.3593746433355905	2.58233618432281	0.1554589749896388	-0.3442872261347064	0.4997462011243452	72.71887537053868
9	4.0	ltm	389	diff_vonmises	-0.125802471070566	-7.207950644660071	1.337395345258905	2.9709179709356413	0.4266421659545332	4.8817005046453215	0.062971391788289	-0.4424622309101936	0.5054336226984827	89.30184563438777
10	4.0	perception	389	diff_vonmises	-0.076927791610145	-4.407637786523214	2.193229329620116	3.111192914507134	0.3284758779009488	4.951172133948653	0.6310317612567782	-0.5973738965773343	1.2284056578341125	81.13926615767454
11	4.0	wm	389	diff_vonmises	-0.1844349251239931	-10.56734280441616	0.8495825770463831	270.5907636116094	0.837283243792916	272.6721646332685	-0.0116896119749014	-0.458851818596127	0.4471622066212255	86.73450253485136
12	5.0	ltm	389	diff_vonmises	0.0034987885499243	0.2004658173193635	1.7358829284423642	1.4469959823770404	0.0721259618577277	2.624098907097651	0.2366757333339548	-0.3667947500426929	0.6034704833766478	99.17177496504368
13	5.0	perception	389	diff_vonmises	-0.0343371603481301	-1.9673743684118168	2.4216083048089705	2.276217847148528	0.0775404874117075	3.3844045260077347	0.7353777516210956	-0.4886573365597347	1.2240350881808304	85.41718385748112
14	5.0	wm	389	diff_vonmises	-0.0898207862400051	-5.146351964099035	0.6868198337315697	215.8148528076338	0.6736244032156979	217.07056167188057	0.1912516964142625	-0.3687655603643875	0.5600172567786501	103.6614672097872
15	6.0	ltm	389	diff_vonmises	-0.0870880781604874	-4.98977932450137	0.9875688548400624	1.4008321823154877	4.8119435857314104e-17	2.21991455945421	0.1220726539748665	-0.2873546836973091	0.4094273376721756	129.04764579411386
16	6.0	perception	389	diff_vonmises	-0.037977021660752	-2.175923059638002	0.7269408243841097	2.7583174221544846	2.6943601605191176e-15	3.630761034938265	0.2212168866165326	-0.3911402589931164	0.612357145609649	140.7972977582803
17	6.0	wm	389	diff_vonmises	-0.1764684875262817	-10.110899552312958	0.4541587131152956	170.89077204240957	0.4433905782977874	171.72411244266192	0.1440958698873302	-0.2979434728152625	0.4420393427025928	126.98560779032418
18	7.0	ltm	389	diff_vonmises	0.0660276839676011	3.783107622367153	0.7675061095874904	180.37007571517265	0.7542930418588648	181.3242657199279	0.1736330443692111	-0.2839019161548677	0.4575349605240788	98.43049988126418
19	7.0	perception	389	diff_vonmises	-0.0215671376826633	-1.235705965394169	0.759031704196021	232.2464206432166	0.7452736052655847	233.00926516867327	0.3863331161091849	-0.338708819817441	0.725041935926626	102.83529034448688
20	7.0	wm	389	diff_vonmises	0.0886254890877503	5.077866482010825	0.9277729257357004	126.49527589668698	0.9091375895466915	127.43343023490591	0.1441369209356224	-0.2604408592850937	0.4045777802207162	88.64670054646174
0	1.0	ltm	26	diff_vonmises	0.0102092412115412	0.5849464334523399	5.350489152335402	0.2851857731523666	4.7492532370343846e-21	3.2281777436750576	-0.2574531054716172	-0.5137746702307215	0.2563215647591043	58.98396751089919
1	1.0	perception	26	diff_vonmises	-0.0303119248557043	-1.7367453631495582	16.294004007305176	0.5891053671053618	0.0145741932852736	3.591534328575354	0.3610534658378621	-0.5755730299738205	0.9366264958116828	33.456172985027365
2	1.0	wm	26	diff_vonmises	-0.0294981246126732	-1.6901180438571513	3.983985644052823	0.4151507557446453	0.0367530356361876	3.663283811033653	-0.2861772470402439	-0.57693183006504	0.2907545830247961	65.33652631718135
3	2.0	ltm	26	diff_vonmises	-0.0091624108397922	-0.5249674712850102	3.582339839656339	0.5513151268634263	0.0325287165486573	2.33543653495785	0.0150061405777671	-0.3642291915048314	0.3792353320825986	70.46204794729596
4	2.0	perception	26	diff_vonmises	-0.0309275797087068	-1.7720197878633457	7.393125397182569	1.1854167613433717	0.2073706596958489	3.132896425993656	0.6555487809244646	-0.5210045068886918	1.1765532878131564	48.16938905032387
5	2.0	wm	26	diff_vonmises	0.0016438234851223	0.0941841479619948	3.5291573825262947	0.7787161243387032	0.158056360006276	2.928916043700883	0.0162525491957804	-0.4474238708925172	0.4636764200882976	66.59500160643114
6	3.0	ltm	26	diff_vonmises	0.0013688945779541	0.078431881915113	2.428965496069753	1.3994810906469628	0.4020211983299513	3.021451357175045	0.1202677674438634	-0.3907630052628564	0.5110307727067199	73.1105909869166
7	3.0	perception	26	diff_vonmises	-0.0304589853577495	-1.7451713092498202	4.066231343624437	2.391077635148388	0.2631132716653701	4.0074937331459095	1.0392628196508853	-0.5963125085900184	1.6355753282409036	63.71417558421871
8	3.0	wm	26	diff_vonmises	-0.0437792258438936	-2.5083648712051634	3.160234784787542	0.8913637198424542	0.1695830982751341	2.9305516946535373	0.0525801234370941	-0.4375806249608364	0.4901607483979305	69.99207924261816
9	4.0	ltm	26	diff_vonmises	-0.0561406040414203	-3.2166196708884778	1.601562808033837	1.542979239125196	0.2183961447310477	3.938343551753323	-0.0751223220890975	-0.4938030957127566	0.4186807736236591	89.0090004068407
10	4.0	perception	26	diff_vonmises	-0.0621983834373125	-3.563704863494412	1.82114730824474	3.972788894257961	0.3555916513210219	6.17650217412772	0.5767383466144762	-0.6755166480816925	1.2522549946961687	86.08908616673278
11	4.0	wm	26	diff_vonmises	-0.11143526153298	-6.384770174776288	0.7481355499329608	268.8717852690324	0.7351767297306944	271.5807208858372	-0.1240119340118042	-0.5557925873054721	0.4317806532936679	89.62957331039647
12	5.0	ltm	26	diff_vonmises	0.0066671156193531	0.3819975865146825	1.4720931792722936	1.9777931421890391	0.244886027078183	3.427363896268773	0.1604706763811475	-0.3836898235503512	0.5441604999314987	95.73670814096764
13	5.0	perception	26	diff_vonmises	-0.0234937440949752	-1.3460923816024817	1.6675788044226818	3.5165155225860727	0.2953644828043849	4.97573619036817	0.5832026482112489	-0.5363892589907694	1.1195919072020182	92.17406082049617
14	5.0	wm	26	diff_vonmises	-0.0578639291820674	-3.3153589281763485	0.5974295448939918	134.9282742870329	0.5762284045490396	136.65007266234957	0.0912034496944045	-0.4423722338781051	0.5335756835725096	108.6063051875774
15	6.0	ltm	26	diff_vonmises	-0.1573062166788286	-9.012982306867318	0.973175120777262	1.5339761930212346	4.4390806201443773e-16	2.907017895815153	0.0537164954018561	-0.3889297559491653	0.4426462513510215	129.51593227940106
16	6.0	perception	26	diff_vonmises	-0.0058024544115404	-0.3324561485983314	1.059726176073171	2.762919493219852	0.1159105769138291	4.213231867716673	0.2247906407311254	-0.4780410031482704	0.7028316438793959	118.13617963552248
17	6.0	wm	26	diff_vonmises	-0.0460396255196522	-2.637876232638876	0.4264001711422006	255.7204238469477	0.4177410897845485	257.26125222371087	0.0514540255961222	-0.4214420097634885	0.4728960353596108	126.83419426256458
18	7.0	ltm	26	diff_vonmises	-0.0848561951306925	-4.861901846527252	0.8870124015490742	234.40221997626188	0.8723133380151001	236.35476650521136	0.0369762775887636	-0.4479392344059256	0.4849155119946893	86.16943561870329
19	7.0	perception	26	diff_vonmises	0.0514870048395872	2.949988077077993	0.5638590077071765	195.8123056438025	0.5437571493502105	197.7141742847376	0.2563491454950863	-0.5864924994308254	0.8428416449259117	114.94012565318415
20	7.0	wm	26	diff_vonmises	0.043129136611078	2.471117501857933	0.8260865408159094	171.17127308510547	0.8089690212136852	173.24613230582918	-0.0741435796474334	-0.4354049344971855	0.3612613548497521	86.03513508725538
0	1.0	ltm	124	diff_vonmises	-0.0758495023474904	-4.345856362678835	2.9527462508476123	0.2991353964922006	7.062729463191259e-18	1.8038278066795357	-0.0929450333534576	-0.2865591239062213	0.1936140905527636	79.9813820955807
1	1.0	perception	124	diff_vonmises	-0.0276674018674703	-1.5852253570984225	13.547229470703876	0.6606081470052038	0.0214651211562332	2.372464391067843	0.5746733573108934	-0.3806530286066122	0.9553263859175056	36.70860552099112
2	1.0	wm	124	diff_vonmises	0.0901957078833412	5.167833391910299	3.619802704602896	0.3995707122066566	4.680142882719525e-16	1.9856746415207704	-0.0252290219660719	-0.3158212508483864	0.2905922288823145	72.0615570178779
3	2.0	ltm	124	diff_vonmises	0.0418346197302371	2.396947148077313	4.627664923499831	0.3981156096858275	0.1187868548611908	1.2208303548252932	0.1131456889461191	-0.1907882199037077	0.3039339088498268	60.69262054053809
4	2.0	perception	124	diff_vonmises	-0.0053414586255239	-0.3060430356862717	7.121410538550533	1.2612271515889697	0.3878158499372119	1.9842850637470872	0.8688818580410094	-0.3369698380182864	1.2058516960592958	48.70414288425883
5	2.0	wm	124	diff_vonmises	0.0738951631594632	4.233880975467852	4.653099756139038	0.4893590503800356	0.2282222643073796	1.3844769802490235	0.1350511743769339	-0.2178776234199954	0.3529287977969293	58.87922059474931
6	3.0	ltm	124	diff_vonmises	0.0507508628580886	2.907810248415728	1.9993835650692355	1.7512816732062588	0.9999658252796668	2.233339498859711	0.1401498953599648	-0.1611076143833979	0.3012575097433627	70.90112685613423
7	3.0	perception	124	diff_vonmises	-0.0100758276202328	-0.5773023977406838	4.680272731317791	1.6968843551630028	0.3154682155192819	2.121482306451736	0.9685990026952334	-0.3189965489450593	1.2875955516402926	60.071480765731536
8	3.0	wm	124	diff_vonmises	-0.0341787285115384	-1.958296892834606	2.936336652660948	0.8154601880122668	0.555622307989609	1.4501724977429442	0.1546393943061786	-0.1890819417761945	0.3437213360823732	67.29886063679413
9	4.0	ltm	124	diff_vonmises	-0.1278115650308295	-7.323063249228389	1.2656164671169636	124.84973437768026	1.246691371103691	125.84841087357428	0.045427070306367	-0.2543591737292381	0.2997862440356051	72.4582081364644
10	4.0	perception	124	diff_vonmises	-0.0908854008532612	-5.207349888246559	2.4739779339896506	2.44964272231166	0.2942286603313549	3.4389082580233894	0.7159392627399005	-0.4328627239104413	1.1488019866503418	79.17978197709286
11	4.0	wm	124	diff_vonmises	-0.0904396176251527	-5.181808390698224	1.209109931613036	240.0896247522758	1.1967944737712777	241.3188838063422	0.0806126532749402	-0.3157785757973279	0.3963912290722682	74.76099960201242
12	5.0	ltm	124	diff_vonmises	0.036227874178754	2.0757042911735826	0.7829865208561243	21.56409754778288	0.69519707426792	22.339081081284213	0.141435601946994	-0.2326046003289885	0.3740402022759825	99.96604071634366
13	5.0	perception	124	diff_vonmises	-0.026256132222962	-1.504365562713169	1.9970583664180248	2.491908929879373	0.2812505286403696	3.1752531037848364	0.6278630110576363	-0.3663950632384755	0.9942580742961118	87.4848444528696
14	5.0	wm	124	diff_vonmises	0.1139397143319452	6.528264750146723	0.6384643862770096	94.57729542885151	0.617793401988132	95.39025621028546	0.1523075501229698	-0.2602128521892908	0.4125204023122606	108.86669623704958
15	6.0	ltm	124	diff_vonmises	-0.1654418827510899	-9.479121636335668	0.503627159422969	162.45775923773436	0.4928833082055509	163.25723379262163	0.1299219275793248	-0.2703633792342206	0.4002853068135454	121.44592730767968
16	6.0	perception	124	diff_vonmises	-0.0578911929259301	-3.316921025633403	0.6792761117054417	280.4446274704807	0.6670296087019397	281.30946916514023	0.4130418972613938	-0.3933578838375844	0.8063997810989783	108.56123957633392
17	6.0	wm	124	diff_vonmises	-0.0753222337322051	-4.315646096353279	0.796438707546056	3.8956317419312456	0.2775393039576296	4.726163525596214	0.2062714837280339	-0.3190875133868043	0.5253589971148382	120.3840802547079
18	7.0	ltm	124	diff_vonmises	0.0793321896667596	4.545399647436686	0.919416679844522	179.68214440601838	0.9042279220246756	180.95565298452004	0.1074320906616037	-0.3216558101280959	0.4290879007896997	87.13714748625907
19	7.0	perception	124	diff_vonmises	-0.0417700186841903	-2.3932457807867005	2.453359382744676	1.6556430918239324	1.3826623781027957e-19	2.9044524175962305	0.5027060004756714	-0.4551195671209878	0.9578255675966592	87.81821941894486
20	7.0	wm	124	diff_vonmises	0.2625803021944848	15.044743099013727	2.680449176797998	0.6814983865575733	0.0795585194106353	1.890255325909197	0.093098917268606	-0.281222332986091	0.3743212502546971	79.46450886514907
0	1.0	ltm	222	diff_vonmises	0.029577554998701	1.694669069741641	6.539266220133436	0.2807024853357217	0.01099709223459	3.6200019047864114	-0.3020770871749583	-0.575999669918007	0.2739225827430486	52.525169444613255
1	1.0	perception	222	diff_vonmises	0.0222979506824939	1.2775784658977545	11.133004432557124	0.808781752713959	0.072608686640724	4.203816406578603	0.3453316219805162	-0.6888359146153169	1.0341675365958332	40.00766491942153
2	1.0	wm	222	diff_vonmises	0.0219492728340486	1.2576006967721398	4.539220761880213	0.4187450068003861	0.0241929539780504	3.9548190533360423	-0.2999750720637364	-0.6256691249915466	0.3256940529278102	62.16592081986616
3	2.0	ltm	222	diff_vonmises	0.0305275753082903	1.7491012239328183	2.95071650495442	0.7923202872889767	0.2393914379231953	2.337886810293567	0.0480132937238709	-0.3400874869236719	0.3881007806475429	70.31585899604372
4	2.0	perception	222	diff_vonmises	-0.0113050663978001	-0.6477325917091119	6.809440419282236	1.4051686195741	0.3080408407385469	2.990884674372312	0.8010652897026468	-0.5017784165212924	1.302843706223939	49.63816908796821
5	2.0	wm	222	diff_vonmises	0.0412875125548659	2.3656002159872167	3.729934975953843	0.7690469497692723	0.1695840769280863	2.535233943709528	0.0943598724364988	-0.3876802987215068	0.4820401711580057	65.33830808561254
6	3.0	ltm	222	diff_vonmises	0.0653880371504487	3.7464585593653457	3.933962937496152	0.494577074580286	0.0282781535313356	1.5094207902639984	0.1297283927624125	-0.2359640271639632	0.3656924199263757	67.88301682702829
7	3.0	perception	222	diff_vonmises	0.0065235882226801	0.3737740724408238	4.740303014875564	1.802159923095966	0.199958828472744	2.78107455116347	0.9834228137366974	-0.4259177172810532	1.4093405310177507	60.309394160233154
8	3.0	wm	222	diff_vonmises	-0.0206416367823695	-1.1826786698717728	4.007870064978147	0.6193009227510295	0.052258877930161	1.8575721618966496	0.1653656070473138	-0.2884830067897838	0.4538486138370976	66.55289077617846
9	4.0	ltm	222	diff_vonmises	-0.0608945723232968	-3.489001989379064	2.006897574900417	0.7789240204354347	0.0260706220118754	3.048640352575862	-0.0952939702692841	-0.4653654651224211	0.370071494853137	93.70375945417968
10	4.0	perception	222	diff_vonmises	-0.0276585365818344	-1.584717413647311	2.054199704011395	3.090603978449396	0.2473839036803545	5.19997260966755	0.5764109894920606	-0.6469931651743532	1.2234041546664138	85.16790362785505
11	4.0	wm	222	diff_vonmises	-0.016319924080664	-0.9350627717959714	0.745724929503914	286.0702347275383	0.7338900956021129	288.573970197419	-0.0824687837371129	-0.5252803583550616	0.4428115746179486	90.89726405058556
12	5.0	ltm	222	diff_vonmises	-0.0539745667877967	-3.0925148779877376	1.7190882719110814	1.1352226074278484	2.782198701989547e-21	2.200717245365997	0.183959517953134	-0.3330942664765849	0.5170537844297189	104.06354266776148
13	5.0	perception	222	diff_vonmises	-0.0317353892512804	-1.818303865303205	1.7484645812576638	3.485244799948388	0.3033700182468243	4.415053298301702	0.7268964374698794	-0.4714925038551578	1.1983889413250373	91.55953407823318
14	5.0	wm	222	diff_vonmises	0.0394519994957288	2.2604330644575152	1.458014308039657	1.6441921936609925	0.0673466120283584	2.7721858651661124	0.2286381198549635	-0.3740972187404776	0.6027353385954413	107.46995344300186
15	6.0	ltm	222	diff_vonmises	-0.0457693920544261	-2.62239299559822	0.717218924285557	3.332259638080368	0.2203486192076639	4.06905266851382	0.1616081433121033	-0.2847677831223286	0.446375926434432	127.15964573242894
16	6.0	perception	222	diff_vonmises	-0.0423148541527348	-2.4244625536633326	1.0623450636148897	2.5525254905734456	3.2609010710488893e-22	3.2809532699087227	0.380035402689855	-0.4143859957459769	0.7944213984358319	126.02194002120947
17	6.0	wm	222	diff_vonmises	-0.0019874183331875	-0.1138706826185733	0.4766117147762602	204.65489595274667	0.4653484597031408	205.43258848044857	0.2419165866693333	-0.3402542424247201	0.5821708290940535	126.29156463703688
18	7.0	ltm	222	diff_vonmises	0.038168091221575	2.186870539066576	0.743032703337271	165.9666825748549	0.7269745920538153	167.55834467311612	0.0474874103602829	-0.3732591145455153	0.4207465249057982	95.30711787726634
19	7.0	perception	222	diff_vonmises	0.0567635406152618	3.252311307473936	0.7582030723491682	307.0094652027509	0.7442548798918811	308.3919662602969	0.4124133779937722	-0.4840581973274389	0.8964715753212111	100.97693661878056
20	7.0	wm	222	diff_vonmises	0.0893082340135228	5.116984884741566	0.7151532285448878	202.48045436798225	0.7026206985554789	204.09461846125768	0.0237197204697494	-0.3698373486325899	0.3935570691023393	96.330388792643
0	1.0	ltm	343	diff_vonmises	-0.0039400917656626	-0.2257506290667201	7.475364195603656	0.1071885408125185	1.2274830112766542e-22	3.065067884262039	-0.3730018213299644	-0.487820667790948	0.1148188464609835	49.74170009584614
1	1.0	perception	343	diff_vonmises	0.0213678551931659	1.2242879198151086	12.908353642976431	0.7654214575177928	0.1132320630346386	3.761844801109679	0.4176218530891552	-0.6325728757259861	1.0501947288151414	37.02463854004239
2	1.0	wm	343	diff_vonmises	0.0985385882832461	5.6458452278072695	8.077634331346598	0.1783975444123152	1.0535576415744111e-16	3.398918597151221	-0.3420389118684848	-0.5409546767319481	0.1989157648634633	47.82764401978855
3	2.0	ltm	343	diff_vonmises	0.0457673624883933	2.6222767100302997	3.368939297257977	0.3526855784351121	8.153943083357907e-34	2.116772766271862	-0.0902844667895514	-0.3366025339188027	0.2463180671292512	74.76887234485503
4	2.0	perception	343	diff_vonmises	-0.0133939091227028	-0.7674144639126471	8.775136794840318	1.2914432220204115	0.3121502197882677	3.316133189734832	0.7992244883164884	-0.5836775328085924	1.3829020211250809	43.89419281314133
5	2.0	wm	343	diff_vonmises	0.0776445490712224	4.448704963977463	4.113328327759782	0.4865300352765341	0.0851632509418179	2.73310907876265	-0.0930339525109734	-0.4285465687938248	0.3355126162828514	63.2868865452931
6	3.0	ltm	343	diff_vonmises	0.1012691682324538	5.8022959345199165	2.474333572818451	0.8439357243789102	0.644790384497564	1.5927340331473077	0.0578791252136572	-0.1922918756864481	0.2501710009001054	68.04588195016316
7	3.0	perception	343	diff_vonmises	0.0026456461865636	0.1515843605749807	4.656624155722787	1.9890175425716656	0.3728741234073806	2.865144229453086	1.0206855451969157	-0.4346972478960788	1.455382793092994	59.31645472588178
8	3.0	wm	343	diff_vonmises	-0.0415592173464072	-2.3811677538160185	4.106521471817442	0.4524407135946695	0.1873858948474523	1.6469313592899009	0.0394695357940421	-0.2565772036142968	0.296046739408339	61.924594161241686
9	4.0	ltm	343	diff_vonmises	0.1166753718758344	6.6850063816046985	0.8826995003636753	222.38702825565647	0.8714567706464358	224.40776379681944	-0.1644902291260308	-0.4016817140101203	0.2371914848840894	78.5566647396081
10	4.0	perception	343	diff_vonmises	-0.0541614262091376	-3.10322113419283	2.2619910216882584	3.1096836126445377	0.4530871872309656	4.998004556318554	0.5377904605289343	-0.579176290258617	1.1169667507875514	76.91501401520881
11	4.0	wm	343	diff_vonmises	-0.0238569003831078	-1.3668997042161144	0.7839939602377691	178.5896890696593	0.7702432130482665	180.9196493257764	-0.2252879324186025	-0.4436758638898403	0.2183879314712378	81.17679831726326
12	5.0	ltm	343	diff_vonmises	0.0860127434549722	4.928167184311406	1.9820685289087372	1.12307231074685	0.2741449380716184	2.892864076946527	-0.018180512702591	-0.3747120095685254	0.3565314968659344	80.43618720327697
13	5.0	perception	343	diff_vonmises	-0.0305431498652972	-1.7499935803171007	2.8476395108031616	2.0761960069737224	0.0828819081495021	3.9330765594084114	0.6409105593617921	-0.5811282458119308	1.2220388051737228	78.31613667344413
14	5.0	wm	343	diff_vonmises	0.0329978059368277	1.890635013371964	1.4305077254672396	0.914185786139284	8.280989556491067e-17	3.1796612494536736	-0.1212705180902837	-0.4840447077768925	0.3627741896866088	112.661481850848
15	6.0	ltm	343	diff_vonmises	-0.1529446848814013	-8.763084942662626	0.5499285326712754	146.48555662881392	0.535224652644204	148.43219710512085	-0.088141253625416	-0.4083343983884635	0.3201931447630475	106.02248914332252
16	6.0	perception	343	diff_vonmises	-0.0914618290416988	-5.240376790636406	0.701816331544908	3.5108959995009865	0.0556707116985233	5.490518008150232	0.0771091008908384	-0.5801147937989934	0.6572238946898319	137.40932945235497
17	6.0	wm	343	diff_vonmises	-0.0957249032916384	-5.484632952908847	0.3982249478791178	173.36319824322308	0.3864868924254654	175.5869821848562	-0.1293038024535775	-0.4828529027861492	0.3535491003325717	124.46220312435509
18	7.0	ltm	343	diff_vonmises	0.1310139277078075	7.506545115089449	0.8617160945301643	196.4285823746605	0.8490593595259719	198.10657687700072	-0.0509304897898346	-0.3566489251509281	0.3057184353610935	84.43902014698642
19	7.0	perception	343	diff_vonmises	-0.037728092881366	-2.1616604911798425	1.0311020316529824	4.304238772017198	0.3241996175597121	5.8366396011211625	0.2445518611255339	-0.4650501662140145	0.7096020273395485	106.5610842054899
20	7.0	wm	343	diff_vonmises	0.1285971446218965	7.368073644268143	0.8410039274274972	91.3170941912813	0.8147557423627889	93.17202828028567	-0.1108902553244597	-0.37580865779098	0.2649184024665203	83.31100082406138
0	1.0	ltm	199	diff_vonmises	-0.04875181503219	-2.793273244946933	4.009208192338021	0.3664999654698599	6.320229556365719e-17	3.087165203624692	-0.2092048954408541	-0.4912446795355571	0.282039784094703	68.38001351593641
1	1.0	perception	199	diff_vonmises	-0.0257441255019411	-1.4750297385163418	15.012145580055858	0.6792317452114529	0.0118198285075216	3.5347274107423323	0.4711115446548776	-0.5653255121096085	1.036437056764486	34.89157024264705
2	1.0	wm	199	diff_vonmises	0.0168207849908404	0.963759988072156	2.5443060711310417	0.5517855249384416	2.9218451017442417e-19	3.451593978457793	-0.2207682978073615	-0.5473120908392536	0.326543793031892	86.23027739468739
3	2.0	ltm	199	diff_vonmises	0.0628815936995632	3.602849928041404	4.051757967325902	0.4508479853280222	0.001885428220718	1.7424654907569477	0.0711981425803859	-0.2766961658731423	0.3478943084535282	67.89034251808272
4	2.0	perception	199	diff_vonmises	-0.0223597152040033	-1.2811173123038924	6.81140066628384	1.3218969456051468	0.320622195158096	2.505764065543721	0.8133178525641855	-0.4193712445017191	1.2326890970659046	49.76304849336975
5	2.0	wm	199	diff_vonmises	0.0101023139478133	0.5788199525258471	3.604162112936345	0.8125507207455435	0.2145311971954992	2.2849069440518828	0.1443706677882146	-0.3443112683494555	0.4886819361376701	65.89282308510354
6	3.0	ltm	199	diff_vonmises	0.0007699172079612	0.0441130065906775	3.869387747607501	0.5605574684028932	0.0275485570452737	1.5466670188750549	0.1702439574770097	-0.2415426576657194	0.4117866151427292	68.55762871522015
7	3.0	perception	199	diff_vonmises	-0.0148563636307076	-0.8512069349512013	4.006798693139352	2.150239902513792	0.2742679753778483	2.973423726792117	1.0437114825243805	-0.4344068348384665	1.478118317362847	64.5940463599886
8	3.0	wm	199	diff_vonmises	-0.0882390233695731	-5.055723627432781	3.444876505456393	0.8372612764138139	0.1599643371622641	2.0124443805211034	0.2193603548895702	-0.2998451945673028	0.519205549456873	69.11518960046246
9	4.0	ltm	199	diff_vonmises	-0.1246280436719118	-7.140660911372656	2.7297441768203656	0.740446345705435	0.0666249459627283	2.444466127291101	0.0439609483084666	-0.3683761671226662	0.4123371154311329	78.82250706557079
10	4.0	perception	199	diff_vonmises	-0.0600243105411965	-3.4391396621931825	2.0460299157172206	3.545230015093163	0.3261081835611236	4.969404883476318	0.7868472700631048	-0.5703868489522717	1.3572341190153765	84.58401670908404
11	4.0	wm	199	diff_vonmises	-0.0752646683054185	-4.312347840352535	0.8970383475461754	349.1815703965331	0.8865304317951801	351.15824137704044	0.0662288255173564	-0.4637089274879216	0.529937753005278	86.23257678316656
12	5.0	ltm	199	diff_vonmises	-0.0451500620877725	-2.5869080023829945	0.6018271743365687	161.61238891990445	0.587314663303131	162.77056958424274	0.1388768381227763	-0.3374005474871175	0.4762773856098938	110.33214212869257
13	5.0	perception	199	diff_vonmises	0.0230976446779327	1.323397556738356	0.8706338410772837	87.46876222560026	0.8160408385824955	88.5258688885037	0.5870402928057601	-0.4697250558119057	1.0567653486176658	97.3547020450638
14	5.0	wm	199	diff_vonmises	0.0158054067696145	0.905583101386413	0.5405650219265996	180.75136136603777	0.5264112151243625	182.02041392048807	0.1610886028796088	-0.3915388912090911	0.5526274940886999	116.9021843951864
15	6.0	ltm	199	diff_vonmises	-0.1340671188572239	-7.681480081997702	0.3810490765367095	214.06456134941087	0.371505608275703	215.2134344203742	0.1165842618569428	-0.3771926817352025	0.4937769435921453	134.20684630723758
16	6.0	perception	199	diff_vonmises	0.0292161585216904	1.6739625768780388	0.610288469561601	255.526648611907	0.5945363365135431	256.6623397308631	0.4615711364869099	-0.5049567843808234	0.9665279208677332	114.19244667382688
17	6.0	wm	199	diff_vonmises	-0.027139388948878	-1.5549724453347018	0.3952251389147134	231.7449373007838	0.3833573422956324	233.0290504069906	0.2142132449863254	-0.4745326684440627	0.6887459134303882	133.78948951893807
18	7.0	ltm	199	diff_vonmises	0.0353112374464362	2.0231848750651054	0.7826473613250511	170.3071004538331	0.7663273645164478	172.04437305098057	0.0144207120551698	-0.3911819531840521	0.4056026652392219	91.56203659697306
19	7.0	perception	199	diff_vonmises	0.1356419596067561	7.77171181035112	1.8293322258636413	1.8978241596582488	1.6817280803915159e-13	3.614475937869935	0.3522347132989519	-0.5513623079934101	0.903597021292362	101.11916304990254
20	7.0	wm	199	diff_vonmises	0.1315439667318656	7.536914114145211	0.6620231995823745	144.93324522147765	0.6452268504156649	146.77987639091435	-0.0434514154584562	-0.3965043997259592	0.353052984267503	97.90193483699392
0	1.0	ltm	78	diff_vonmises	-0.1122444103926141	-6.431130989431147	2.5578812324549274	0.3437901440117358	4.272342572383057e-18	1.858524873458584	-0.0904536300839413	-0.2945609157165562	0.2041072856326149	86.00114053235504
1	1.0	perception	78	diff_vonmises	-0.0409217694080377	-2.3446446772881275	14.752563347029136	0.6546878914327655	2.3097616041668694e-22	2.388916457529441	0.6139326500460119	-0.3802078628492378	0.9941405128952496	35.275994338041016
2	1.0	wm	78	diff_vonmises	0.046661192897817	2.673489420090731	3.218908342097321	0.418486787067176	4.034233206629863e-19	2.04406828497209	-0.040085781886622	-0.3248671730801083	0.2847813911934863	76.53320004840376
3	2.0	ltm	78	diff_vonmises	0.0523245489882974	2.997975821954963	4.749393302516763	0.3854527059525251	0.0629054333258361	1.2352096098368766	0.1160351696870367	-0.1935887329261947	0.3096239026132314	60.99996668892567
4	2.0	perception	78	diff_vonmises	-0.0126089534113569	-0.7224398145478358	7.125066979224363	1.278133057902083	0.3798096329256532	2.0332846687515795	0.8788225683392619	-0.3449079277227682	1.22373049606203	48.71552688988908
5	2.0	wm	78	diff_vonmises	0.0440750580422084	2.525314807612681	4.422269238195648	0.5077663341344986	0.1996112031953336	1.4517578317064848	0.1328769237381706	-0.2261644025466241	0.3590413262847948	60.6415427587302
6	3.0	ltm	78	diff_vonmises	0.0507972162669495	2.910466103109498	2.4828043332676013	1.0302383340570425	0.6959023328533785	1.573546398659887	0.1581861933033758	-0.1740187065514685	0.3322048998548443	70.04566884303131
7	3.0	perception	78	diff_vonmises	-0.0149924844389996	-0.8590060827702406	4.550850297720373	1.8751590078554785	0.3337756917383748	2.3395700025661874	1.0403763634637777	-0.3488149887468756	1.3891913522106532	60.68902047970195
8	3.0	wm	78	diff_vonmises	-0.0590024059246757	-3.3805888406016043	3.0985507224306814	0.8123344774908675	0.4660616179737264	1.5262029793253555	0.1749600744632501	-0.2080359278648558	0.3829960023281059	67.20692886278556
9	4.0	ltm	78	diff_vonmises	-0.1365590577757547	-7.824257664833916	1.2176167334145946	73.59572063009324	1.1838545176007886	74.66859710380199	0.0553656179640569	-0.271151187353853	0.3265168053179099	74.39607679863903
10	4.0	perception	78	diff_vonmises	-0.0816967694579706	-4.6808800897950045	2.492998222265216	2.479052664753973	0.2530219788389508	3.555220785387704	0.7413831178941163	-0.4593198190942387	1.200702936988355	79.71612200918187
11	4.0	wm	78	diff_vonmises	-0.0977213151309421	-5.599018925470899	1.169685767712102	273.8423124517845	1.1582583096701469	275.17350582287463	0.086613890233238	-0.3387338834065687	0.4253477736398068	76.05686682357748
12	5.0	ltm	78	diff_vonmises	0.0260893473580311	1.4948094938659695	1.0945422452026663	2.7494364443102417	0.4537007249772407	3.4435444406260016	0.1684637626423286	-0.2254650773948135	0.3939288400371422	99.92859293780587
13	5.0	perception	78	diff_vonmises	-0.0123548777384115	-0.7078823508111152	1.8747414274033372	2.634114109372609	0.2863874963909721	3.230764117935042	0.6357697516679105	-0.3591846926299567	0.9949544442978672	89.91987027858679
14	5.0	wm	78	diff_vonmises	0.0786567758501113	4.5067012863179166	0.9411715570023416	2.8898456493285325	0.3286659891110225	3.653678982876402	0.1688404989628569	-0.2621114859674041	0.430951984930261	110.94619393576323
15	6.0	ltm	78	diff_vonmises	-0.1795223891557518	-10.285875226729718	0.4585685007282924	159.9992793919977	0.4483364314313968	160.69099720141855	0.1395527494277288	-0.2590730403040293	0.3986257897317582	126.87311297877372
16	6.0	perception	78	diff_vonmises	-0.024085623718321	-1.3800045859999903	0.6695128919820109	274.4005834723713	0.6574347779920897	275.15843582082164	0.4209389675135924	-0.3772520889740285	0.7981910564876209	109.869487775171
17	6.0	wm	78	diff_vonmises	-0.0446114016142549	-2.5560450306599134	0.4644174666445235	76.86470624881503	0.4375416765883644	77.61774117233169	0.2058166528151801	-0.3167876759684471	0.5226043287836273	128.07316613352037
18	7.0	ltm	78	diff_vonmises	0.0615692858732264	3.5276602281703155	0.9697258421535094	198.8671934810292	0.95601082726691	200.05308719814832	0.1221127471531957	-0.3076189841657424	0.4297317313189381	85.22674876548487
19	7.0	perception	78	diff_vonmises	0.0057225980166637	0.3278807142047695	2.029648432249127	1.73733505795776	2.0442920044852025e-14	2.9317106262417703	0.4376418712023234	-0.4509870091728395	0.888628880375163	96.34408415451011
20	7.0	wm	78	diff_vonmises	0.185571178590472	10.632445332502508	1.4084531790057075	1.475832965555977	0.3142403933942625	2.658685463933412	0.0500575395397885	-0.2786019279142032	0.3286594674539917	92.3832131906422
0	1.0	ltm	55	diff_vonmises	-0.2088901777635302	-11.9685255675878	1.201460389205115	0.6847547088602589	4.066742283551693e-15	2.1678092852906103	-0.0852170198950721	-0.3215177194885668	0.2363006995934947	120.40080885921692
1	1.0	perception	55	diff_vonmises	-0.0517500377545164	-2.9650587529764616	13.895738918883277	0.7833937560432557	2.085854826637519e-17	2.454408679511889	0.7635410006477013	-0.3906312737109855	1.1541722743586869	36.3498965830874
2	1.0	wm	55	diff_vonmises	-0.0067045227193795	-0.3841408554700233	3.636990287549265	0.4069338658368653	3.492251904377131e-36	1.9870135251094727	-0.0193259050698723	-0.3160371243850035	0.2967112193151311	71.89218305650536
3	2.0	ltm	55	diff_vonmises	-0.0367100643644611	-2.103331753737225	4.093667260442261	0.4644666103453206	0.0475910156565195	1.5026767781399746	0.1109671686579165	-0.2341005727396229	0.3450677413975395	65.90221846780398
4	2.0	perception	55	diff_vonmises	-0.036281965694794	-2.078803506750136	7.3175407674361885	1.282380958138616	0.1552331507599934	2.247506129533458	0.9433180327310202	-0.3644066727673727	1.307724705498393	49.22298681728023
5	2.0	wm	55	diff_vonmises	-0.0379728786556142	-2.1756856829291027	4.107848265274233	0.4628550117493253	0.0204358677105298	1.5475556752201611	0.1097000773248668	-0.2431243265189235	0.3528244038437904	66.63844525495324
6	3.0	ltm	55	diff_vonmises	0.0194078639088315	1.111988691340318	2.6544410156297022	0.658722578115103	0.081818393588856	1.178824072631423	0.1988004728803484	-0.1725833027201684	0.3713837756005169	81.14035845106727
7	3.0	perception	55	diff_vonmises	-0.0202698801533505	-1.161378584022979	3.957771472375746	2.1817836980286303	0.2880839184363761	2.540596597281353	1.1394280173449225	-0.3643793075936705	1.503807324938593	65.30219800053084
8	3.0	wm	55	diff_vonmises	-0.1484072329839903	-8.50310809919735	2.8111992287764247	0.9870596114953204	0.3793423757477621	1.5344370581265885	0.2784051380613881	-0.1987174001468785	0.4771225382082666	72.85324451838119
9	4.0	ltm	55	diff_vonmises	-0.1366521412301064	-7.829590953910766	2.777961225537066	0.8186331283453909	0.3830113420804176	2.0595509247057096	0.0494186033397482	-0.2864564579998243	0.3358750613395726	68.96135822440417
10	4.0	perception	55	diff_vonmises	-0.0995064319884999	-5.701298587346613	2.126608864224941	3.281709229028009	0.3446159223273476	4.688308214629015	0.7341523673099253	-0.5427783511117565	1.2769307184216818	82.67981619217022
11	4.0	wm	55	diff_vonmises	-0.1388564816212225	-7.955890354931932	1.0937551216377277	244.51780949156253	1.0820336010091232	245.96793635847797	0.0194362837649038	-0.3411728482572762	0.36060913202218	76.8499979103095
12	5.0	ltm	55	diff_vonmises	-0.0116689535600965	-0.6685817903276896	1.5229138052388471	0.9465621360986868	1.1710284670078529e-14	1.4625026358708244	0.1810162586989675	-0.2130853744341894	0.3941016331331569	109.75373333956315
13	5.0	perception	55	diff_vonmises	-0.0247705202982712	-1.4192462694340824	2.2566484027210145	2.172203312352625	0.0789642168594277	2.4016194254694145	0.7918333671548954	-0.3394496549311102	1.1312830220860055	89.10711569831014
14	5.0	wm	55	diff_vonmises	0.0031657126150444	0.1813819719933695	0.9887797278756456	2.320551082909911	0.3068699714210836	2.8870955757399126	0.1779433570126701	-0.2211829475515894	0.3991263045642595	111.33155178693929
15	6.0	ltm	55	diff_vonmises	-0.1477026817310122	-8.462740285951048	0.3241361156763808	64.04766428885443	0.3103947308138423	64.4714619274181	0.068396191771809	-0.1633371787353121	0.2317333705071211	141.94516521518335
16	6.0	perception	55	diff_vonmises	-0.0584281403117637	-3.34768584466225	0.4044782301374303	153.4993555986855	0.3901616429222044	153.89918191623389	0.3123915003794622	-0.3115961250603813	0.6239876254398435	135.60872670239243
17	6.0	wm	55	diff_vonmises	-0.0558949990665453	-3.202547542400727	0.4218667774630664	87.18992427086727	0.4071049860884924	87.6478034424419	0.1317608819432436	-0.2025790564124072	0.3343399383556509	132.11226576732756
18	7.0	ltm	55	diff_vonmises	0.1459373209410311	8.361592563367253	0.9624027127658884	52.37701213956921	0.9240645342392424	53.09419747567135	0.1467497871820242	-0.2121823762735202	0.3589321634555444	88.42539082047645
19	7.0	perception	55	diff_vonmises	0.0633590636312899	3.630206939973744	0.8068893866964935	141.59755032585542	0.7832425516237252	142.21537211291317	0.4537842539673633	-0.329476390788523	0.7832606447558863	101.15900684886216
20	7.0	wm	55	diff_vonmises	-0.0127076728380254	-0.7280960210518892	0.6880905856800831	63.06797231463241	0.6644398070913728	63.817586148824354	0.0757275948585807	-0.2023463403961294	0.2780739352547101	102.53688812018817
0	1.0	ltm	274	diff_vonmises	0.0617445931655099	3.537704596136028	5.347190541529284	0.209813427469656	9.94632136016814e-19	3.299130856426661	-0.3365589233772354	-0.5250687082336102	0.1885097848563747	59.00339442613554
1	1.0	perception	274	diff_vonmises	0.0248794949969259	1.4254900597407012	11.71232229604341	0.7482502628316097	0.0738084773820906	3.8904596085157146	0.3442074344261898	-0.6388956570333647	0.9831030914595544	39.02785320609803
2	1.0	wm	274	diff_vonmises	0.0568310281875702	3.256178060536794	4.937190392504959	0.3096561776949845	1.8853574416183466e-15	3.572212986334744	-0.3018387638311275	-0.5685216245299614	0.2666828606988338	61.45685430388335
3	2.0	ltm	274	diff_vonmises	0.0553515675834012	3.1714112119620337	4.066193135813489	0.4524239783209007	0.0508663755166749	2.104150002841688	-0.0011625214428412	-0.3289680272816742	0.3278055058388329	65.40360315827618
4	2.0	perception	274	diff_vonmises	-0.0031224055607605	-0.1789006605597587	7.248962020256847	1.3743101331100338	0.2952451987346879	3.130439142710474	0.7938283133977301	-0.5302928490607934	1.3241211624585234	48.20687311612125
5	2.0	wm	274	diff_vonmises	0.0729044148701971	4.177115279933094	3.975563993632967	0.6395797728595709	0.1289943291483731	2.5901735254324048	0.0230411146269993	-0.4021687305661525	0.4252098451931518	63.88361106171564
6	3.0	ltm	274	diff_vonmises	0.0846802387113935	4.85182028632318	3.5551785583096427	0.543904367578271	0.2025703789418001	1.5619274165476988	0.0906054793059479	-0.2352082537560617	0.3258137330620096	66.44609782851563
7	3.0	perception	274	diff_vonmises	0.0081473161858373	0.4668068318071028	4.778472921734422	1.8476075870375128	0.2121514648852172	2.903503270175947	0.998622642095084	-0.4455490051634019	1.444171647258486	59.92975336262285
8	3.0	wm	274	diff_vonmises	-0.0081402574720362	-0.4664023972975077	4.231745686817733	0.5238898218273114	0.065405902940172	1.8675002998551584	0.0982986426867246	-0.2910614864311175	0.3893601291178422	64.2141717162391
9	4.0	ltm	274	diff_vonmises	0.0547479071528373	3.13682401703167	0.6513549996030464	108.8079908026662	0.629905158258662	111.13463844096808	-0.1877584308820346	-0.4460772824305845	0.2583188515485499	92.33046097026394
10	4.0	perception	274	diff_vonmises	-0.0375086593964254	-2.149087878608897	2.0012035711474088	3.327532992750025	0.3336832005267038	5.483211517055209	0.5321099267732003	-0.6406776442183832	1.1727875709915836	83.35049654651692
11	4.0	wm	274	diff_vonmises	0.0262395528342589	1.5034156337135736	0.7304299757489859	208.31158967259145	0.716137344188012	210.92712955635457	-0.184361308748727	-0.5136927034939731	0.3293313947452461	88.07435264987788
12	5.0	ltm	274	diff_vonmises	-0.0150365938223516	-0.8615333642732356	2.2264241195617767	0.8042614908845337	5.7018211312525664e-09	2.170322435525287	0.0971182599071862	-0.3402639899730714	0.4373822498802576	92.12663229313252
13	5.0	perception	274	diff_vonmises	-0.035368420011769	-2.0264611947204068	1.952216154145025	3.0334060483525755	0.2468344697680143	4.371550868752423	0.6650286885856163	-0.5234736704087856	1.188502358994402	88.25951030397542
14	5.0	wm	274	diff_vonmises	0.0631130750255531	3.616112831056717	1.5521364935975832	1.237968688463294	6.770365618332491e-23	2.8501699341204656	0.0938212602202099	-0.4290603464351249	0.5228816066553349	108.84462814960662
15	6.0	ltm	274	diff_vonmises	-0.0925555087777149	-5.303040023649111	0.500582809295264	171.78259545800793	0.4887802447021462	173.0590774973367	0.0663366491750281	-0.3472159171163387	0.4135525662913668	118.74595967932038
16	6.0	perception	274	diff_vonmises	-0.0714480904016461	-4.093674034283492	0.552466632670072	18.312981537236386	0.3869580494381597	19.608158598809062	0.2708272446323345	-0.4857954047411421	0.7566226493734767	125.51013624242452
17	6.0	wm	274	diff_vonmises	0.0177129706364174	1.014878460105878	0.472683572714916	222.90619365892195	0.4620174626756786	224.3403902797352	0.0982604721725053	-0.4122383148168005	0.5104987869893058	122.61595309267426
18	7.0	ltm	274	diff_vonmises	0.0435630324658354	2.495977903083753	0.8090704594132107	242.6436057432361	0.7972722002327082	244.6080096918892	-0.0487968845050659	-0.4189003132175877	0.3701034287125218	87.6832991908486
19	7.0	perception	274	diff_vonmises	0.0352656059687218	2.020570383979127	0.6931263602311318	252.67428913813336	0.6759314657618527	254.480718452184	0.3217472017476979	-0.5515344100682711	0.873281611815969	103.91010486863487
20	7.0	wm	274	diff_vonmises	0.0884725690260069	5.069104807870051	0.7289812792887079	152.43578762043956	0.7120137541898857	154.49904434403186	-0.0984670484919831	-0.4215184721465945	0.3230514236546113	90.81244495192828
0	1.0	ltm	441	diff_vonmises	0.0176780253343752	1.0128762417850476	5.494871470921763	0.3283961246700169	4.5031557723991575e-15	3.722918949188964	-0.2931221896100097	-0.592515901469891	0.2993937118598813	58.1809355875273
1	1.0	perception	441	diff_vonmises	0.012962492229173	0.7426960967027426	11.267732750523828	0.8055244530237473	0.0530159024588265	4.213993292303934	0.3594152548077274	-0.6844421856286065	1.043857440436334	39.92059973785956
2	1.0	wm	441	diff_vonmises	0.0322772582813849	1.849350673777042	4.444210309516828	0.4612876618013707	0.0216288112562997	4.001667877522883	-0.2752251419352495	-0.6326179732510935	0.3573928313158439	63.089193293184536
3	2.0	ltm	441	diff_vonmises	-0.0262921781936063	-1.5064308446995411	2.846556870071857	0.8735733136455434	0.2202813261197716	2.5977357038603275	0.0460246283122687	-0.3762519965199437	0.4222766248322124	71.84054267910972
4	2.0	perception	441	diff_vonmises	-0.0223066764894448	-1.2780784178088915	6.738195314530503	1.3366472042506763	0.2071306539850876	3.0631196933080727	0.7630631071584665	-0.5016266139837235	1.26468972114219	50.50957551977956
5	2.0	wm	441	diff_vonmises	0.0326684344955411	1.8717634198941009	3.809165007152374	0.7776776722161538	0.1452824494950015	2.624822069908171	0.1015860729790996	-0.4029801156355374	0.504566188614637	65.28951777462521
6	3.0	ltm	441	diff_vonmises	0.0050417188408913	0.2888692110746623	3.085210409323069	0.6419725269510285	7.675875179793343e-18	1.7644473008602524	0.1463784908701046	-0.2799274416629257	0.4263059325330304	78.21140132393128
7	3.0	perception	441	diff_vonmises	-0.002765180935713	-0.1584331972063949	4.120053005034848	1.9408187054957164	0.1702783404159916	2.9895300357957875	0.9563727030995764	-0.4483269924686506	1.404699695568227	64.74107015667727
8	3.0	wm	441	diff_vonmises	-0.0529816734310759	-3.03562627914106	3.190364955912192	0.8379388858389583	0.1213520595302408	2.0647493617770807	0.1986500301624563	-0.30720248658776	0.5058525167502164	72.4358879478093
9	4.0	ltm	441	diff_vonmises	-0.0769759266151102	-4.41039571915456	2.283424842943783	0.7355548446141436	3.4111307187686257e-18	3.0197257445268577	-0.0697462547466894	-0.4763347002262003	0.4065884454795108	90.990161668473
10	4.0	perception	441	diff_vonmises	-0.0633194885716911	-3.6279394560847527	1.6957318237496533	4.505765537193604	0.3956789329082544	6.600727488336551	0.601554083831267	-0.6669846744114786	1.2685387582427454	87.59220119908258
11	4.0	wm	441	diff_vonmises	-0.0556266329637037	-3.187171297343525	0.7461900953061036	296.6374073547825	0.7350803218600183	299.06957598082715	-0.0793664406088652	-0.5105496093158379	0.4311831687069727	90.8704656458096
12	5.0	ltm	441	diff_vonmises	-0.0651566152345989	-3.733199060300319	1.4375120118519171	1.346392898819247	2.376330576096956e-19	2.565620188319803	0.160041309207568	-0.3762655268039315	0.5363068360114995	112.4289505219898
13	5.0	perception	441	diff_vonmises	-0.0372849164952085	-2.1362683546731573	1.7715025388169694	3.4890316803696213	0.285269500614575	4.548781765482568	0.7285056266607325	-0.4996241060249107	1.2281297326856433	91.37550671493064
14	5.0	wm	441	diff_vonmises	0.0058778087249711	0.336773632726018	0.6322535077805895	206.4486544712027	0.6189281920688232	207.66949641141025	0.1932907638033469	-0.3730863873798746	0.5663771511832216	108.44379041064036
15	6.0	ltm	441	diff_vonmises	-0.0280628702932312	-1.6078840288252063	0.9651160537420692	1.4490165267756163	1.1520355304411733e-18	2.390259151570837	0.1051356094079966	-0.3099569823700551	0.4150925917780517	130.0506517673702
16	6.0	perception	441	diff_vonmises	-0.0674422568439537	-3.8641566779958425	0.8544518011776113	3.0370852537553907	9.424260624718757e-18	3.918606726372452	0.3300968087488901	-0.4509725659290943	0.7810693746779844	134.8516328284041
17	6.0	wm	441	diff_vonmises	-0.0482447739955713	-2.764221933508741	0.4911935432990391	225.0824479511431	0.4812372387520557	226.032529496278	0.1868301241191616	-0.3440585542615331	0.5308886783806948	123.38983365349353
18	7.0	ltm	441	diff_vonmises	0.0685276682279048	3.926346169331695	0.9166520335928122	4.5390095767696685	0.4240760804641703	6.156997540139318	0.0468706674295988	-0.3855443690668368	0.4324150364964357	101.48378754804664
19	7.0	perception	441	diff_vonmises	0.0578709683237566	3.315762241286531	0.8324095133902268	401.5748406034642	0.8207518527908731	402.9442425799921	0.4724874777091798	-0.4919661737828562	0.964453651492036	96.67670673945456
20	7.0	wm	441	diff_vonmises	0.0739466323605754	4.236829943466489	0.7703116814940575	162.2320791777294	0.7533389619845294	163.82744448587297	0.0555336862513158	-0.3760686989758461	0.431602385227162	93.75909518231536
0	1.0	ltm	251	diff_vonmises	-0.0206818982074201	-1.1849854796043555	6.045504395608164	0.2357588233585749	0.0060568472368535	2.5278717891629245	-0.1787292621252392	-0.401802097878191	0.2230728357529517	54.98285788551192
1	1.0	perception	251	diff_vonmises	-0.0159726066075742	-0.9151629464367748	13.871642896944476	0.6622672236151254	0.067407641234969	3.0736716919308047	0.4521336994923206	-0.5052691657555475	0.957402865247868	36.00101123984214
2	1.0	wm	251	diff_vonmises	0.0540602986627496	3.097426952592285	4.965776304122041	0.332297035884235	0.0027388625075489	2.8150766795170408	-0.1621698712360344	-0.4472687708986723	0.2850988996626379	61.017023889393386
3	2.0	ltm	251	diff_vonmises	-0.005974746760221	-0.3423277730201263	4.586596452403076	0.3890915222472685	0.0215219896336879	1.6025824243096185	0.0615622602898286	-0.2526281585731839	0.3141904188630125	62.90443320665221
4	2.0	perception	251	diff_vonmises	-0.0180326608574804	-1.033195360524389	7.667413332607008	1.1763497473784188	0.3223659311773544	2.4506849908517503	0.7521870191693069	-0.4205993285226922	1.172786347691999	46.96868860865479
5	2.0	wm	251	diff_vonmises	0.0503408071172123	2.8843157850984027	4.198603045347819	0.6009045078019998	0.208971951185446	2.0296967836867505	0.0805509250121306	-0.3166780862324358	0.3972290112445665	61.18096226506634
6	3.0	ltm	251	diff_vonmises	0.0207155852729438	1.1869156062830473	1.6858519783488624	3.7162093707030506	1.0781371564523727	4.495007677346136	0.1259240664858181	-0.2284885029427782	0.3544125694285963	71.90357202328047
7	3.0	perception	251	diff_vonmises	-0.017795681047022	-1.0196174175553103	4.452537642908422	1.8844313622919733	0.3556323163936119	2.6631115359252866	0.9494008306530772	-0.3983606778940785	1.3477615085471557	60.72692337122467
8	3.0	wm	251	diff_vonmises	-0.0266889629953613	-1.5291649392150353	2.81968717900947	0.8990444334468969	0.4569685857034083	1.9563600991062389	0.1012111910493342	-0.2649839661922643	0.3661951572415985	68.22880415975558
9	4.0	ltm	251	diff_vonmises	-0.0927425154073569	-5.313754714268561	1.047379029127713	189.41898606106332	1.0333354204245897	190.7823064600471	0.0268700348376285	-0.3200320020119136	0.3469020368495421	78.95045345187498
10	4.0	perception	251	diff_vonmises	-0.0853138514747856	-4.888123623511173	2.3391854016357985	2.728383759715279	0.3559684452307191	3.9907208253795714	0.6674373846197396	-0.4800699532578408	1.1475073378775804	79.24591299253936
11	4.0	wm	251	diff_vonmises	-0.1149434331763333	-6.5857736037479055	1.0457661876592532	282.914647846325	1.0347583423801086	284.5183385821902	0.0283708094027019	-0.375491363101851	0.403862172504553	78.86605011014231
12	5.0	ltm	251	diff_vonmises	0.04439827767272	2.543833928296773	0.7745367079869485	127.8749649388526	0.7546198920014198	129.13023168904488	0.1160030944659666	-0.3253020133627835	0.4413051078287502	95.86237744677112
13	5.0	perception	251	diff_vonmises	-0.0282765570341312	-1.620127377216679	2.1558808657459565	2.409691427161712	0.2145063043845304	3.651065776329802	0.5886472442997199	-0.4647798374142736	1.0534270817139937	85.39494749086288
14	5.0	wm	251	diff_vonmises	0.0230851136915566	1.3226795841058676	0.6157503905825713	146.07254876724832	0.5993072994742744	147.46120945169622	0.0863352665468539	-0.3596443160213791	0.4459795825682331	107.02429498830516
15	6.0	ltm	251	diff_vonmises	-0.1567925863979217	-8.983553459541236	0.4973335073789415	209.1552253899852	0.4871848222835958	210.4425030767472	0.0817074155028834	-0.3597355819248271	0.4414429974277105	119.46354075407744
16	6.0	perception	251	diff_vonmises	-0.0448150675643662	-2.567714230031817	0.5954365804471125	196.3627925003454	0.5778396924139941	197.7648919630686	0.286625662161299	-0.4756505638488146	0.7622762260101137	113.148900676906
17	6.0	wm	251	diff_vonmises	-0.1430537284917875	-8.196374886189801	0.5148784991431534	128.79397029421654	0.4959636220198243	130.16463768414545	0.1185309884443484	-0.3984869011993499	0.5170178896436983	118.78014104257632
18	7.0	ltm	251	diff_vonmises	0.0482637902702533	2.765311485790082	0.838280784497352	245.84249645404307	0.8266272115655319	247.35046999459303	0.0813394822043847	-0.3646675782841058	0.4460070604884905	90.29345594487312
19	7.0	perception	251	diff_vonmises	-0.0606257766556457	-3.47360113207125	2.1812920767239987	1.6764812378181717	4.431886624546948e-17	3.113060003407278	0.4157119887405696	-0.4838439113054082	0.8995559000459779	93.05210439775745
20	7.0	wm	251	diff_vonmises	0.2327005737878073	13.332760768313957	1.969783898105016	1.2717725460483953	0.3063060091192006	2.739222476940052	0.071499076710867	-0.3394632423162582	0.4109623190271253	81.52174089310745
0	1.0	ltm	130	diff_vonmises	-0.0674808329450744	-3.866366925780127	4.505920913097456	0.3212824991265346	1.5787046924826472e-19	1.6954258098341974	-0.0063454819060249	-0.269803263046605	0.2634577811405801	64.401817248389
1	1.0	perception	130	diff_vonmises	-0.0614594272977325	-3.5213657954511968	15.253147120851116	0.644178641338039	2.176643063872037e-20	2.2543148396184445	0.6358876717577706	-0.3587853500106325	0.9946730217684032	34.69462752970733
2	1.0	wm	130	diff_vonmises	-0.0152091406260853	-0.8714195678956491	5.625298148113209	0.3640736731791188	9.476522399592237e-16	1.891348736442988	0.0350452728242638	-0.3010131317290154	0.3360584045532793	57.48988761340058
3	2.0	ltm	130	diff_vonmises	-0.0437295647209621	-2.505519498455312	2.652208335193895	1.0595981881946346	0.5585633764390137	1.8210011467222509	0.1770639396406425	-0.2244727139984277	0.4015366536390702	69.91010376038724
4	2.0	perception	130	diff_vonmises	-0.0320002056245359	-1.8334767258367104	7.045790830117188	1.172652617792704	0.3050559267193636	1.958909650528997	0.8047623905559218	-0.3266607650668935	1.1314231556228154	49.29938904976692
5	2.0	wm	130	diff_vonmises	0.00581661018839	0.3332672148675437	4.217737083483589	0.5730764579586414	0.2530748261359433	1.4220116733388002	0.1665918355601454	-0.2188469895566755	0.3854388251168209	61.4816465508184
6	3.0	ltm	130	diff_vonmises	0.0148382776819022	0.8501706864161644	1.4054799384166905	122.14598016499716	1.3849407580634625	122.69268065310422	0.2225032762640566	-0.2040900908295189	0.4265933670935755	74.07072963694768
7	3.0	perception	130	diff_vonmises	-0.033757660266952	-1.9341714595328257	4.533650482138068	1.9148922503726629	0.3672830932768847	2.4852509182253666	1.0233494235490797	-0.3707871731406548	1.3941365966897346	60.39275085320702
8	3.0	wm	130	diff_vonmises	-0.0566667975546312	-3.246768338402622	1.3863704499992242	60.03817224930415	1.3416902563639248	60.75442556104654	0.1919326580868876	-0.23481697766627	0.4267496357531577	73.6266071239522
9	4.0	ltm	130	diff_vonmises	-0.1869628617611869	-10.712182904603855	1.2727891731115957	129.34384009819772	1.2507840566238149	130.2421786528173	0.1716998862526395	-0.2677497074004993	0.4394495936531388	75.64826257275811
10	4.0	perception	130	diff_vonmises	-0.0958416228663933	-5.491320491928863	2.598496055419322	2.203903972078355	0.1598182762632882	3.273413808632339	0.7211254547430848	-0.451071302754474	1.1721967574975587	80.33074776237811
11	4.0	wm	130	diff_vonmises	-0.1643060322296482	-9.414042195299322	1.2357439404143142	281.9402865212275	1.2241685294828557	283.082169721736	0.1620516380585996	-0.3210920344401486	0.4831436724987483	75.77638622789209
12	5.0	ltm	130	diff_vonmises	0.0178213006670735	1.0210853136569942	1.5106400528180413	1.5471795898103755	0.1986456261042166	1.8638759363800923	0.3147524617553496	-0.2080167926781508	0.5227692544335005	101.49735230863548
13	5.0	perception	130	diff_vonmises	-0.0406240609120721	-2.327587236944109	2.135791561660473	2.144397601862181	0.1797268697009325	2.395203459874548	0.6982874106842192	-0.3030607616400698	1.001348172324289	88.52711953267323
14	5.0	wm	130	diff_vonmises	0.0078947145966265	0.452333826847029	0.7986597744780499	105.48232566147315	0.7795511734409292	105.80819144502593	0.2872273004803496	-0.1955789387399624	0.4828062392203121	102.04669637387627
15	6.0	ltm	130	diff_vonmises	-0.1281910391328837	-7.344805513710613	0.4314420742777208	97.1112515542723	0.4173349627226865	97.30158827610788	0.2085675233186528	-0.1838497529147478	0.3924172762334006	133.17556108384815
16	6.0	perception	130	diff_vonmises	-0.0275741295116748	-1.5798812447660977	1.0756631211777776	2.96692945158976	0.2781089457109309	3.2771559767594125	0.3804399094730423	-0.2645552339284369	0.6449951434014791	112.4320393854857
17	6.0	wm	130	diff_vonmises	-0.1104868940826106	-6.330432722442539	0.5426063745792894	86.59550413818263	0.5241000300901215	86.74857085059494	0.2625120084400301	-0.1889510496593622	0.4514630580993923	123.48174714737236
18	7.0	ltm	130	diff_vonmises	0.0294363370801511	1.6865778790171122	0.9720974025677483	158.6355204746877	0.9554546575312708	159.27276103495473	0.2884999225465776	-0.247025446570797	0.5355253691173747	90.27923733214293
19	7.0	perception	130	diff_vonmises	-0.0507172924526258	-2.905886805866165	1.840767807157787	2.08287953839397	0.1376108983726513	2.683509826096516	0.5340211789803662	-0.3447750312554898	0.878796210235856	95.20392738450778
20	7.0	wm	130	diff_vonmises	0.158405644091397	9.075974857488475	2.0236878495299746	0.9527741286135352	0.1538066195947073	1.5118842016090377	0.2160513472005528	-0.1989290523183237	0.4149803995188766	89.50011063959101
0	1.0	ltm	107	diff_vonmises	0.0835330393601504	4.786090605236804	3.700161683167535	0.3014269963134893	1.4968916809328732e-17	3.1843810546073663	-0.2847612017594396	-0.5066742944814976	0.2219130927220579	71.25529549986936
1	1.0	perception	107	diff_vonmises	0.0087671269547925	0.5023193729649973	11.82557625510194	0.6755452452264767	0.0274745528799694	3.6276899114039503	0.3228377144388541	-0.5830639534992416	0.9059016679380956	39.1809079387713
2	1.0	wm	107	diff_vonmises	0.0454890014233878	2.606327795824717	4.402177474066701	0.3751343704746059	0.0045623272889285	3.371249344069664	-0.2352137843387708	-0.5349360274461546	0.2997222431073838	64.66258711419158
3	2.0	ltm	107	diff_vonmises	0.0196031124253508	1.1231756072930643	3.247310299608058	0.7064936663116652	0.1689437604736528	2.473217513574003	0.0211861200876253	-0.3720753672146609	0.3932614873022863	68.90485392247297
4	2.0	perception	107	diff_vonmises	-0.0043333037996126	-0.248280019065809	6.646618589764197	1.3428698042369214	0.2048907144196607	3.181639694766675	0.7379724974225303	-0.52042196203198	1.2583944594545105	50.79866969070335
5	2.0	wm	107	diff_vonmises	0.0700495535103518	4.013543772918981	4.092273349476603	0.6428186309411642	0.1125815925148156	2.586509723559528	0.0411648230780034	-0.4024713073772151	0.4436361304552185	63.56823322813296
6	3.0	ltm	107	diff_vonmises	0.056763655119158	3.252317868063926	3.139073831519655	0.719297450930203	0.1303218221321693	2.081575797103606	0.1075663235934903	-0.3104318288360933	0.4179981524295837	72.07147748619693
7	3.0	perception	107	diff_vonmises	-0.0006065032019288	-0.0347500737316915	4.464584812018312	1.9348122505733776	0.1232142572731089	3.304568945653584	0.9862846992744886	-0.506194029034888	1.4924787283093766	62.743287886461246
8	3.0	wm	107	diff_vonmises	-0.0040606798089265	-0.2326598150054832	3.5418124428215894	0.6920570478664415	0.0644539844213235	2.2801244450152014	0.1109655731324597	-0.3508008980844173	0.461766471216877	70.00319982110659
9	4.0	ltm	107	diff_vonmises	0.0396472024850042	2.271617371891335	1.8537044904921125	0.7182110811147114	0.0708915917888699	3.2852431712302423	-0.2067360982484244	-0.4822558962715749	0.2755197980231504	90.49435938570964
10	4.0	perception	107	diff_vonmises	-0.0537219527406228	-3.0780411592389534	1.5074934411750556	5.180242442890284	0.4201268652800199	7.618972757027363	0.4836925566036525	-0.7085101890051215	1.192202745608774	89.71587828060137
11	4.0	wm	107	diff_vonmises	0.0149434917252843	0.8561990070474634	0.6998086291257246	196.9295376531327	0.6842469242371331	199.7391465677725	-0.207167199161411	-0.5472056721437362	0.3400384729823251	89.68310923606671
12	5.0	ltm	107	diff_vonmises	-0.0316603056353796	-1.814001891001509	1.891467956966578	0.9823027475475328	9.213081589820337e-14	2.243418099624404	0.1328584897483251	-0.3459025812953645	0.4787610710436896	99.6036477397934
13	5.0	perception	107	diff_vonmises	-0.0522928755971673	-2.996161070320344	1.6636224382941978	3.8465994311629768	0.3448320373453127	5.049979896422149	0.6726809690720124	-0.5109094969746613	1.1835904660466736	91.46818214083112
14	5.0	wm	107	diff_vonmises	0.0400896342039213	2.296966842108003	1.2095374031444814	2.0708970003402545	0.1777678324811906	3.490030577547228	0.1304811719014106	-0.3911340550904514	0.5216152269918621	107.29134346761596
15	6.0	ltm	107	diff_vonmises	-0.0776799657604776	-4.450734190796109	0.455702920630528	74.47258416617774	0.432268080762279	75.59888595594683	0.0593182219212806	-0.3175807643103177	0.3768989862315983	124.85168287794458
16	6.0	perception	107	diff_vonmises	-0.0944771959320376	-5.413144587136308	0.6507233114150127	7.885467289550138	0.3076279195558538	9.008750973482924	0.2649897975949702	-0.4390854330500425	0.7040752306450128	125.36622563448088
17	6.0	wm	107	diff_vonmises	0.0290081006371534	1.662041738199648	0.5189875598829984	223.41999360365293	0.5093149351585379	224.62934264348408	0.1042642718934061	-0.3492168845540426	0.4534811564474488	117.81373340749444
18	7.0	ltm	107	diff_vonmises	-0.0340579256507405	-1.951375398757783	0.8138647535891449	124.5877583066636	0.7882332506226417	126.72622417831124	-0.0347024146383034	-0.4623621333072201	0.4276597186689166	88.41709681473915
19	7.0	perception	107	diff_vonmises	0.0468253548854689	2.682895209139664	0.7260014106818687	350.7053898888024	0.7118458776610695	352.6857677371823	0.3789002983401843	-0.60714123775929	0.9860415360994744	101.56925417027918
20	7.0	wm	107	diff_vonmises	0.0188999904355262	1.082889684793278	1.1189815121368412	3.4907104150003536	0.4613551742987629	5.664409805519779	-0.0859270978505148	-0.4484045094229605	0.3624774115724457	89.1806357929753
0	1.0	ltm	205	diff_vonmises	0.0053674511117445	0.3075322954457634	2.7268513443997784	0.3537515501425957	1.400598845105809e-20	3.560698713223984	-0.3473868916404655	-0.5657639617485186	0.2183770701080531	83.2772430866537
1	1.0	perception	205	diff_vonmises	-0.0062491235467756	-0.3580484048860684	13.682239760500094	0.7446019677836806	0.0305208897949064	3.9630201208196207	0.4379772114908677	-0.6391452605975175	1.0771224720883854	36.42220929959896
2	1.0	wm	205	diff_vonmises	0.0150721287415388	0.8635693651680006	4.595878462801985	0.3412377354956708	6.26607257789323e-19	3.7300184792429274	-0.3108040208323706	-0.5936220628176262	0.2828180419852555	63.75188421974235
3	2.0	ltm	205	diff_vonmises	-0.0422088381635642	-2.4183882849229503	3.327284737491113	0.51715384833726	2.3632651857852893e-17	2.5702862642019952	-0.0499772621469667	-0.4086111217171425	0.3586338595701758	75.24835452041924
4	2.0	perception	205	diff_vonmises	-0.033135247211969	-1.8985098183684543	7.785626271551826	1.2527076375019426	0.1396051115217778	3.393926296604937	0.752506555543094	-0.555874668066585	1.308381223609679	47.488317384731545
5	2.0	wm	205	diff_vonmises	0.0062167143235951	0.3561914931805278	3.730032975435588	0.6648182955731701	0.0698723609933431	2.968525026997823	-0.0141319528837623	-0.460491327790384	0.4463593749066216	67.40670526522155
6	3.0	ltm	205	diff_vonmises	0.0034516961722522	0.1977676228315133	2.95351679861361	0.682680450326146	0.0467301521093014	1.924419611766641	0.1223934270541634	-0.2937952376281932	0.4161886646823567	77.37817956414438
7	3.0	perception	205	diff_vonmises	-0.0141809518199704	-0.8125086887626696	3.632869336616632	2.437583249728235	0.2513367721307795	3.6219718609600062	1.0479617419011995	-0.521178952343824	1.5691406942450237	67.56055556817691
8	3.0	wm	205	diff_vonmises	-0.1098562818043519	-6.2943013003891854	3.3368139424252563	0.8043879866493218	0.0952137585324936	2.250919425917544	0.1663248750339513	-0.3404890240418675	0.5068138990758189	71.35537172743219
9	4.0	ltm	205	diff_vonmises	-0.0031425332767035	-0.1800538937345289	2.5091456183016296	0.6413155648243059	0.0595780412081063	3.0925760528576998	-0.1431772938565519	-0.4688892678787602	0.3257119740222082	80.68276002784938
10	4.0	perception	205	diff_vonmises	-0.0803758811212237	-4.605198762891352	1.409088547111404	8.547361722278465	0.6532193654207674	10.801423332947934	0.5876021751011047	-0.7034046155799689	1.2910067906810736	86.11908403087276
11	4.0	wm	205	diff_vonmises	-0.0772735752687978	-4.42744973078861	0.6776218603551141	207.469012979	0.6642762559281017	210.11373738800023	-0.2076487150781005	-0.5099406556578323	0.3022919405797317	90.455213010405
12	5.0	ltm	205	diff_vonmises	-0.0111569412694675	-0.6392456470158215	1.8211853939406668	0.9289262174831732	0.0006697549285593	2.515997840326285	0.0520389609634729	-0.3883071353190328	0.4403460962825057	101.31280283815629
13	5.0	perception	205	diff_vonmises	-0.024436491305728	-1.4001078179263458	2.1145178002367806	2.758802652219869	0.1527460116176763	4.292697732167043	0.6804069491846904	-0.5701004933977741	1.2505074425824645	87.9784903614237
14	5.0	wm	205	diff_vonmises	-0.0577254588784506	-3.307425164191208	0.5219097177174912	193.60936770182585	0.508959572541248	195.43843141496737	0.0153341938765478	-0.4432112954621701	0.4585454893387179	113.87128100394112
15	6.0	ltm	205	diff_vonmises	-0.1281012652555267	-7.339661849427536	0.960856567927191	1.0606805310947265	2.7671963876193053e-18	2.6234063907384813	-0.0629552613132329	-0.3656324739074156	0.3026772125941826	130.10471298343288
16	6.0	perception	205	diff_vonmises	-0.0719424818211853	-4.122000576050567	0.2776960100213127	173.15048843896392	0.2623690971475631	174.65705273605005	0.1642419427885642	-0.5402964588401531	0.7045384016287173	147.34173564974373
17	6.0	wm	205	diff_vonmises	-0.0743712230977664	-4.26115720072788	0.40602390540823	243.7241115959673	0.3979026217143633	245.43060737963617	-0.0255071212562256	-0.417812908126816	0.3923057868705903	126.9769023776442
18	7.0	ltm	205	diff_vonmises	0.1205631182174095	6.907757838794377	0.7352745829372466	121.53681393789095	0.715128625072145	123.25192556293727	-0.0258721001650528	-0.3715825635660259	0.3457104634009731	93.26781590767936
19	7.0	perception	205	diff_vonmises	0.0859047497958236	4.921979603428013	0.7107527876259712	287.6255158864852	0.6965540673486811	289.1847721235595	0.3358507848102476	-0.4988481930952915	0.8346989779055392	103.16283146466476
20	7.0	wm	205	diff_vonmises	-0.0119532188121844	-0.6848689895345506	0.8292889181561016	58.032386837498656	0.7844016901585785	59.89203907150104	-0.0617261061819185	-0.3913821982969887	0.3296560921150702	86.83669755970479
0	1.0	ltm	303	diff_vonmises	0.0627000377562764	3.592447538745553	3.836809039823521	0.4269775683756746	0.0324504712909736	3.2305692062426705	-0.2101259069890957	-0.5076606450004117	0.2975347380113159	67.13767407612247
1	1.0	perception	303	diff_vonmises	-0.0125522251382443	-0.7191895239194198	12.318711901295671	0.577246670320326	1.9996363162442586e-17	3.405209057877921	0.2576698013801863	-0.5419558538066039	0.7996256551867903	38.63089260271937
2	1.0	wm	303	diff_vonmises	0.0504143138181852	2.888527408830079	2.926079438707163	0.7357503896425693	0.1299075019413097	3.6388732870197193	-0.1816478989545017	-0.55124257341743	0.3695946744629282	71.3194130179507
3	2.0	ltm	303	diff_vonmises	-0.0476344273365642	-2.7292516459077287	2.31036460486562	1.4413210752622387	0.4192336923455659	3.1801659496662107	0.0737508104049479	-0.404578598696504	0.4783294091014519	73.41061415216649
4	2.0	perception	303	diff_vonmises	-0.0145382841626964	-0.8329823238843928	5.960661606362381	1.2159915152175151	0.1458551688524178	3.004394657971932	0.6068920699598593	-0.4801032661650098	1.0869953361248692	53.95137208210426
5	2.0	wm	303	diff_vonmises	0.0637984690987947	3.655383018756741	4.170431715841682	0.7142734510501308	0.1613187878097527	2.514054299310612	0.094627323030238	-0.3910563089310422	0.4856836319612803	62.254785726902725
6	3.0	ltm	303	diff_vonmises	-0.0256334738250522	-1.4686898644345607	2.0378195111438258	1.7765374151042923	0.3747886414736026	3.512108730075292	0.1415606173257689	-0.4215156232753057	0.5630762406010748	79.21650009753313
7	3.0	perception	303	diff_vonmises	-0.0245839127781092	-1.408554446103396	3.9549884017664505	2.005028105825239	0.1048565726018797	3.725480512106573	0.8752556316823866	-0.5658761433789236	1.4411317750613102	66.61243033408036
8	3.0	wm	303	diff_vonmises	0.0216875767123899	1.242606613486155	2.2857371520672847	1.3754889185095447	0.2755913740464258	3.235959842115604	0.1030608500646887	-0.4295077004759221	0.5325685505406109	77.81433174492352
9	4.0	ltm	303	diff_vonmises	-0.0530146498501254	-3.037515688776051	2.1637232670289497	0.871369606890141	0.0655128143070196	3.305448722775175	-0.0897587102033135	-0.4904820593999549	0.4007233491966414	86.7513730474574
10	4.0	perception	303	diff_vonmises	-0.0980471920496608	-5.6176902975542085	1.1227648683097171	11.187774832446491	0.596198118238834	13.454947206854143	0.517791516805596	-0.6999280392434434	1.2177195560490397	93.88349907752048
11	4.0	wm	303	diff_vonmises	-0.0809726690485388	-4.639392192390868	0.792795512866173	228.1711266428187	0.7771087555568824	230.77619444383	-0.0961069582854889	-0.5440191585099292	0.4479122002244402	87.78576668639849
12	5.0	ltm	303	diff_vonmises	-0.0344079145531297	-1.971428285741096	1.4569865807358808	1.6548169014857452	0.0704465690884236	3.0241781737080293	0.1884789955350143	-0.4098026737549219	0.5982816692899363	106.90529342769126
13	5.0	perception	303	diff_vonmises	-0.0691287977927601	-3.9607883563384343	1.292439543313072	6.552405311568422	0.5346361056609013	7.84955825223653	0.6076082661601327	-0.5179918588555296	1.1256001250156622	93.87264536516965
14	5.0	wm	303	diff_vonmises	-0.0023651508802563	-0.1355131633503397	0.6864629542405488	233.88099543784335	0.6739219476069198	235.2500633729938	0.1757351625592207	-0.3865381929963938	0.5622733555556145	103.0417527852084
15	6.0	ltm	303	diff_vonmises	-0.0584897136291648	-3.3512137358799547	1.0020877196571087	1.521027269452759	0.003563753595654	2.785925147446628	0.0753665590816015	-0.371685224397938	0.4470517834795395	128.180194130299
16	6.0	perception	303	diff_vonmises	-0.102296918149354	-5.861181667153221	0.9801377292840142	3.4464356158125886	0.1938817091311802	4.674870464802137	0.2699326733491383	-0.4431623244978335	0.7130949978469718	117.05788528392212
17	6.0	wm	303	diff_vonmises	-0.0463276402073065	-2.654378258679243	0.5868830785031625	252.91507045940705	0.577527272656359	254.1248374118718	0.1309107725271587	-0.3476242659966289	0.4785350385237876	111.19400177341748
18	7.0	ltm	303	diff_vonmises	-0.1370542402207521	-7.852629529021235	0.7681979039842382	103.1661663689194	0.7316144228672303	105.52385955497202	0.0353572365560665	-0.5378264358842486	0.5731836724403152	93.5234261951834
19	7.0	perception	303	diff_vonmises	-0.0087302783076263	-0.5002081010016031	0.8211681616458189	342.1489962218471	0.8036642963066917	344.35187115942534	0.4730735941534334	-0.675479072367601	1.1485526665210344	95.75579327258409
20	7.0	wm	303	diff_vonmises	0.0848080507978074	4.859143379445462	2.2091473604213845	1.3320125024007288	0.2167992415722296	3.5527136957129777	0.0353807627069187	-0.4836516908986759	0.5190324536055946	79.87333310688248
0	1.0	ltm	470	diff_vonmises	0.0692826654946042	3.96960432625748	4.301812372935332	0.3497615874194143	0.0347745089731012	3.106256978993838	-0.2319545256451854	-0.4904424463801742	0.2584879207349888	63.18480566102244
1	1.0	perception	470	diff_vonmises	0.0049846213587704	0.2855977663283127	11.668662132564029	0.6074192663543801	0.0358539191875716	3.389396255968088	0.2594641674541357	-0.5467410736010613	0.806205241055197	39.35437390667565
2	1.0	wm	470	diff_vonmises	0.0599494211118603	3.434848813962072	3.355524206381254	0.6018878055104113	0.1119139613165819	3.477044354860261	-0.1970707707164254	-0.5374614414580242	0.3403906707415988	67.60653348638729
3	2.0	ltm	470	diff_vonmises	-0.0337419115921343	-1.9332691269328468	2.725378270021996	0.9895099564016456	0.3115252545299402	2.644617010008513	0.0522472864545947	-0.3713043690189782	0.423551655473573	70.90294812750813
4	2.0	perception	470	diff_vonmises	-0.0063313810877858	-0.362761414819078	6.533314470723654	1.1957575628980537	0.1859886504758558	2.953478262116361	0.6326495188894354	-0.4805515722148468	1.1132010911042822	51.30747312266476
5	2.0	wm	470	diff_vonmises	0.0807854688498215	4.628666411080357	4.2638558631222745	0.658148569247861	0.1663509253227356	2.43635368502981	0.0690777303974561	-0.3809157982243057	0.4499935286217618	61.37046505180072
6	3.0	ltm	470	diff_vonmises	0.0039594297346789	0.2268586130757092	1.9348239853425464	1.970787344035966	0.5558591706136518	3.4315729265544976	0.1138322663670969	-0.3623445082639276	0.4761767746310246	76.20614496949682
7	3.0	perception	470	diff_vonmises	-0.0146388741320464	-0.8387457045894977	4.373483766295894	1.8337932185832708	0.137304266864404	3.329099653547044	0.8749507622757844	-0.5088208868215967	1.383771649097381	63.0661746050838
8	3.0	wm	470	diff_vonmises	0.0437917994573798	2.509085286191154	2.528396965811774	1.0644692907659252	0.2775396007958909	2.732112933739489	0.0684501093991711	-0.3763266350008937	0.4447767444000649	74.25399630816423
9	4.0	ltm	470	diff_vonmises	-0.035231471141936	-2.018614602469888	1.2132334051317188	2.645617173994629	0.4033757663651021	4.8997383990389975	-0.1116981543223996	-0.4556686143926274	0.3439704600702278	88.23431169631704
10	4.0	perception	470	diff_vonmises	-0.0915923313700018	-5.247854023264797	1.5139362727715326	5.077578379162647	0.450528277553111	7.179266079274091	0.5064166841866946	-0.64199567801521	1.1484123622019045	89.22004093135044
11	4.0	wm	470	diff_vonmises	-0.0726240154589377	-4.1610495770899805	0.8288636893172346	228.8634780899992	0.8142356550520475	231.3085904757509	-0.1098974114084256	-0.5060651372760177	0.3961677258675919	85.03556188994287
12	5.0	ltm	470	diff_vonmises	-0.0112604487242262	-0.645176187321634	1.6152778763036717	1.463540156150892	0.1007117736734485	2.9112616189693155	0.1519321017039573	-0.3916746039170224	0.5436067056209798	99.77797406680168
13	5.0	perception	470	diff_vonmises	-0.0721566521131217	-4.134271629875609	1.7026687965857248	3.716253697689577	0.3599382219048194	5.120062287491384	0.6076123814182015	-0.5240098073431207	1.1316221887613225	89.57817015072465
14	5.0	wm	470	diff_vonmises	0.0207266633136086	1.1875503312584132	0.6739601636531775	222.21792244912203	0.6609407825483586	223.71478221750027	0.1356885963120575	-0.3981474688011275	0.533836065113185	102.89647350036344
15	6.0	ltm	470	diff_vonmises	-0.0716429715759729	-4.104839903078968	0.4864601863339645	155.36305431533413	0.4726028292939073	156.7462473094971	0.066840498466135	-0.3770397052445737	0.4438802037107088	120.39385022633935
16	6.0	perception	470	diff_vonmises	-0.1205056483990103	-6.904465060750719	1.1112855322156427	2.6951279625940754	0.1271748868844924	4.064441473044369	0.2457376240785979	-0.461449688442959	0.7071873125215569	115.56192440276062
17	6.0	wm	470	diff_vonmises	-0.0624763023569742	-3.5796284446378634	0.5967671862354688	233.4395670529604	0.586253758813795	234.78876409456112	0.1093274872575307	-0.3657629587862026	0.4750904460437333	109.31972446246354
18	7.0	ltm	470	diff_vonmises	-0.097848890101323	-5.6063284328452285	0.7713249720527388	213.09408676153407	0.7543521002808748	215.3899836888756	0.0134458195781661	-0.5150896289637465	0.5285354485419127	92.15810443966556
19	7.0	perception	470	diff_vonmises	-0.0529311199141289	-3.032729775980455	1.138800965948292	9.08280204435722	0.5557957736366502	11.201723282084124	0.4593136748602591	-0.6464876664430795	1.1058013413033383	94.57434460156992
20	7.0	wm	470	diff_vonmises	0.1294454091761776	7.416675623138996	2.440147784504917	1.1405729502730206	0.1957968887363719	3.295625882969158	0.030763555693685	-0.4644397710445981	0.4952033267382831	77.25791579660222
0	1.0	ltm	280	diff_vonmises	-0.0517271531062479	-2.963747559215036	6.200811477896196	0.2448944464556024	1.9466105604378357e-15	2.4537456746414965	-0.1525765706603406	-0.3905247747815366	0.2379482041211959	54.70355590768392
1	1.0	perception	280	diff_vonmises	-0.0263932658748461	-1.5122227421953425	13.762960801094216	0.7425640604342463	0.0657235206217207	3.0824354642274217	0.5647919249052229	-0.505874806643515	1.070666731548738	36.19818752206311
2	1.0	wm	280	diff_vonmises	-0.0043890381094149	-0.2514733597915534	7.163279082181996	0.2963521373273543	0.0072275082721155	2.7277294059810666	-0.1267941675175615	-0.4339506319921458	0.3071564644745843	50.50488086619606
3	2.0	ltm	280	diff_vonmises	-0.091304507060117	-5.231362905067132	4.146640051448126	0.4860099061678297	0.0600420439162165	1.792464667883164	0.0783997047824088	-0.2793366173729628	0.3577363221553716	64.92230907105713
4	2.0	perception	280	diff_vonmises	-0.0382425277226453	-2.1911354364196263	8.192303515136375	1.1566629866356684	0.2397293838929215	2.587199830742713	0.783408159758101	-0.4378447901398225	1.2212529498979234	45.92392522720738
5	2.0	wm	280	diff_vonmises	0.0026757496601281	0.1533091625589089	4.0800754444322616	0.5763832908139537	0.1485826597299719	2.0710159373596118	0.0676546742049986	-0.3213408952845262	0.3889955694895248	63.07510490197791
6	3.0	ltm	280	diff_vonmises	0.0159954909647089	0.9164741235174658	1.2796534001825512	54.90456320410069	1.238353935577596	55.57739310100776	0.1551701189443157	-0.2087128324461344	0.3638829513904502	76.33751644228116
7	3.0	perception	280	diff_vonmises	-0.0245862074053748	-1.4086859185612697	4.262624242885863	2.019876800383041	0.403260064767632	2.6769364039747865	0.9949617824131164	-0.3918668005939497	1.386828583007066	61.66848127047604
8	3.0	wm	280	diff_vonmises	-0.072937753109369	-4.179025420334041	2.3607856607623603	1.2346880106130016	0.589229715248138	2.1056786017866043	0.1485934978857996	-0.2425157802753302	0.3911092781611299	71.82296759502472
9	4.0	ltm	280	diff_vonmises	-0.1116438046716493	-6.39671881646845	1.0665106272460405	145.89877190463017	1.047370615599265	147.22137512105402	0.0615766392380479	-0.3221870385116929	0.3837636777497408	79.37533481939786
10	4.0	perception	280	diff_vonmises	-0.0943695520251099	-5.406977045579054	2.3527890360172017	2.768434943008885	0.3654564327628641	4.141510924924606	0.6551160085576302	-0.4992114146547243	1.1543274232123546	78.65778335138302
11	4.0	wm	280	diff_vonmises	-0.1695555035878849	-9.714814748801096	1.0534540599728934	259.736096604114	1.0423012803697522	261.2364791488146	0.0208197117256929	-0.3501464189829377	0.3709661307086307	78.39277105012607
12	5.0	ltm	280	diff_vonmises	0.0441822519054735	2.531456563567472	1.884123982175383	1.111380102903323	0.096588965398957	2.0544246567601	0.1936587958120106	-0.2836335823395841	0.4772923781515947	94.09100698106076
13	5.0	perception	280	diff_vonmises	-0.0415533430146606	-2.3808311793994754	2.670680116174612	1.9887080329793363	0.0651445319905995	2.8448665279898764	0.7353775137073936	-0.4193870590035452	1.1547645727109388	81.9644043409165
14	5.0	wm	280	diff_vonmises	-0.0372050874761	-2.131694488795571	0.6840082818355647	137.81217233850205	0.6674436147556998	138.82888575440532	0.1515690199004282	-0.297652953666482	0.4492219735669103	103.9415487766393
15	6.0	ltm	280	diff_vonmises	-0.1214847559507429	-6.960563791154384	0.4737405251358115	32.18551639905249	0.4270176819654758	32.95289639513317	0.0997459484900966	-0.253144415716438	0.3528903642065346	126.15199180594216
16	6.0	perception	280	diff_vonmises	-0.0711768787417575	-4.078134750817138	0.873496328725675	2.377855631823941	2.1340406828791378e-17	3.215887384989917	0.243553129927918	-0.3801638794812318	0.6237170094091499	133.99409401808225
17	6.0	wm	280	diff_vonmises	-0.1941518570697258	-11.124081994722482	0.5177251247297632	146.6345747497609	0.5057026872941061	147.40977817521156	0.137979519446759	-0.2666532184285834	0.4046327378753425	120.26850159877188
18	7.0	ltm	280	diff_vonmises	0.1208339649909307	6.923276215811877	0.8446161191964632	136.48533524929402	0.8281341814875918	137.31934331464043	0.1716677162003819	-0.2511498208748239	0.4228175370752058	94.15756490845396
19	7.0	perception	280	diff_vonmises	-0.0633347103400576	-3.62881159916888	0.8428078544673581	190.992849431385	0.8251894075846711	191.676018583553	0.4315826171505961	-0.3268293001170672	0.7584119172676633	98.31144580731096
20	7.0	wm	280	diff_vonmises	0.139557570201855	7.996059771666993	1.473910022808536	1.8466416297418995	0.4975712337717455	2.6348229549392603	0.1425111656929915	-0.2233677127595728	0.3658788784525643	87.79791462912627
0	1.0	ltm	378	diff_vonmises	-0.088307111250487	-5.059624775645135	2.61682519367384	0.451235429059488	5.902656905157336e-18	2.731572496693647	-0.1615972043069342	-0.4332862949949858	0.2716890906880515	85.02073894979324
1	1.0	perception	378	diff_vonmises	-0.0440631051417361	-2.524629956862678	14.284975112100197	0.7372688154933711	1.1961331226214917e-18	3.143149768529205	0.6008297383775947	-0.5002478225391387	1.1010775609167334	35.86214579828098
2	1.0	wm	378	diff_vonmises	-0.0112226041675963	-0.643007853949201	5.202796092897708	0.3822860528667705	7.041784024103217e-18	2.8155798750588192	-0.1095647915351366	-0.4481032072944559	0.3385384157593193	59.834664165798245
3	2.0	ltm	378	diff_vonmises	-0.1076504145761605	-6.167914418047597	3.231155720913883	0.6915152743922032	0.1078725054709993	2.238516086155581	0.0766596146066729	-0.3380405675533495	0.4147001821600225	71.479388176079
4	2.0	perception	378	diff_vonmises	-0.0506154833790357	-2.9000535756333155	7.302042910815888	1.1953373801495075	0.0938527440928681	2.7867386908141567	0.7788721200576791	-0.4477870437107975	1.2266591637684767	49.465110335643686
5	2.0	wm	378	diff_vonmises	-0.0319002022557291	-1.827746954866988	3.833023039457142	0.6347217360674057	0.0831137766701226	2.2680353387527865	0.0851669408104993	-0.3503664198426716	0.4355333606531709	66.69259139398702
6	3.0	ltm	378	diff_vonmises	-0.0457258881170128	-2.619900403592238	2.03070646871724	1.213586924395744	0.2276743621388549	2.1782805616270724	0.2020982852767931	-0.2756868061861417	0.4777850914629348	85.67570026259352
7	3.0	perception	378	diff_vonmises	-0.0328412835133399	-1.8816669391069485	3.5486194185311217	2.4168746772409104	0.2751184900319012	3.2967529371794595	1.061752890292636	-0.4660482627381634	1.527801153030799	68.24273452737384
8	3.0	wm	378	diff_vonmises	-0.1285520695885012	-7.365491035093184	2.4433744019262305	1.3379429457015768	0.3705257898934851	2.3566668876773	0.2528193153492906	-0.2964080217554966	0.5492273371047872	75.96348897248902
9	4.0	ltm	378	diff_vonmises	-0.1315635672751146	-7.53803714254954	2.641072757694616	0.8535850643797542	0.166944460366594	2.562030563825938	0.0409383603463227	-0.370000803840607	0.4109391641869298	75.85338469946944
10	4.0	perception	378	diff_vonmises	-0.1114838099112837	-6.387551791955294	1.7125369536803774	4.913900725078394	0.4840535175508114	6.658664367155672	0.6838259292049964	-0.6161609293837481	1.2999868585887446	85.74565278199375
11	4.0	wm	378	diff_vonmises	-0.1722780157366117	-9.870803204596232	0.9308836983415096	292.74702082734666	0.920288229278548	294.6122242366638	-0.0191909447563745	-0.4122638375763117	0.3930728928199372	82.33735347738155
12	5.0	ltm	378	diff_vonmises	-0.020404269272905	-1.1690785133859305	1.4790936900296134	1.2161897726646462	5.099393668025414e-15	2.1475817457350206	0.1805369640262555	-0.3146819496481139	0.4952189136743695	111.11498441097184
13	5.0	perception	378	diff_vonmises	-0.0350757973230405	-2.009695149666497	2.1790393648309285	2.425399557679799	0.115784610636918	3.1847968826529502	0.7502972732948124	-0.4344619750911406	1.184759248385953	88.86117863814843
14	5.0	wm	378	diff_vonmises	-0.065431904172741	-3.748971954602501	0.6493434594254721	170.8725549778551	0.6362252140150698	171.85496637580428	0.1581743331096419	-0.2984592845808453	0.4566336176904872	106.98227970126196
15	6.0	ltm	378	diff_vonmises	-0.117413279742435	-6.727285388030414	0.6788173576682219	1.3531917733202166	2.128068354664221e-17	2.132082864107471	0.0402665470496382	-0.2416713708714732	0.2819379179211115	142.97035205227274
16	6.0	perception	378	diff_vonmises	-0.071464936276835	-4.094639231834019	0.6575495445106829	3.2813084876703678	0.0289848963363707	4.039507903987034	0.2455253393504208	-0.3808728271508095	0.6263981665012304	142.29084277559497
17	6.0	wm	378	diff_vonmises	-0.1275554489468213	-7.308388878549305	0.4566267934422128	177.09597745415468	0.4479669932354584	177.88007200495653	0.0984470809538109	-0.25606803057833	0.354515111532141	125.8234970450745
18	7.0	ltm	378	diff_vonmises	0.1114524755830636	6.385756467194405	0.956549740551812	6.617168747314314	0.6274559389472317	7.627229195553219	0.1415078319518956	-0.280237526147399	0.4217453580992947	95.80395504327016
19	7.0	perception	378	diff_vonmises	0.043626628883612	2.4996217094145043	0.8184807073429063	256.119926766634	0.8035864169651861	256.97776830077646	0.4673104146731077	-0.3831056915116768	0.8504161061847846	99.23296124273634
20	7.0	wm	378	diff_vonmises	0.0250448984374564	1.4349669788000463	0.8533531727778699	57.81159407388239	0.8160348026511424	58.8233517506327	0.1014805051054708	-0.2625009464917163	0.3639814515971871	91.79148269867372
0	1.0	ltm	257	diff_vonmises	0.0020410063947199	0.1169410523766625	7.5478706452481985	0.1964843949717895	0.009364245623351	3.298623705627751	-0.3183814420720114	-0.5254794281100432	0.2070979860380317	48.89069762593351
1	1.0	perception	257	diff_vonmises	0.0057418250444982	0.3289823417522675	13.307172758160858	0.742440452952342	0.0856362854332565	3.9036917990998217	0.3941253323656467	-0.64773889621587	1.0418642285815167	36.60186638864337
2	1.0	wm	257	diff_vonmises	0.0063423764993069	0.3633914054932439	5.53099978533017	0.2884668318485143	0.0204685740457199	3.6997672916465394	-0.3370708201561591	-0.5881976331212062	0.2511268129650471	56.40912345532212
3	2.0	ltm	257	diff_vonmises	0.0172214999332315	0.9867192630589966	4.232578660957419	0.4022658385438116	4.59264809179424e-18	2.0392350541886684	-0.0056123909065087	-0.3244871434326087	0.3188747525260999	66.5028851265736
4	2.0	perception	257	diff_vonmises	-0.0202145647694338	-1.1582092459824025	7.91267897705775	1.3012354035924714	0.3168116476400898	3.1307242401349376	0.7684951154792103	-0.542376795746581	1.3108719112257914	46.08999924973344
5	2.0	wm	257	diff_vonmises	0.0271202395981171	1.5538752683556851	3.673146471841336	0.6820313178826807	0.145014522231987	2.736958672171824	-0.00058598387203	-0.4213254058782997	0.4207394220062697	65.61758292807826
6	3.0	ltm	257	diff_vonmises	0.070177984536904	4.020902328698955	2.991075541769498	0.7625201983788679	0.3984253150046302	1.7526178770834644	0.09911000314276	-0.2455040780278209	0.344614081170581	67.732196845132
7	3.0	perception	257	diff_vonmises	-0.0048137665413068	-0.2758085063781726	4.6295810134926265	2.046607565996519	0.3396877830185567	3.069615953940884	1.0362154766608325	-0.4664580130042446	1.502673489665077	59.65702501617483
8	3.0	wm	257	diff_vonmises	-0.0344715376144542	-1.9750736186346955	4.031115415846196	0.5773016355535917	0.1473668798453008	1.975963852467574	0.0832956200577031	-0.305582326485057	0.3888779465427602	63.60390938990668
9	4.0	ltm	257	diff_vonmises	-0.0192488395383023	-1.1028772660692725	0.7610286543255746	167.7136742854141	0.7448577386428221	169.83084320830304	-0.1028079841919762	-0.4326064308779394	0.3297984466859631	88.6523456044199
10	4.0	perception	257	diff_vonmises	-0.0398303643286038	-2.282111772497424	2.335885503467384	2.786405427104988	0.3029984878785353	4.757038971669036	0.5756832824268101	-0.6010369557513782	1.1767202381781885	79.30228667194785
11	4.0	wm	257	diff_vonmises	-0.0660950259499587	-3.786966033740289	0.778054696733969	260.4227502779324	0.766329176561805	262.8400069921493	-0.1353372979638436	-0.4887522763878138	0.3534149784239702	86.75442324272211
12	5.0	ltm	257	diff_vonmises	0.0194945975910791	1.1169581652747371	1.9762219812146928	1.1291960304037816	0.1375836981862971	2.511466651424318	0.1218290880849888	-0.3418391330208705	0.4636682211058594	88.81014199388432
13	5.0	perception	257	diff_vonmises	-0.0239643310384327	-1.3730550273565576	2.2870313745707285	2.4285140876023594	0.1380339524784536	3.804273982902084	0.665995148546492	-0.5197659430355615	1.1857610915820531	85.45486133573175
14	5.0	wm	257	diff_vonmises	0.0050400892857323	0.2887758444415676	1.5898238841314352	1.2055324490109087	1.1580118030628533e-17	2.871563021726302	0.0839092242828923	-0.434519576027514	0.5184288003104065	107.73818703982072
15	6.0	ltm	257	diff_vonmises	-0.1219496027456382	-6.987197550622065	0.501596534158277	56.79516574517496	0.466207620262057	58.01582952462331	0.0811881916052019	-0.345398103026481	0.4265862946316829	120.57925518923209
16	6.0	perception	257	diff_vonmises	-0.0308150205542387	-1.765570623366763	1.0306073764455477	2.359732416408991	2.9016626335188544e-19	3.664742114229799	0.2367207625174575	-0.4788768627382107	0.7155976252556682	127.3144256502864
17	6.0	wm	257	diff_vonmises	-0.0523632549292488	-3.000193509013563	0.4142914522126739	229.99373987186965	0.4047756852210165	231.39333030293727	0.0817025619623095	-0.4090738703968775	0.490776432359187	129.25787476823274
18	7.0	ltm	257	diff_vonmises	0.0604875701657084	3.465682483496527	0.8535626207402356	248.4198927393625	0.8427894111225164	249.9577034818588	0.0311655585572765	-0.3529674185607021	0.3841329771179786	87.91023945181922
19	7.0	perception	257	diff_vonmises	0.0076971111757589	0.4410119848139645	0.6356106876807559	205.08654915781864	0.6186397044883263	206.475701736566	0.2865281441765575	-0.4585533202730012	0.7450814644495587	109.33291277572938
20	7.0	wm	257	diff_vonmises	0.1057234789150809	6.057509137274487	0.7981319504756429	179.3435553915132	0.7845509656588824	180.99442955289504	-0.0312623301878076	-0.3552080782927653	0.3239457481049577	88.79462245297631
0	1.0	ltm	424	diff_vonmises	0.0077107716587425	0.4417946728350368	5.530908718154628	0.4231956579082733	0.011890784167719	3.632834689993912	-0.1979786056217409	-0.5766583063843174	0.3786797007625764	57.254906749958565
1	1.0	perception	424	diff_vonmises	-0.0369089088835885	-2.114724705462536	14.899268054111388	0.6217227387646987	1.421096849784368e-17	3.876505264883721	0.3321107268640247	-0.6169649748278926	0.9490757016919174	35.09718409131429
2	1.0	wm	424	diff_vonmises	-0.0187150779212498	-1.072294978146086	3.264907795967999	0.715073288645789	0.1017169000532989	4.190742196160362	-0.2451628884276807	-0.6465881097113872	0.4014252212837065	68.79166337327754
3	2.0	ltm	424	diff_vonmises	-0.0468107024397533	-2.682055685840611	2.156634766690517	1.5330452946205302	0.3972441711855888	3.2339202530289444	0.0912115924018284	-0.3993436053187691	0.4905551977205976	76.23689872988226
4	2.0	perception	424	diff_vonmises	-0.0415693945522343	-2.3817508647571453	6.371145244082853	1.210878212503076	0.1765799186731538	2.955476597191065	0.6363358830458152	-0.4783245795419582	1.1146604625877734	52.0186315894847
5	2.0	wm	424	diff_vonmises	-0.0067258401750611	-0.3853622557105337	3.4571408476832586	0.9559942831847345	0.2078666833871091	2.8378380478955374	0.1281265040938252	-0.4261288339014142	0.5542553379952394	66.92104363879693
6	3.0	ltm	424	diff_vonmises	-0.0532704236676922	-3.052170449032577	2.4139382242207104	1.3710931950584186	0.1937521391448038	3.10620400714107	0.197094203892873	-0.4278941111805524	0.6249883150734254	79.50522403128309
7	3.0	perception	424	diff_vonmises	-0.0373121415064797	-2.137828232916188	3.840200743556624	2.3052491394288346	0.1920399224818693	3.9419527974336144	0.9800260209809868	-0.5849561868980901	1.5649822078790772	66.30961653980162
8	3.0	wm	424	diff_vonmises	-0.0496260853245753	-2.8433652428542797	2.571332401597347	1.3818761397727404	0.2230914216344934	3.2994629387563386	0.1796779576177263	-0.4585532286842758	0.6382311863020022	76.19498169128852
9	4.0	ltm	424	diff_vonmises	-0.1218573956351889	-6.981914472352227	2.14086163323958	1.127986106854756	2.297405057794052e-19	3.485389555972485	0.0515515567634312	-0.5463390540447217	0.597890610808153	93.88397385128128
10	4.0	perception	424	diff_vonmises	-0.0702393288917904	-4.0244171013309	1.6143184070843426	4.559610719981492	0.3213807809295076	6.724616168288942	0.626561071495557	-0.7050822255763551	1.331643297071912	91.6694259971205
11	4.0	wm	424	diff_vonmises	-0.1244559010274475	-7.13079786437063	0.7703023816733829	298.0551129170357	0.7566843693285263	300.63328050264016	0.0134933682965936	-0.5777756116527399	0.5912689799493336	92.07530997737604
12	5.0	ltm	424	diff_vonmises	-0.0507882572360131	-2.909952788448316	1.2121073590145937	2.479263468627575	0.1590559918693407	3.610176626513509	0.2761229889012314	-0.4032764051399131	0.6793993940411446	110.46993235488554
13	5.0	perception	424	diff_vonmises	-0.0300734385322775	-1.7230811033456104	1.1176880142124617	9.198992073904092	0.5938489797358718	10.246863068550274	0.6377794448551795	-0.4878428247466775	1.125622269601857	97.40240547811598
14	5.0	wm	424	diff_vonmises	-0.0507148871517036	-2.9057489922748645	0.690104243948384	243.67567807311036	0.6775213435415842	244.8294746061748	0.2605798277507034	-0.3787661975580718	0.6393460253087753	104.88573706204596
15	6.0	ltm	424	diff_vonmises	-0.0691902311470609	-3.964308228261205	0.7673426535834382	2.0851431106101503	5.075371446766681e-21	2.9255318125454477	0.154525265902388	-0.3319584696985208	0.4864837356009088	138.84726043893846
16	6.0	perception	424	diff_vonmises	-0.0038551193938947	-0.2208820707892014	1.2505808641892624	2.112318285064868	3.36463531482736e-19	2.984049189575615	0.3455845051991353	-0.4076515090675237	0.753236014266659	118.84018052122047
17	6.0	wm	424	diff_vonmises	-0.0581580028130274	-3.332208106096445	0.4771132999261937	259.89424214965123	0.468454136967563	260.7456972446902	0.213663529612667	-0.3402177170563796	0.5538812466690466	125.51739950213184
18	7.0	ltm	424	diff_vonmises	-0.1002259218856905	-5.742522321857937	0.7389861261180813	203.10304886177832	0.72245132003968	204.81625844097425	0.1459509700252184	-0.4422053292628227	0.5881562992880411	97.92117951808804
19	7.0	perception	424	diff_vonmises	0.0702200305881589	4.023311389981052	0.7185930295402769	264.4279194433962	0.7011547896960915	266.0253632571556	0.4243385044618435	-0.5469294837246643	0.9712679881865078	103.50639203278436
20	7.0	wm	424	diff_vonmises	0.0520068776263932	2.97977459364568	0.8208030500966086	149.92527558107378	0.7996204596383234	151.62639227900638	0.0900223622401483	-0.4112475009582077	0.5012698631983561	91.5491735620668
0	1.0	ltm	234	diff_vonmises	-0.2406580984460389	-13.788693346601905	2.2162267800156688	0.3743012170525762	0.0083559309404025	1.176043293918208	0.016648658958371	-0.1831712026583299	0.1998198616167009	91.54595163421985
1	1.0	perception	234	diff_vonmises	-0.0589764335322081	-3.3791007321293542	15.984489450955456	0.6700412426248726	1.576813042679209e-24	1.7334521205183633	0.7838514221162831	-0.2758874735936115	1.0597388957098943	33.884060182547984
2	1.0	wm	234	diff_vonmises	0.053608544648023	3.0715433541703563	2.087998009181224	0.5182892919102833	3.404344796666844e-45	1.3980270454244106	0.0519105529960581	-0.2182879417408922	0.2701984947369503	95.03680396014984
3	2.0	ltm	234	diff_vonmises	0.04838577331288	2.772300599304756	5.942280389345328	0.2785369859905698	3.124577201109138e-16	0.6960105156135745	0.1538629588381935	-0.1107716888843959	0.2646346477225895	55.90525500545076
4	2.0	perception	234	diff_vonmises	-0.0189205240769109	-1.0840661757826535	7.518867325271291	1.2322749025132853	0.536048545412201	1.5099994740018212	0.9412720409513844	-0.2638665065694788	1.2051385475208634	47.27513909360604
5	2.0	wm	234	diff_vonmises	0.0290007521311718	1.6616206998211742	4.886186729550896	0.4144389251967225	0.334696802761444	0.8428454632649303	0.172632117144019	-0.1327799432420591	0.3054120603860781	57.3632366751165
6	3.0	ltm	234	diff_vonmises	0.0413408226832547	2.3686546613491988	1.7759401998786368	94.7470530860577	1.758954387756297	94.94050946024934	0.1728970522802626	-0.1079589330391268	0.2808559853193895	67.31549796339723
7	3.0	perception	234	diff_vonmises	-0.0233785143132121	-1.3394902014332413	4.38514932148278	1.8825043532652528	0.5488053699902667	1.928112020767199	1.0279416599425155	-0.2729238177679808	1.3008654777104964	60.63680545965312
8	3.0	wm	234	diff_vonmises	-0.0873883284031961	-5.006982396206358	1.724514762690152	59.27045876423999	1.6909151121302937	59.56582814261415	0.1951902751806287	-0.1411555736701366	0.3363458488507653	67.80484776958502
9	4.0	ltm	234	diff_vonmises	-0.1444066708730962	-8.273892774563171	1.6416197148128444	115.75889514695302	1.6226926490267808	116.27254106653976	0.1390883022334037	-0.1798744667499097	0.3189627689833134	66.89950074115507
10	4.0	perception	234	diff_vonmises	-0.1017946359864785	-5.832403019095752	2.823462650112156	2.208335240245328	0.3104009544130291	2.6821136959766223	0.828488201086631	-0.344714664082613	1.173202865169244	75.41106750460136
11	4.0	wm	234	diff_vonmises	-0.1207126786684816	-6.916327021422879	1.409785386625817	204.3317486967954	1.3969263353813517	205.06405526107855	0.1647986330677184	-0.2324473559288655	0.397245988996584	71.97279800376333
12	5.0	ltm	234	diff_vonmises	0.0898003715928131	5.1451822909746845	0.8353973642822611	92.51725681675195	0.8183424769997336	92.96679258446238	0.1631611478985064	-0.1648403561768709	0.3280015040753774	96.844893008501
13	5.0	perception	234	diff_vonmises	0.0053720388982899	0.3077951562521226	2.141370557450803	2.056591973045279	0.2291894920546293	2.468037685379723	0.6179452745610348	-0.3019420470558162	0.9198873216168508	86.75266052172813
14	5.0	wm	234	diff_vonmises	0.107811858889978	6.177164495855726	0.6185401975921403	66.74432076011693	0.5964105651972446	67.22551976029935	0.1522943832738654	-0.1896671005162664	0.3419614837901319	112.82171274999844
15	6.0	ltm	234	diff_vonmises	-0.2664244274302769	-15.26499525094435	0.4604858235289297	133.19723839164516	0.4493759782320976	133.74209243767265	0.1451747956522204	-0.2261178790185294	0.3712926746707499	127.23078346656544
16	6.0	perception	234	diff_vonmises	-0.0102845502612801	-0.5892613241615184	0.7266315202710404	293.78124808554355	0.7148287485699959	294.4583804802912	0.4667995243618179	-0.3653475803003694	0.8321471046621873	106.06281398394316
17	6.0	wm	234	diff_vonmises	-0.1343708060068794	-7.698880073965321	1.0668259187875553	1.683468542025179	5.723051058836263e-15	2.2788462049544025	0.2337755339567258	-0.2920636286910182	0.5258391626477441	125.7286120210851
18	7.0	ltm	234	diff_vonmises	0.1331397407045876	7.628345227839006	1.022607871030097	157.63923037533576	1.0077602835623771	158.4049608855371	0.1793712055707743	-0.2338770043594475	0.4132482099302219	85.56447565859489
19	7.0	perception	234	diff_vonmises	-0.0385515490912614	-2.208841056620687	2.3483342165121206	1.4856834712794225	1.460592712223581e-17	2.3095779897507542	0.4762509088161413	-0.3598800184480396	0.8361309272641809	89.74270903442132
20	7.0	wm	234	diff_vonmises	0.3288969318610993	18.84440609044281	3.110715943385245	0.5618479225587474	0.0717174588065982	1.2736441166762995	0.1581415908932552	-0.1919061369505629	0.3500477278438181	75.03390800123248
0	1.0	ltm	113	diff_vonmises	-0.1237739711023117	-7.0917261577366775	3.969461307340184	0.1710847169775025	8.444345523954118e-20	1.6581430441372358	-0.1329120486751585	-0.2638549517066952	0.1309429030315366	68.73045140612112
1	1.0	perception	113	diff_vonmises	-0.0240682406715384	-1.379008610784268	14.393895092150744	0.7039781571885831	0.081300377061151	2.402691054221725	0.6415191212962317	-0.3977079082277227	1.0392270295239543	35.39362915664529
2	1.0	wm	113	diff_vonmises	-0.3669235221708457	-21.023169224464347	0.0002879961203406	2122.6679123879203	1.116997253004526e-23	2124.308351457209	-0.1637823707571897	-0.358371592447952	0.1945892216907623	176.16996380594645
3	2.0	ltm	113	diff_vonmises	0.087983598432651	5.041088856564747	5.9876107818475335	0.2563865182699078	1.518058220557811e-26	1.0587848702866738	0.0760674333003172	-0.1685093053306853	0.2445767386310026	55.68636769351588
4	2.0	perception	113	diff_vonmises	-0.0085393393810818	-0.4892681063658488	7.7244140802654355	1.369857029270274	0.592292957387061	2.101368261966722	0.9372685084547348	-0.3813065314566226	1.3185750399113574	46.01954154921839
5	2.0	wm	113	diff_vonmises	0.0588893788087639	3.3741128638893216	4.463873951807398	0.4198877421253309	0.2008617698407649	1.4093643616502187	0.071135132631237	-0.2215588517567354	0.2926939843879724	59.81757494084283
6	3.0	ltm	113	diff_vonmises	0.1171132493574328	6.710094913244101	1.7730497535725118	41.0594753847439	1.7325547837778237	41.41074721271376	0.1088648785128576	-0.1312635039596204	0.240128382472478	64.74974581201158
7	3.0	perception	113	diff_vonmises	-0.0049941391351657	-0.2861430947461109	4.958813653183702	1.8359065768508236	0.5499085259349812	2.0910561286682694	1.04936034232909	-0.3161012168784801	1.36546155920757	57.085880197276566
8	3.0	wm	113	diff_vonmises	-0.0306815237976305	-1.75792182263443	4.177534044442166	0.4874466106805715	0.4777165827464174	1.1056549273497596	0.1155195139972306	-0.1714136185533521	0.2869331325505827	58.747688325702825
9	4.0	ltm	113	diff_vonmises	-0.0942868128099038	-5.402236437747519	1.3192677090278089	140.83403681053778	1.3034871328539046	141.78293520686984	0.0254046597473021	-0.2407400017143501	0.2661446614616523	70.22202332918707
10	4.0	perception	113	diff_vonmises	-0.0589189860589681	-3.37580923436901	3.016773104322159	1.977684141923648	0.2528051851326719	2.9558513456920443	0.7031518318570844	-0.4054521316729565	1.1086039635300409	73.27403750205139
11	4.0	wm	113	diff_vonmises	-0.0822872928519967	-4.714714587976441	1.2213851000849123	231.32692449340027	1.2092224089241534	232.5684256050699	0.045703669309745	-0.3097872211625478	0.3554908904722929	73.42763439819504
12	5.0	ltm	113	diff_vonmises	0.0868440081504582	4.9757951430209815	1.3439054876846976	2.477640807901778	0.6284164461479306	3.232482520004901	0.1286598316315974	-0.2120377437435617	0.3406975753751592	86.70698494997069
13	5.0	perception	113	diff_vonmises	-0.0069519190373317	-0.3983156203557593	2.48963350986788	1.8909477801965564	0.1256510184060691	2.583349743297481	0.6473019513386645	-0.3591533293186972	1.0064552806573617	83.12736014009087
14	5.0	wm	113	diff_vonmises	0.1400561152864704	8.024624300912448	1.579215178124848	0.8805027246014548	2.1435782247473335e-16	1.7955695097727695	0.1077184029134599	-0.2690533369960042	0.3767717399094642	107.97805533258553
15	6.0	ltm	113	diff_vonmises	-0.2156065397372102	-12.353344762361818	0.5359761329604448	140.65437495723475	0.5235698408607081	141.39529923841812	0.1414770398552036	-0.2569841369119885	0.3984611767671921	118.60080676179976
16	6.0	perception	113	diff_vonmises	-0.0180458714917935	-1.0339522741152216	0.6687761202099747	210.5212892818868	0.6532145196541339	211.41852213839724	0.3757879455962154	-0.3853907338431277	0.7611786794393431	109.10090395439886
17	6.0	wm	113	diff_vonmises	-0.0458433097089671	-2.626628165234928	0.54812320463093	6.116765361409989	0.2458641772358819	6.994208486217041	0.1622798149558197	-0.3347964752081002	0.4970762901639199	133.768477971905
18	7.0	ltm	113	diff_vonmises	0.1170426511656579	6.7060499348141445	1.0620351406262425	189.81721849988008	1.0491399253022298	190.83791225791128	0.1023171222375367	-0.2658622196188496	0.3681793418563863	81.12330806518187
19	7.0	perception	113	diff_vonmises	-0.039157838004723	-2.243578852527607	1.7997484517404765	1.556627491399554	1.4163620974664981e-16	2.575402814480709	0.3433530103286477	-0.3892957108504992	0.7326487211791468	101.92202979640176
20	7.0	wm	113	diff_vonmises	0.2884652637887443	16.527842151223023	1.4500453015268868	1.4559497557166492	0.429105489593424	2.529561947261547	0.0270152899001555	-0.2447050401684727	0.2717203300686283	86.38353631663392
0	1.0	ltm	211	diff_vonmises	-0.0433378443753054	-2.4830755758997745	4.501122412989517	0.4267001891121809	4.168745303231359e-21	2.704575602425732	-0.0807539786083755	-0.4304035035852606	0.349649524976885	64.44481719552425
1	1.0	perception	211	diff_vonmises	-0.0688025077568101	-3.942093314381332	16.77673882950767	0.6207410406221817	8.179255651938519e-19	3.061150141019256	0.5193442969188747	-0.4871971764896644	1.0065414734085392	33.060889449588274
2	1.0	wm	211	diff_vonmises	-0.036335751386884	-2.0818851999050856	4.624136525119172	0.4591053332657702	0.0041253298964749	2.9702485309961206	-0.092878091722637	-0.4713857360591006	0.3785076443364636	63.22355009444888
3	2.0	ltm	211	diff_vonmises	-0.072891295680067	-4.176363605708012	2.2492074104086885	1.3620430697123966	0.4062979651169719	2.6915125125690684	0.1366712046859514	-0.3318996384478631	0.4685708431338145	75.83877114825316
4	2.0	perception	211	diff_vonmises	-0.0536057484435578	-3.071383143455849	6.628395870236704	1.1383208757711112	0.1608489347911348	2.520708689603186	0.6771843047105279	-0.4072792632549178	1.0844635679654455	51.32124478365094
5	2.0	wm	211	diff_vonmises	-0.0328730834147287	-1.8834889392454608	3.5274066400081576	0.8505401043288874	0.2255473105953126	2.313916072035228	0.1545699150024979	-0.3464733723725024	0.5010432873750004	66.37892878631664
6	3.0	ltm	211	diff_vonmises	-0.0727798071058999	-4.169975780944304	1.6575404805545022	2.9688521290198797	0.5912586269978208	4.258276387705177	0.2426422353550625	-0.366232343708885	0.6088745790639476	81.93839345863893
7	3.0	perception	211	diff_vonmises	-0.0535167206466229	-3.0662822264321274	3.7223638030980815	2.4223476138313904	0.2702348178129564	3.697453288995505	1.033214592593536	-0.5345924603992046	1.5678070529927406	66.48233610275332
8	3.0	wm	211	diff_vonmises	-0.0929158908190198	-5.323688393628189	1.8050363731170735	2.7503185864891786	0.6050985935684103	4.207319696497482	0.2118909959901378	-0.3936762491300933	0.6055672451202312	78.48454125127316
9	4.0	ltm	211	diff_vonmises	-0.1745585060532682	-10.0014656749611	2.445340643460311	1.1843853640130162	0.1529304193939102	2.803158578740175	0.1721768102374364	-0.3950540235691556	0.5672308338065921	80.32884645109243
10	4.0	perception	211	diff_vonmises	-0.0991109251276678	-5.678637713452466	1.8958303998281307	3.635167237190882	0.2858626086484209	5.231705078420166	0.7296068532309983	-0.6015589260679158	1.3311657792989142	88.0224990389371
11	4.0	wm	211	diff_vonmises	-0.1739160007723187	-9.964652834047833	0.969264444462645	421.12615067018805	0.9599089087041882	422.98707610156674	0.1256727777333708	-0.460298663335287	0.5859714410686578	84.04072711271368
12	5.0	ltm	211	diff_vonmises	-0.0243288636808222	-1.3939412092602272	0.6586066186444967	94.6262123612556	0.6299184690331904	95.41456912199482	0.3018888386766996	-0.3286412052809462	0.6305300439576458	110.20831031906133
13	5.0	perception	211	diff_vonmises	-0.0228514895543309	-1.309293907050448	1.428393879685354	4.229600899343785	0.4090148736731535	4.981145550570091	0.6336625176690565	-0.4145918047659066	1.0482543224349632	95.89338663160969
14	5.0	wm	211	diff_vonmises	-0.0699672644981042	-4.008828959816891	0.7184073550210162	225.80564700700285	0.7067006085225064	226.6497496860198	0.2628319709772881	-0.3066545023966078	0.569486473373896	103.91495891861902
15	6.0	ltm	211	diff_vonmises	-0.1218637025598678	-6.982275832518031	0.6667314657921829	2.1437165904296567	8.759490029380593e-22	2.789369579769141	0.1524877140074873	-0.2867451661550623	0.4392328801625496	143.54489459750033
16	6.0	perception	211	diff_vonmises	0.0094035740401439	0.5387851048390343	1.079812553482933	2.8781574499393203	0.1747011946050502	3.6018310702727185	0.3492570523864895	-0.3592497913479154	0.708506843734405	115.75257820696032
17	6.0	wm	211	diff_vonmises	-0.1040334547824449	-5.960677887199183	0.4657933695462271	195.5138638587871	0.4557840039768033	196.16827160381132	0.2072962207088124	-0.2910170291512308	0.4983132498600433	127.35163278310564
18	7.0	ltm	211	diff_vonmises	-0.0539175218885954	-3.089246446020752	0.8470590031724629	170.51590643706035	0.8285609860544726	171.6889668400643	0.2394608229531911	-0.3523326273071756	0.5917934502603668	94.04322602170242
19	7.0	perception	211	diff_vonmises	0.0392855071880225	2.2508937579045507	0.7286045935249297	137.85610084913242	0.6988925097605997	139.02301381120452	0.4493065694879163	-0.46408897774152	0.9133955472294364	104.6264963946998
20	7.0	wm	211	diff_vonmises	0.0738401629490845	4.230729695540819	0.8506726506735377	84.49955083796463	0.8192769133361929	85.65427814786749	0.1515112877739888	-0.3134944933617341	0.4650057811357229	92.63349942547538
0	1.0	ltm	332	diff_vonmises	0.0125092143916506	0.7167251896658915	4.662836279671191	0.3105468932516657	4.3749582597929626e-21	3.3605354187853016	-0.2754426323058487	-0.5348227060578263	0.2593800737519776	63.28380314723199
1	1.0	perception	332	diff_vonmises	-0.0103605200446606	-0.5936140721197443	13.147136774728828	0.7156341883765936	0.0282704181549752	3.819034598313088	0.3995219271161269	-0.6149200795785993	1.0144420066947262	37.16497341474968
2	1.0	wm	332	diff_vonmises	-0.0014790455421549	-0.0847430672731184	5.121655100423871	0.3715941155688021	0.0114052417077973	3.62711742263648	-0.2575037153269562	-0.575435534417232	0.3179318190902758	59.404085012076905
3	2.0	ltm	332	diff_vonmises	-0.0438396612134652	-2.511827562814934	3.231553810272535	0.6961757412468846	0.1123082497789093	2.5507590409080185	0.0227395888219228	-0.3865755485085799	0.4093151373305027	70.82842515254643
4	2.0	perception	332	diff_vonmises	-0.0307770795974305	-1.763396766670965	7.2047679913776665	1.2603150121883815	0.1656603306158669	3.2197471387363343	0.7237495786294262	-0.5270688648767776	1.250818443506204	49.129326646143625
5	2.0	wm	332	diff_vonmises	0.012588765431717	0.7212831285175699	3.743785649407384	0.7203531902178029	0.1125173358776288	2.783417680457642	0.0398981564847471	-0.4289726009810543	0.4688707574658015	66.24460205091208
6	3.0	ltm	332	diff_vonmises	0.0076302887771654	0.4371833433976153	2.702801639262397	0.8783201492955822	0.1421347634813347	2.192950599462041	0.1414237255665397	-0.3166874727498073	0.458111198316347	77.13593551370064
7	3.0	perception	332	diff_vonmises	-0.0161829620737651	-0.9272154268470194	4.029073390679665	2.19218123489782	0.2087510653783519	3.472468746181108	1.018546995840175	-0.5166404369175882	1.535187432757763	64.84711314970968
8	3.0	wm	332	diff_vonmises	-0.0641298921143773	-3.674372158783118	3.051890439728236	0.911131842359352	0.1513467692358525	2.422151778035101	0.1566475412209639	-0.3566804621934603	0.5133280034144243	72.65640916337705
9	4.0	ltm	332	diff_vonmises	-0.0638131869759539	-3.6562262910013543	2.2253179904613867	0.7953623462378847	0.0538749457175999	3.1839178954983205	-0.0969025310158515	-0.4778395415075971	0.3809370104917456	86.42853512221814
10	4.0	perception	332	diff_vonmises	-0.0705088038715277	-4.039856880354221	1.6648819253312608	4.707414103181868	0.4179506060814683	6.988071957147566	0.5546163347982425	-0.69068617165494	1.2453025064531824	87.08970501003714
11	4.0	wm	332	diff_vonmises	-0.093175993466939	-5.338591177594136	0.7320843277404128	284.2176650273462	0.7209906634097866	286.79923751693013	-0.143387895170747	-0.5203343415340456	0.3769464463632985	89.60949167722666
12	5.0	ltm	332	diff_vonmises	-0.0255367849214233	-1.4631499983308769	1.767824317471926	1.1245208161784497	4.995704416516533e-19	2.3752042332882293	0.1602060800748319	-0.3623396955479211	0.5225457756227531	102.76360077848648
13	5.0	perception	332	diff_vonmises	-0.0410299716216996	-2.3508442074649296	1.9766132165121413	2.9237392720615887	0.1986084650153666	4.082944768794127	0.7127401582628058	-0.5081216017778714	1.2208617600406773	89.63988773593456
14	5.0	wm	332	diff_vonmises	-0.0304185725817298	-1.7428558277454849	0.6263321248711332	135.92391154311773	0.6067140194783339	137.29186220214893	0.1404600821680119	-0.3809816517998659	0.5214417339678779	107.70819127740776
15	6.0	ltm	332	diff_vonmises	-0.0799287240704377	-4.579578551101798	0.977559433695224	1.2379109195481686	2.3821394110764232e-14	2.24886834753405	0.059817542091786	-0.2987858444058492	0.3586033864976353	129.47984659268144
16	6.0	perception	332	diff_vonmises	-0.0708541675783592	-4.059644763152656	0.8077977277413985	2.7141492466009303	5.49842462800483e-22	3.724154969847719	0.2354600798319669	-0.4280987521644426	0.6635588319964095	136.96713522981736
17	6.0	wm	332	diff_vonmises	-0.0542201743140411	-3.106587152658189	0.4643636592210263	234.9545618725882	0.456298023457351	236.0231953745088	0.096874486592327	-0.3235209490843047	0.4203954356766317	124.1123702078841
18	7.0	ltm	332	diff_vonmises	0.035442609280448	2.0307119267008744	0.7733041081924473	157.59417402981285	0.7559422683696795	159.16155331162955	0.0597073459182979	-0.3714043944170484	0.4311117403353464	93.73056181553866
19	7.0	perception	332	diff_vonmises	0.0472811200884524	2.709008631719541	0.7390039512353551	319.1323610482528	0.7258507443365989	320.5160366547639	0.4004259145901301	-0.4833334594511065	0.8837593740412366	102.18359932457592
20	7.0	wm	332	diff_vonmises	0.0193446690990674	1.1083678954537068	0.8281097281238591	108.07646464175832	0.8034405266699927	109.67931095325292	0.0213333147435719	-0.3636579087472071	0.3849912234907791	89.36247195109738
0	1.0	ltm	90	diff_vonmises	0.0083174737769286	0.4765561436287491	4.358448938130529	0.2705455287559426	2.3383511033850488e-17	2.649842525287033	-0.2038331203541264	-0.4216998343309711	0.2178667139768446	65.51783589958464
1	1.0	perception	90	diff_vonmises	-0.0045428645221566	-0.2602869640192933	12.683399778731475	0.694496286458658	0.0393634871864666	3.2212360274757903	0.4434568289966234	-0.5209460928481722	0.9644029218447956	37.78754976354713
2	1.0	wm	90	diff_vonmises	0.0591901653025544	3.3913466605180527	3.710997970838457	0.4037089400302813	2.4307556221681508e-17	2.912059315760648	-0.1656110419706837	-0.4632904985630454	0.2976794565923616	71.15064708041709
3	2.0	ltm	90	diff_vonmises	0.0657343849712757	3.76630282774229	3.8326739263697327	0.5112095930167219	0.1377387505807037	1.7180959636514694	0.0716065569733475	-0.2639637771758624	0.33557033414921	65.32972005433561
4	2.0	perception	90	diff_vonmises	-0.0036999213805493	-0.2119898796356934	6.830647744613706	1.355284180781965	0.3550800579268782	2.504120568032904	0.8342306066556645	-0.422225359282486	1.2564559659381505	49.523395214105165
5	2.0	wm	90	diff_vonmises	0.0630898922804506	3.6147845576048168	4.0897300367247365	0.6289556302069906	0.1860840866123675	2.0016987327940585	0.1089804660790253	-0.3096489108196164	0.4186293768986417	62.59480445974416
6	3.0	ltm	90	diff_vonmises	0.061343654189125	3.5147324849468764	3.4516040752119657	0.5870395524304695	0.2583579434211752	1.4101401778100409	0.1302500422157524	-0.2079621868475527	0.3382122290633051	66.8839810148076
7	3.0	perception	90	diff_vonmises	-0.00033223218045	-0.0190355017582178	4.722208163029874	1.7880031393403777	0.2321326629115455	2.5566904413276714	0.997405896732958	-0.3895002797857787	1.3869061765187367	60.24912417895501
8	3.0	wm	90	diff_vonmises	-0.0205253804223796	-1.176017671102802	3.946242945588014	0.6011831031539313	0.159646170409771	1.6471192709791234	0.1532376158003504	-0.251770912667745	0.4050085284680954	64.66850075629034
9	4.0	ltm	90	diff_vonmises	-0.0992551976411052	-5.686903919572173	1.8016730861940315	1.2258415335825776	0.3546752771819926	2.8943800573441503	-0.043027124792227	-0.3492094494448566	0.3061823246526295	79.8697347707776
10	4.0	perception	90	diff_vonmises	-0.0546449669432137	-3.130925977478046	2.221444356447004	2.8098024651992137	0.2578949163623273	4.377092614176527	0.6572147643827894	-0.549239852130788	1.2064546165135774	82.88527167335053
11	4.0	wm	90	diff_vonmises	-0.0440998104026646	-2.526733013399805	0.9488715823189252	315.6935791204023	0.9382686378181544	317.6346178885147	-0.0046458401990605	-0.435002790635508	0.4303569504364475	81.97055638870947
12	5.0	ltm	90	diff_vonmises	-0.0174185791608092	-0.998011071028898	1.569024856743482	1.2319078891515003	0.1221106055219376	2.235719707999086	0.1478261197396559	-0.2899809139880823	0.4378070337277382	100.24133384699604
13	5.0	perception	90	diff_vonmises	-0.020260984990089	-1.1608689287100122	1.6304617905410732	3.6268195414616544	0.3778047958689062	4.523701982471537	0.6386030587865907	-0.4325550976949238	1.0711581564815145	91.75260923146718
14	5.0	wm	90	diff_vonmises	0.0811834397286929	4.651468462808799	1.2216608879063768	1.8517460517469813	0.1399660191680147	2.951219118452859	0.1718179631651779	-0.3447271174811777	0.5165450806463556	110.417947274295
15	6.0	ltm	90	diff_vonmises	-0.1127597569625857	-6.460658172877063	0.4749458315405158	195.7684986328722	0.4650237725323372	196.6867534647898	0.1406602467266822	-0.3118551450914815	0.4525153918181637	124.399386725162
16	6.0	perception	90	diff_vonmises	-0.0364942277453224	-2.0909652263962046	0.6200807943442773	254.252459524816	0.6063789965239019	255.1871897381941	0.4108286367480502	-0.4283516096105586	0.8391802463586089	113.46949837878604
17	6.0	wm	90	diff_vonmises	0.0011322128015058	0.0648710150369678	0.4756064477909734	162.62868076045132	0.4606869748937942	163.6216486366386	0.213382820881435	-0.3758898213876946	0.5892726422691297	125.59702512536894
18	7.0	ltm	90	diff_vonmises	0.0335268945076549	1.920949555468969	0.8512726763441839	207.28647052134525	0.8372578247085073	208.97549946200016	0.0295416225562803	-0.3859501197081414	0.4154917422644217	87.97661256310494
19	7.0	perception	90	diff_vonmises	0.0380376863172209	2.1793988884192808	1.9845900055383612	1.8693751590421508	4.063833061945921e-13	3.483704097541905	0.4054255404346502	-0.5363173906999864	0.9417429311346366	97.373500328024
20	7.0	wm	90	diff_vonmises	0.1523053758619093	8.726455234041088	0.7064995756180575	76.52932000982759	0.6752381221438698	78.244880129874	-0.0242905655306309	-0.3733641524327122	0.3490735869020813	95.77418295369682
0	1.0	ltm	188	diff_vonmises	0.006429998456872	0.3684117738544011	4.492744472247327	0.3306383215960503	5.209416936601188e-17	2.6127190777171503	-0.1451134817923737	-0.4157932527803236	0.2706797709879498	64.50279867012185
1	1.0	perception	188	diff_vonmises	-0.0099171313039213	-0.5682097685917639	11.546634836471911	0.7408635931551233	0.0196247706664338	3.1888733647911525	0.475141742153062	-0.5105057165779318	0.9856474587309938	39.7510331333805
2	1.0	wm	188	diff_vonmises	0.029028827332008	1.663229290338072	4.750861156244575	0.4174860049719804	1.5169837687774373e-17	2.8003350050051554	-0.0934515877326574	-0.4456608339329949	0.3522092462003375	62.68083802169412
3	2.0	ltm	188	diff_vonmises	0.0003602410397024	0.0206402911823548	2.520868910627261	1.2241138835152483	0.5047435906118035	2.42487757099381	0.1245141296881664	-0.3062617031656224	0.4307758328537888	70.53302888285984
4	2.0	perception	188	diff_vonmises	-0.011419945396242	-0.6543146734745222	6.396732932845128	1.3627066623796125	0.2703130019546637	2.4983642392385352	0.8340275042064018	-0.4083664560108306	1.2423939602172325	51.62949202455951
5	2.0	wm	188	diff_vonmises	0.0471726856681075	2.702795797079831	4.145521115674704	0.6406215981944997	0.168029882865502	1.895501989441015	0.1478288838323267	-0.2926011695770444	0.4404300534093712	62.86359995315925
6	3.0	ltm	188	diff_vonmises	0.0458337506059552	2.6260804689764163	3.1476387645192605	0.6380090177904442	0.1013682516090604	1.4655307138807214	0.1719270079319532	-0.218505957271027	0.3904329652029803	73.68799328591223
7	3.0	perception	188	diff_vonmises	-0.0029033935763827	-0.1663521981921239	4.695197139476898	1.7139211156803933	0.1555679718183861	2.4841361644563964	0.9779031294556048	-0.3798482545837271	1.357751384039332	61.138346131153696
8	3.0	wm	188	diff_vonmises	-0.0296968548263042	-1.7015044463599407	3.196569956229628	0.7960163771986132	0.2100330098942136	1.7051505260550608	0.209290847460296	-0.2468259345630928	0.4561167820233888	70.69812759309895
9	4.0	ltm	188	diff_vonmises	-0.1598882780339459	-9.160923524959372	2.6329655894635917	0.7278126420064411	0.1313301617642147	2.407050411119981	0.0071632459876765	-0.3527935173769958	0.3599567633646723	76.85715859197106
10	4.0	perception	188	diff_vonmises	-0.0635356608380797	-3.6403252145965945	2.0867703439655463	2.8396078953560338	0.2023374088740004	4.576380501187039	0.6202330267225487	-0.5859450665582747	1.2061780932808237	86.50809266002858
11	4.0	wm	188	diff_vonmises	-0.0757787108484391	-4.341800308557792	0.95602490486044	326.6122834418637	0.945620901084778	328.48493711562656	0.024660164413035	-0.4292680714670425	0.4539282358800776	82.44634048495874
12	5.0	ltm	188	diff_vonmises	-0.0502528788382051	-2.8792778658114444	1.5093204203851338	1.2164740851408349	4.156273574201151e-13	1.8545614407576916	0.2337364240601824	-0.2693164246146598	0.5030528486748422	110.1621956899733
13	5.0	perception	188	diff_vonmises	-0.0483740864156381	-2.771630989417196	1.7854285281278652	3.125926749162013	0.3125220954033003	3.5361708505378213	0.7544585773270733	-0.3692187782744399	1.1236773556015134	91.7151831815774
14	5.0	wm	188	diff_vonmises	0.0511311205857791	2.929597411339628	0.9902908857586578	3.948409600985164	0.443659869991817	4.540439611212748	0.2692446240323813	-0.2573087337099727	0.5265533577423541	105.91220822548723
15	6.0	ltm	188	diff_vonmises	-0.0452359548075044	-2.5918292927145314	0.4366973107685357	79.38063754818754	0.4193318591329354	79.75425728025547	0.1677722301416118	-0.2026982214748462	0.3704704516164581	131.5871041492148
16	6.0	perception	188	diff_vonmises	-0.0677281448387811	-3.880536853512907	1.0201033387638605	2.7284459799695577	0.1101190639524219	3.0652796979334496	0.3997051134644008	-0.3131092243972004	0.7128143378616012	122.23630803351276
17	6.0	wm	188	diff_vonmises	-0.0180789015978356	-1.0358447597883005	0.5334009059381984	124.41034108610393	0.5189548585718253	124.73297470743807	0.2564579585086193	-0.226656230429894	0.4831141889385133	123.02153435627196
18	7.0	ltm	188	diff_vonmises	0.0384466934958306	2.202833273544167	1.4617196277341935	1.982149125067245	0.3374903835882589	3.195058849535004	0.1524702565204767	-0.3232501640496616	0.4757204205701383	92.3831045680972
19	7.0	perception	188	diff_vonmises	0.0200243797973569	1.147312449755582	0.8657014139446918	309.2256689534545	0.8510345319687906	310.2491651671103	0.5444610053640275	-0.4420239588493224	0.98648496421335	96.33949711145245
20	7.0	wm	188	diff_vonmises	0.0881008524280053	5.047807015629595	0.733013459059285	60.14323780476986	0.695158193240271	61.27796392282912	0.11233875144584	-0.3011722468931515	0.4135109983389915	99.58370786888416
0	1.0	ltm	309	diff_vonmises	-0.0304789281920383	-1.7463139494860975	6.390348935319802	0.5865588905665521	0.125529531363577	3.085227657837049	0.0244401350401707	-0.5020212476759297	0.5264613827161004	51.23800167958865
1	1.0	perception	309	diff_vonmises	-0.0610718934881888	-3.499161743745715	15.130767585888613	0.6973871478729606	0.0475092482722187	3.349646358177891	0.5136466028521819	-0.5458313851584192	1.0594779880106011	34.589849013791
2	1.0	wm	309	diff_vonmises	-0.031441251480086	-1.8014510124183825	4.542806677656174	0.7468328807778677	0.1737924558354711	3.55758288854074	-0.0534427861081019	-0.5666296665653119	0.51318688045721	58.6273631656552
3	2.0	ltm	309	diff_vonmises	-0.1250021174688344	-7.162093761162753	1.2785404920611054	61.25638635509533	1.2238826921479082	62.29864338326576	0.2138138365092565	-0.3145693343308053	0.5283831708400619	76.21252702196176
4	2.0	perception	309	diff_vonmises	-0.068960050271863	-3.9511198355877366	6.961062621272905	1.025684354067492	0.2351033342204282	2.147831181876804	0.6322157350470625	-0.3546390500908076	0.9868547851378702	49.67446399797896
5	2.0	wm	309	diff_vonmises	-0.0313665716507562	-1.7971721733830304	3.4895317214850508	0.9919500148514802	0.3751335105583275	2.1291570553824983	0.2311766385414607	-0.3097670617519932	0.540943700293454	64.9723118663673
6	3.0	ltm	309	diff_vonmises	-0.1057621805379658	-6.059726576926096	1.1990891125733374	158.7649805060995	1.177275534109722	159.64376087284035	0.3113606994299189	-0.3055182402637371	0.616878939693656	80.16836692791867
7	3.0	perception	309	diff_vonmises	-0.0576076520216938	-3.300675328501344	3.924734775577826	2.062565367540902	0.4051325949110785	2.9222314424385547	0.8997189241384836	-0.4192002322707722	1.318919156409256	63.62588913243019
8	3.0	wm	309	diff_vonmises	-0.060720161778213	-3.479009001243183	1.2874731678373796	166.6148899824582	1.2661140116063991	167.6138299088964	0.2585088063259491	-0.3196480710194009	0.57815687734535	76.15133121049573
9	4.0	ltm	309	diff_vonmises	-0.2049618003406622	-11.743446120922984	1.2782614516906496	7.546311383314181	0.8199546107027814	8.52431849911275	0.3486607230380931	-0.3395733274884993	0.6882340505265925	85.86334132803992
10	4.0	perception	309	diff_vonmises	-0.1130320457072241	-6.476259168753756	2.440668066188924	2.4870629711140637	0.1849891075785757	3.458788363651836	0.7883701543733849	-0.4604374312891411	1.248807585662526	82.25637648455336
11	4.0	wm	309	diff_vonmises	-0.2042957352361857	-11.705283401555542	1.115922049264194	294.27826447289607	1.103436985709683	295.4227758537903	0.2736765725121302	-0.3521546993303879	0.6258312718425181	81.73013220750401
12	5.0	ltm	309	diff_vonmises	-0.0258749084612921	-1.4825230501193816	0.6441287040171965	224.23484729529343	0.6304590598532211	224.67139431772569	0.4635506988329112	-0.3380699216812317	0.801620620514143	113.8217453675079
13	5.0	perception	309	diff_vonmises	-0.0380619805371159	-2.1807908446858284	1.983869971364828	2.476579726835228	0.2091653702568378	3.001558861960283	0.688914828955089	-0.3645650433297493	1.0534798722848384	90.1348041887033
14	5.0	wm	309	diff_vonmises	-0.0824149235578643	-4.722027288758931	0.8703173575102359	242.14570837087928	0.858740614211281	242.53579526881572	0.4118395232337946	-0.2524217422604273	0.6642612654942219	97.94894157409638
15	6.0	ltm	309	diff_vonmises	-0.0556353064548351	-3.187668251778998	0.7836519870053885	2.38720283213471	1.249810592703294e-14	2.5197721713567645	0.3163708860004817	-0.2513773351098772	0.5677482211103589	138.1037586508483
16	6.0	perception	309	diff_vonmises	0.0058900412664116	0.3374745057232798	1.2881565169177376	1.9295449757113623	1.2002630977507858e-14	2.2714797299735414	0.4012343721264997	-0.3035044039536171	0.7047387760801168	117.49589797057268
17	6.0	wm	309	diff_vonmises	-0.2271374141631701	-13.014015201064655	0.6177692414784419	107.0270019292978	0.5982888556436308	107.03789620254535	0.3920257199363703	-0.213908946906292	0.6059346668426624	118.36968490638014
18	7.0	ltm	309	diff_vonmises	-0.0074132359351269	-0.4247471316174897	0.673265943114822	209.24554090094543	0.6599230545036343	209.6641012183433	0.4152804988605396	-0.3004548574806449	0.7157353563411846	111.25995037288584
19	7.0	perception	309	diff_vonmises	-0.0698695764368532	-4.003231846198393	0.965160185788111	200.69111580925036	0.9466048725010068	201.0276666887089	0.5953039149059549	-0.3024404591979852	0.8977443741039401	94.19464876358876
20	7.0	wm	309	diff_vonmises	0.1896072635580921	10.863695966903338	2.275150026804023	1.2430899953679406	0.1572431217370381	1.5262049711096786	0.4103722975332902	-0.2017694430050039	0.6121417405382942	86.18642831799446
0	1.0	ltm	67	diff_vonmises	0.0966785064281922	5.539270387963812	2.9427037458780885	0.4240267450125999	0.0394910353609714	3.562360601208113	-0.3149223106625173	-0.5542631962047267	0.2393408855422094	74.70320910944793
1	1.0	perception	67	diff_vonmises	0.032690443950499	1.8730244687725688	10.252524392367537	0.7536535096013505	0.0612201345898459	3.859309990846125	0.2979949679205179	-0.6274304898440102	0.925425457764528	41.74040186442588
2	1.0	wm	67	diff_vonmises	0.1124435650408346	6.442541710244591	4.166435663513343	0.4532720109480419	0.0201937182864653	3.60442067275085	-0.2290234977938537	-0.5689162630909268	0.3398927652970731	65.30090478851864
3	2.0	ltm	67	diff_vonmises	-0.038755568045733	-2.2205304816525797	3.2173343975240734	0.7032500012940541	0.1626162214558089	2.516901591741312	0.0109997746418026	-0.3787660325526868	0.3897658071944895	69.25712514485727
4	2.0	perception	67	diff_vonmises	-0.0047958910194581	-0.274784314419643	6.643944308903175	1.2774805343553624	0.1607720227607423	3.099020407458705	0.7113205599331326	-0.5019711296762082	1.2132916896093406	51.15160254166139
5	2.0	wm	67	diff_vonmises	0.0931673837824442	5.338097879009645	4.345836317487305	0.6398497636506435	0.1253414986005646	2.4966638892317823	0.0659263146109589	-0.3905685559013795	0.4564948705123385	61.66522461880513
6	3.0	ltm	67	diff_vonmises	0.0045461950636157	0.2604777899883888	2.693554745521268	0.7385586778540071	0.1556004172123995	1.865259149883448	0.1098855133255268	-0.2681515032577025	0.3780370165832293	76.70743233486189
7	3.0	perception	67	diff_vonmises	0.0026190423015081	0.1500600702426471	3.924476547241211	1.8307958727847555	0.1286094915901551	2.9655332316574574	0.8584693015455291	-0.4457806629066997	1.3042499644522287	66.72256392464118
8	3.0	wm	67	diff_vonmises	-0.0145264863630922	-0.8323063597595322	2.682905515266979	0.8859081515338106	0.2213939030393687	2.0931125020820893	0.1334653977834856	-0.2935027603764042	0.4269681581598898	75.07295056971213
9	4.0	ltm	67	diff_vonmises	0.0162249417477026	0.9296206849889772	1.8440848733178727	0.9037800706320996	0.1794135900170805	3.1512375110061743	-0.1514350866685939	-0.4314762179416069	0.280041131273013	83.7365630079828
10	4.0	perception	67	diff_vonmises	-0.1005443351996496	-5.76076606088857	1.17629832564969	14.85542261418171	0.7658369003566247	16.882115496125127	0.5510423376471323	-0.6469954738072474	1.1980378114543797	88.39604384308427
11	4.0	wm	67	diff_vonmises	-0.0212008258945308	-1.214717845948288	0.7795195969362122	205.41239980162936	0.7653814453308818	207.7734911055078	-0.1467531308812439	-0.4727156468497853	0.3259625159685413	86.08315552819693
12	5.0	ltm	67	diff_vonmises	-0.0370274748001797	-2.1215180320773133	1.4768668710406982	1.1702376589133374	0.0239952080405963	2.8495508509457337	0.0376759545311319	-0.4165193670230902	0.4541953215542221	108.9747122146028
13	5.0	perception	67	diff_vonmises	-0.0616984446109135	-3.535060478727024	1.8868509138371767	3.365849288933437	0.2911430797840971	4.947566810817941	0.6445335855609471	-0.5677576774537711	1.2122912630147182	87.7971173174773
14	5.0	wm	67	diff_vonmises	0.0420135186198945	2.4071972994142574	0.5994224227883368	253.2755018211949	0.5887267146339685	254.97564865775524	0.0645501144774556	-0.4219525538620239	0.4865026683394795	107.16794771513358
15	6.0	ltm	67	diff_vonmises	-0.0275109650993156	-1.5762621905224936	0.4744926435963634	202.4521964750301	0.464419761686445	204.21890385432343	-0.044974280796147	-0.4037090259056768	0.3587347451095297	117.00515461528788
16	6.0	perception	67	diff_vonmises	-0.155985626035667	-8.937318036549692	0.8283211115077664	3.6716374476950033	0.0806520344555099	5.274951604913353	0.2261553430776715	-0.556743296925923	0.7828986400035944	130.17851600000276
17	6.0	wm	67	diff_vonmises	-0.0829555028735334	-4.753000202038836	0.5807845406854758	244.26738181067503	0.5700286722121392	245.990040474142	0.0482899923036015	-0.4223880460962732	0.4706780383998747	108.47687297619576
18	7.0	ltm	67	diff_vonmises	0.1098114232963071	6.291731097202964	1.497035399340571	1.1828007022772191	0.0755950021090567	3.5042915565434014	-0.0889520062352505	-0.4907557913229509	0.4018037850877003	101.84395769037452
19	7.0	perception	67	diff_vonmises	-0.0053719762427064	-0.3077915663516261	0.9099537558201888	376.8718761116066	0.8938687363551922	378.9104523405075	0.4988998762400314	-0.6369899827212819	1.1358898589613131	91.1707678674112
20	7.0	wm	67	diff_vonmises	0.1164085201282996	6.669716902715261	2.2197521871495915	1.1623933096429782	0.1938552148497427	3.369851392951797	-0.0065558177815114	-0.4666255406039785	0.460069722822467	80.00974534999236
0	1.0	ltm	142	diff_vonmises	0.0311395527191872	1.7841649467345548	4.405797416289305	0.2958174954161525	1.044132609723288e-22	3.5861266773303155	-0.3310698675294545	-0.5707140738021271	0.2396442062726725	65.14993654623512
1	1.0	perception	142	diff_vonmises	0.0026965785282234	0.1545025687928035	13.326697610814398	0.6974903340397961	0.0374048931834312	4.005372037763174	0.3443458947644106	-0.6480973188241512	0.9924432135885618	36.83435930076297
2	1.0	wm	142	diff_vonmises	0.0294561681965997	1.6877141182926452	3.873548176902723	0.3908198199932067	1.7094187181383553e-13	3.869722271985669	-0.3206519779263846	-0.6157578739037395	0.2951058959773548	69.60153915743768
3	2.0	ltm	142	diff_vonmises	0.0304163988025245	1.7427312793714302	3.917848759382693	0.476073404152768	0.006151481899311	2.2669124244952137	-0.0011235315076058	-0.3587833659775621	0.3576598344699563	68.72538378191652
4	2.0	perception	142	diff_vonmises	-0.0171159044676404	-0.980669088544905	7.103640614705329	1.3103789277836666	0.2294736869841609	3.1496197751352373	0.7446248280454645	-0.5231182723066333	1.2677431003520978	49.04254554586265
5	2.0	wm	142	diff_vonmises	0.0363590642461336	2.083220928348468	3.729286474706348	0.7470744314666943	0.1357092399539056	2.815446802116877	0.0418679603638313	-0.4330849560305768	0.4749529163944081	65.73449789928185
6	3.0	ltm	142	diff_vonmises	0.0243389581231468	1.3945195782019686	3.489318927930432	0.6310349091016795	0.0770700381514839	1.9410085974200624	0.1167899388319075	-0.2969100589340168	0.4136999977659243	70.22809944938157
7	3.0	perception	142	diff_vonmises	-0.0071403221483144	-0.4091103234622007	4.094778838431652	2.14939280392894	0.2079802693804033	3.403429518889024	1.0138889195283527	-0.5079857792895558	1.5218746988179084	64.3840043570921
8	3.0	wm	142	diff_vonmises	-0.0541580663760312	-3.1030286299359657	3.6270604761059855	0.7271156012966341	0.0729957832048572	2.314905316203155	0.1339737660101232	-0.3558000595241723	0.4897738255342955	69.02201583948965
9	4.0	ltm	142	diff_vonmises	-0.0118885836801368	-0.6811656692599489	2.1142060846821504	0.7482037583813247	0.0520702628046282	3.182169276488782	-0.1340509096477729	-0.4770793984167897	0.3430284887690168	88.24113505086856
10	4.0	perception	142	diff_vonmises	-0.0545311968462984	-3.1244074310900065	1.66112956208854	4.956855347676089	0.4479806609023485	7.113418023129079	0.5981084928764442	-0.6785593621554558	1.2766678550319	86.69017075478237
11	4.0	wm	142	diff_vonmises	-0.0261792141811075	-1.499958483546494	0.7030580404671957	229.28806610425409	0.6890237049220475	231.98995294784143	-0.1499909940361306	-0.5439411385681261	0.3939501445319955	91.6611425328147
12	5.0	ltm	142	diff_vonmises	-0.0298594546817032	-1.7108207318237416	1.5473660135946825	1.327813591204404	0.0941354077474164	2.857866023349509	0.0874478964996172	-0.386521991371256	0.4739698878708732	101.45350576398516
13	5.0	perception	142	diff_vonmises	-0.0172362375871266	-0.9875636684271124	1.5927563352130771	4.039669918691849	0.3402658412546802	5.522801732264549	0.6144460814524886	-0.554644822960004	1.1690909044124926	92.46565498555024
14	5.0	wm	142	diff_vonmises	0.0027798587381036	0.1592741733359046	0.5720139631158362	36.80524093304832	0.4986950206818679	38.560595513279615	0.0741996285410468	-0.4545691792502726	0.5287688077913195	113.59472473087764
15	6.0	ltm	142	diff_vonmises	-0.1119140037933137	-6.4122000857679655	0.4175217070494182	169.396283309235	0.405652635758134	170.91280718973465	0.0220970928257102	-0.3987622961378356	0.4208593889635459	127.30697035594416
16	6.0	perception	142	diff_vonmises	-0.0345488386983877	-1.979502644495868	0.4677667754231552	197.83616579723176	0.4507328933932857	199.3365576581597	0.2691149073630114	-0.5383365317360074	0.8074514390990188	126.06522662432047
17	6.0	wm	142	diff_vonmises	-0.0102049827900065	-0.5847024438710127	0.4381786949882346	307.0406482240961	0.4299948156056915	308.7343784914578	0.068355618858888	-0.4672748896502092	0.5356305085090973	125.62039553793304
18	7.0	ltm	142	diff_vonmises	0.0104362320286847	0.597952049262888	0.760731532825356	226.5737778258448	0.7477945588039766	228.69602697255968	-0.0636642613483502	-0.4476587420380262	0.383994480689676	90.2210195850426
19	7.0	perception	142	diff_vonmises	0.0936992509138235	5.368571620899412	0.6707777824861322	221.3434076507886	0.6505960110096228	223.3380203639683	0.3007779796534464	-0.5900097313608335	0.8907877110142799	105.21627660670433
20	7.0	wm	142	diff_vonmises	0.0562625103997894	3.2236043907188345	0.7349347658351245	161.25418609131194	0.7175461277541257	163.5120562968875	-0.1150856072066659	-0.45873418655367	0.3436485793470041	90.1068108408076
0	1.0	ltm	21	diff_vonmises	0.0031856557877921	0.182524631621911	5.629290012250067	0.4395572542243797	0.0274307055765473	3.775923911775191	-0.2116685133350361	-0.5999615927898347	0.3882930794547986	56.05547437205098
1	1.0	perception	21	diff_vonmises	-0.0293697423052209	-1.6827622794759842	14.75727631119883	0.6198138762228922	0.0159036599435064	3.9462720787361354	0.3032792074689314	-0.632462092636959	0.9357413001058904	35.14226099989952
2	1.0	wm	21	diff_vonmises	0.011789618639776	0.6754953901279327	2.846999348240492	0.8532595205939314	0.1382531348860083	4.443818276914222	-0.2659259783060814	-0.6725417793682048	0.4066158010621233	71.23933751635875
3	2.0	ltm	21	diff_vonmises	-0.0667443259154328	-3.8241681813999486	2.3110079712556755	1.2430443538307523	0.3124054229352649	2.9422321228335284	0.0746824990943832	-0.3881944772329233	0.4628769763273066	76.13950714911715
4	2.0	perception	21	diff_vonmises	-0.0419821575307714	-2.405400441366568	6.59355955328633	1.1465788309959335	0.1756585632066545	2.879199960743948	0.6082517214645771	-0.4680260019977558	1.0762777234623329	51.15699529894383
5	2.0	wm	21	diff_vonmises	0.0064232892625372	0.3680273653350821	3.607897761335461	0.9323222148649104	0.2183369391051109	2.811265744879821	0.1272279718180854	-0.4255839265776415	0.5528118983957269	65.4343109139308
6	3.0	ltm	21	diff_vonmises	-0.0745483661557705	-4.271306750321555	2.220062101338564	1.6166615851538164	0.3190249684982492	3.257725390055344	0.1925042264747942	-0.4127882345142978	0.6052924609890922	78.70015057948629
7	3.0	perception	21	diff_vonmises	-0.0397562905679259	-2.277867658637921	3.649176722778185	2.3084247674524145	0.2295264307281476	3.8457870741796314	0.9275630955557927	-0.5606360267649486	1.4881991223207414	67.35790598614841
8	3.0	wm	21	diff_vonmises	-0.0488331857434448	-2.797935443277811	2.304170471313697	1.6048955230578077	0.3305777671800248	3.422241006275159	0.1635658505928406	-0.4414129336294926	0.6049787842223333	76.73632925626882
9	4.0	ltm	21	diff_vonmises	-0.1150722623645103	-6.593154972508546	2.10552653524597	1.2141468862656537	0.068418292377545	3.3750166776947257	0.0715362704636753	-0.4934693867218624	0.5650056571855379	89.2005223259273
10	4.0	perception	21	diff_vonmises	-0.0912904918552651	-5.230559892980111	1.6189288804695476	4.986771417068428	0.4187983882890757	6.856133989951448	0.6741161583679867	-0.6492476184353337	1.3233637768033204	89.11618347299009
11	4.0	wm	21	diff_vonmises	-0.1362313489043665	-7.805481329594375	0.8125689501956751	313.8313126322283	0.8000684319580975	316.1787654262158	0.0363239441962406	-0.5344796677640247	0.5708036119602653	90.02852277403824
12	5.0	ltm	21	diff_vonmises	-0.0401229326332606	-2.2988747015735567	0.6049670321994826	217.0757391068756	0.5904359253175161	218.524316460327	0.2148214078188743	-0.4431618297943558	0.6579832376132302	110.80985342155634
13	5.0	perception	21	diff_vonmises	-0.02645934360459	-1.516008717229474	1.227040286305963	7.020623538200638	0.5265994414790354	8.40232430132965	0.5816647255399117	-0.5324666190096894	1.114131344549601	95.45147882742437
14	5.0	wm	21	diff_vonmises	-0.0648265696903999	-3.714288843570619	0.673323774106643	313.49110798118767	0.6630760815061489	314.95122956589694	0.20607606843393	-0.4234469975832127	0.6295230660171427	104.35028310686565
15	6.0	ltm	21	diff_vonmises	-0.0787682214947629	-4.51308665140157	0.8342630259661196	2.1055800727732925	5.845834281422506e-18	3.3989052779192046	0.1121504557823033	-0.4178190804177687	0.529969536200072	135.7504894483876
16	6.0	perception	21	diff_vonmises	-0.011686228505132	-0.6695715717695411	0.9827683820538048	3.6598946949227	0.1605612629528554	4.962420396960894	0.3172636184521591	-0.4948089784164582	0.8120725968686173	119.18603217463328
17	6.0	wm	21	diff_vonmises	-0.1166071948190869	-6.681100123993443	0.4939963459731458	255.3517251454679	0.4836074766039583	256.64348005473863	0.1801572231842456	-0.4217796400264504	0.6019368632106961	122.04766246285766
18	7.0	ltm	21	diff_vonmises	-0.0795482218454562	-4.5577773795150165	0.6794927447701905	224.76521501436844	0.6647557263625647	226.64963522738876	0.106840180752556	-0.4705591734261816	0.5773993541787377	101.2119658362816
19	7.0	perception	21	diff_vonmises	0.032152324038088	1.842192468919469	0.7644979831489993	260.39647307519084	0.7456419820477252	262.1583499412092	0.4207104271559814	-0.5692197057054038	0.9899301328613852	99.85966209233912
20	7.0	wm	21	diff_vonmises	0.1117267974600836	6.401473952975757	0.8753916298802957	92.01739486986656	0.8373821984982736	93.84425236536023	0.0994683984943698	-0.4418100918712664	0.5412784903656362	88.98129242549996
0	1.0	ltm	430	diff_vonmises	0.0226295208243268	1.2965760356373348	4.761503454196732	0.3369167648080463	0.0142917363449815	2.6155342976584475	-0.1376407574951894	-0.4141718476379147	0.2765310901427253	61.57854849408963
1	1.0	perception	430	diff_vonmises	-0.0018338891618204	-0.1050741090670961	11.171402256473716	0.683565877996296	0.037252155959004	3.094007087971743	0.3898754098130771	-0.4986631758323444	0.8885385856454215	40.25495203562792
2	1.0	wm	430	diff_vonmises	0.0824317394530612	4.722990768582446	3.856201010134048	0.5178902694543471	0.0454545922647098	2.868421038714652	-0.0872381174694513	-0.4486112552717278	0.3613731378022765	66.91788775303911
3	2.0	ltm	430	diff_vonmises	-0.0145794434136162	-0.8353405752500147	2.513587462252374	1.1825100423191932	0.5127990065634379	2.332377717963448	0.1180696409204733	-0.2934962507486341	0.4115658916691074	70.44316920555104
4	2.0	perception	430	diff_vonmises	-0.0040464532321456	-0.2318446921990192	6.333315094230326	1.2627589717497854	0.2744621647217368	2.3641328241408983	0.7546637037792918	-0.3864697857659506	1.1411334895452423	51.79699868410205
5	2.0	wm	430	diff_vonmises	0.0752729993504351	4.3128251740709205	4.345500046491424	0.635526317447121	0.2249179266664343	1.8214383767685185	0.1526280425727441	-0.2836300726494117	0.4362581152221558	60.63869055220795
6	3.0	ltm	430	diff_vonmises	0.0114503136288276	0.65605464503295	2.425608876438821	1.0300592899853689	0.4235228878284496	1.8944381591402428	0.1558227476257088	-0.2357610221459992	0.391583769771708	74.3681824617195
7	3.0	perception	430	diff_vonmises	-0.0070292791122908	-0.4027480261537293	4.609671071042666	1.6030058809043977	0.1576512012770241	2.4471456443533626	0.8775548428479605	-0.37381138597587	1.2513662288238303	61.57406414149276
8	3.0	wm	430	diff_vonmises	0.0058990793463811	0.3379923495604335	2.680334400701082	0.9714032340604232	0.3775463633393314	1.9312160162866847	0.1634702123239013	-0.2558372787025043	0.4193074910264056	72.21668525275763
9	4.0	ltm	430	diff_vonmises	-0.1382237350047587	-7.919636644307374	1.8090033868077795	1.4664084343017303	0.4219488169713258	2.982084174734325	0.0192318164730685	-0.3382155850364892	0.3574474015095578	79.44783518172429
10	4.0	perception	430	diff_vonmises	-0.089387841893349	-5.121546080271592	2.0246832196710374	2.995824658319297	0.2805478290841849	4.457888494069526	0.6359351161965047	-0.530598871471643	1.1665339876681475	85.67629769470983
11	4.0	wm	430	diff_vonmises	-0.0838631796303616	-4.805006249367217	1.0209160036216622	321.87784777653235	1.010457245024223	323.5691408521277	0.0546687756238952	-0.4017304659741327	0.456399241598028	80.48727564710427
12	5.0	ltm	430	diff_vonmises	-0.0299263068415647	-1.7146510784351423	1.2916030488822745	1.7213440561750937	0.1360925182691366	2.6374904356593407	0.2027872178575943	-0.3131901704924708	0.5159773883500651	108.8614671892254
13	5.0	perception	430	diff_vonmises	-0.055617309620732	-3.1866371091402965	1.6833446929646791	3.52848755295454	0.3937005962284337	4.314392030194787	0.6597141467870548	-0.4115778179849929	1.0712919647720476	90.51653709886654
14	5.0	wm	430	diff_vonmises	0.0638014843169437	3.6555557780309873	0.7071953538325335	186.8149847964044	0.6937929870054231	187.661677875007	0.2372867397967439	-0.2972536843734854	0.5345404241702294	104.42669155150918
15	6.0	ltm	430	diff_vonmises	-0.0547230564044708	-3.135400174032527	0.4804109988674636	180.88569964352965	0.4697473641829376	181.63699865212087	0.1779207691800337	-0.2930847231081301	0.4710054922881639	125.11391135552869
16	6.0	perception	430	diff_vonmises	-0.0871782585765544	-4.994946281736739	0.6286232242976242	197.74105893337745	0.6122452432825586	198.490708036243	0.4133067711697507	-0.3860338284448392	0.7993405996145899	113.5535782202334
17	6.0	wm	430	diff_vonmises	-0.0683818935868039	-3.917993897636577	0.6059712292389285	137.6674407507363	0.588709021341682	138.33972204231128	0.2725799712052605	-0.2998536286318582	0.5724335998371188	114.64787394131014
18	7.0	ltm	430	diff_vonmises	0.0026563912755203	0.1522000088226894	0.8811520081600696	9.5023601011946	0.5845839969805509	11.115320596526896	0.1131663122522335	-0.4060029087062954	0.5191692209585289	97.598048990869
19	7.0	perception	430	diff_vonmises	-0.0374340340585118	-2.1448121617017115	1.9976167479598832	2.821754712197052	0.2415868892024455	4.264363617434381	0.6029569748998164	-0.5201118691197496	1.123068844019566	87.22616687921081
20	7.0	wm	430	diff_vonmises	0.1969326242630307	11.283408218707295	2.6718512096872398	0.8715761610185712	0.0272478064301905	2.3099004460002632	0.1562883075058439	-0.3553419799659127	0.5116302874717567	82.3882114910607
0	1.0	ltm	361	diff_vonmises	-0.0940708207369995	-5.389861003561819	4.775094599796869	0.3719430476851879	2.425308185053068e-16	2.0196909388040742	-0.0067859740354863	-0.3214213916798706	0.3146354176443843	62.51978095277917
1	1.0	perception	361	diff_vonmises	-0.0546280989492	-3.129959512612208	14.969990961596668	0.7196458466368072	0.0152155921781676	2.584619403099618	0.6835618089825184	-0.413889148605277	1.0974509575877955	34.940641578045444
2	1.0	wm	361	diff_vonmises	0.008896291702115	0.5097199678484453	5.011094024034811	0.4239802653123491	2.9068129777708304e-17	2.221465045764014	0.0144587013769737	-0.3535407956817309	0.3679994970587047	60.99549303731345
3	2.0	ltm	361	diff_vonmises	-0.0849912349187996	-4.869639056452126	2.8847099444189124	0.8053790051331405	0.3445596602704438	1.6136270512783075	0.1638552728556318	-0.2205600476239467	0.3844153204795786	70.99239375329012
4	2.0	perception	361	diff_vonmises	-0.0441319701290951	-2.52857562999457	7.316428271041676	1.1447612715928874	0.2780755913690521	1.9312167945666243	0.814237219495876	-0.3221109056612689	1.136348125157145	48.58254052858203
5	2.0	wm	361	diff_vonmises	-0.0100371703026513	-0.5750874965959667	4.077845340853999	0.6595375553466967	0.2749715493496694	1.5175711195785693	0.2003475540462687	-0.2310135871938269	0.4313611412400956	62.31454771877896
6	3.0	ltm	361	diff_vonmises	-0.0493791250185282	-2.829215459610521	1.268981561413717	55.30154915721848	1.2294515936866777	55.763328740075885	0.2231556558261935	-0.1809210731152557	0.4040767289414493	79.09621203014811
7	3.0	perception	361	diff_vonmises	-0.03578600430651	-2.0503870124000128	3.958964099823248	1.9996954906717	0.4298451764507547	2.377748779186248	0.973152975122174	-0.3341429295784107	1.3072959047005848	63.83785212027851
8	3.0	wm	361	diff_vonmises	-0.0991118643337747	-5.678691525998484	1.408777127668057	94.79147866624692	1.381126509038992	95.32966904986772	0.2464435155296556	-0.2096174484250141	0.4560609639546698	74.44898993382384
9	4.0	ltm	361	diff_vonmises	-0.176781243513708	-10.128819150409932	1.2415976629497414	105.52887731519724	1.2156493647722058	106.3151432903726	0.2032457080453937	-0.2497583890376411	0.4530040970830349	77.709266345558
10	4.0	perception	361	diff_vonmises	-0.112596126129799	-6.451282816760174	2.463401083361857	2.642559448435517	0.3108631919715648	3.405467846795605	0.8217994891473474	-0.4192718665455485	1.2410713556928958	79.53767962137587
11	4.0	wm	361	diff_vonmises	-0.1690282476686323	-9.684605209904632	1.211960356161165	266.688179830824	1.2006794248649153	267.6582216632497	0.187288958894328	-0.2870091358559996	0.4742980947503277	77.50634199397865
12	5.0	ltm	361	diff_vonmises	0.0007086901239915	0.0406049530873214	0.6412419486874984	135.77502214805858	0.625685529004945	136.30366876585342	0.2579923405254902	-0.2515109218025486	0.5095032623280389	112.01535022593396
13	5.0	perception	361	diff_vonmises	-0.0173813922085518	-0.9958804156115952	2.1043855948446377	2.2758204529171424	0.1942874586964286	2.7461565290726515	0.6848224057705735	-0.3440976123016401	1.0289200180722138	88.30276436462245
14	5.0	wm	361	diff_vonmises	-0.026443140105221	-1.5150803251022886	0.7351561701516455	162.3661606152872	0.7221121035212561	162.8702914803553	0.2584949872245516	-0.2286783717713572	0.4871733589959088	104.54484474104548
15	6.0	ltm	361	diff_vonmises	-0.1243392123964304	-7.124112098296192	0.3838621127100813	147.6312347180445	0.3734001479400625	148.06600287492063	0.1848915748319726	-0.2386930067769093	0.4235845816088819	136.61064449746198
16	6.0	perception	361	diff_vonmises	-0.0152447709520435	-0.8734610351957312	0.5716876851097079	109.6786448893488	0.5449909682687862	110.19975789777465	0.4187019748189549	-0.3581178564403089	0.7768198312592638	120.08681980076578
17	6.0	wm	361	diff_vonmises	-0.1936627634234587	-11.096058993004716	0.5510190865130393	96.90191590528764	0.5297740512447956	97.2807886368765	0.2914090066413024	-0.2571185847923125	0.548527591433615	121.51677597373018
18	7.0	ltm	361	diff_vonmises	0.1124708449917323	6.444104736296354	0.8029118113074627	149.3801335392521	0.7873803066030666	150.013654739215	0.2522080081872673	-0.2448833443945233	0.4970913525817906	99.1433134109138
19	7.0	perception	361	diff_vonmises	-0.0263412888885454	-1.5092446802485038	2.038746762011687	1.9216750296921556	0.1573983775962664	2.472430513861898	0.545110032247605	-0.3192697462548396	0.8643797785024446	90.30278051506494
20	7.0	wm	361	diff_vonmises	0.1949473953723151	11.169662981901851	1.969261133733522	1.0991031810684233	0.2007570577938496	1.6333947770619397	0.2471374461894865	-0.2041202122210643	0.4512576584105509	89.25149879875667
0	1.0	ltm	407	diff_vonmises	-0.1430112759623763	-8.193942535424883	3.944495778475017	0.3861458730964441	2.349700649360107e-18	2.044172612190831	-0.0307138628339319	-0.3252297308653795	0.2945158680314476	68.9539328490188
1	1.0	perception	407	diff_vonmises	-0.0516246461411852	-2.957874342746245	14.498308163205008	0.8180030602620187	0.0201221541740841	2.661040510121927	0.7994277998934618	-0.4269323048972331	1.226360104790695	35.490194456364264
2	1.0	wm	407	diff_vonmises	-0.0219822265596383	-1.2594888061676617	6.568651583206185	0.3656440145117331	7.242065780929814e-18	2.1780026862351227	0.0194995918132072	-0.3466391720643486	0.3661387638775558	53.12294092274195
3	2.0	ltm	407	diff_vonmises	-0.1280577624397559	-7.337169321686932	3.362747002309075	0.6341682410312516	0.1735186473143715	1.533637791704827	0.1548214307768664	-0.2272092382717336	0.3820306690486	69.50142954048124
4	2.0	perception	407	diff_vonmises	-0.0552870606276728	-3.1677152356495566	7.876757952915861	1.1716955119130008	0.2086829674783201	2.063949822807172	0.8893311461457375	-0.3420038013893708	1.2313349475351083	47.22085857006408
5	2.0	wm	407	diff_vonmises	-0.0506495657535658	-2.902006351849675	3.8963540056716015	0.6205634485044007	0.1756568830158718	1.567712882786807	0.175180264353077	-0.2381730051688017	0.4133532695218787	64.97128577342454
6	3.0	ltm	407	diff_vonmises	-0.0559161245443235	-3.2037579431176133	1.5993749328735698	1.92357003084256	0.7033243100774782	2.281991579845658	0.2154779269235881	-0.152855959262557	0.3683338861861451	83.96657380926692
7	3.0	perception	407	diff_vonmises	-0.0327858304639029	-1.8784897134130831	3.781903139487682	2.144348734396344	0.4835045447100102	2.347265694524882	1.0268747234828144	-0.3173523177478839	1.3442270412306985	64.95143675734568
8	3.0	wm	407	diff_vonmises	-0.1364836632412441	-7.819937876208101	1.9099953430456147	2.5403288203850165	0.9993281026395994	2.9297954817730965	0.2737045820261572	-0.1797725284097818	0.4534771104359391	74.5092300195756
9	4.0	ltm	407	diff_vonmises	-0.1702890548305662	-9.75684413906331	1.5120384808459506	4.57265777219822	0.9628722178539846	5.384876684517202	0.188076493488239	-0.2492903416160318	0.4373668351042709	77.36397362896571
10	4.0	perception	407	diff_vonmises	-0.1151561557649712	-6.597961710283954	2.431400256394966	2.8473705800836826	0.3707933286015862	3.7108792039719662	0.8237267444943952	-0.4412528768920118	1.264979621386407	78.67380550145023
11	4.0	wm	407	diff_vonmises	-0.1897597212936594	-10.872431151705468	1.1886848761272757	241.33343851826052	1.1773178153107666	242.3075369774845	0.1427686702316748	-0.2729395416360667	0.4157082118677415	77.44644509800085
12	5.0	ltm	407	diff_vonmises	-0.0096714638071979	-0.5541340578659707	0.8943124168129396	3.189292969824575	0.3284134592995854	3.665092688432992	0.2371021011501765	-0.2374215757058058	0.4745236768559824	115.30397354410142
13	5.0	perception	407	diff_vonmises	-0.0201995247233621	-1.157347514818814	2.5134276701704543	1.965398834590772	0.0385768585595952	2.2547794285105454	0.7891340690314328	-0.3375289080714698	1.1266629771029026	85.62565863453318
14	5.0	wm	407	diff_vonmises	-0.0524007932270523	-3.002344295047808	0.7203634172966372	140.62005662702333	0.7066520789982234	141.0786355448375	0.2366258747541749	-0.2108612992968073	0.4474871740509822	105.67406168674805
15	6.0	ltm	407	diff_vonmises	-0.1181070432959557	-6.767035111627146	0.3372490305455664	74.30477094090469	0.3218406919587329	74.66433677744313	0.1295605471227414	-0.1887382787804057	0.3182988259031472	141.7493341577317
16	6.0	perception	407	diff_vonmises	-0.0382226100164073	-2.1899942359146065	0.7963722635844532	2.8191867499954792	8.945944601205976e-13	3.1915748811902	0.3461187805047367	-0.3342632481252073	0.6803820286299441	137.53061859860932
17	6.0	wm	407	diff_vonmises	-0.2112190316139406	-12.101959064319106	0.5132563731977391	102.36404670279757	0.4975421713426056	102.67763144998943	0.2236662250820345	-0.2091109383870701	0.4327771634691046	124.58282977758932
18	7.0	ltm	407	diff_vonmises	0.1868096414185998	10.703404025638063	0.8248040060531662	64.83379217169156	0.7978291927267909	65.23157388573637	0.2133219923413349	-0.1761686361730179	0.3894906285143529	99.16153777508548
19	7.0	perception	407	diff_vonmises	-0.0085034950783321	-0.4872143790986979	0.9480105307623684	156.0014241058223	0.929293926237862	156.2528410616812	0.4723126617442617	-0.2387142776698247	0.7110269394140865	95.15197158871452
20	7.0	wm	407	diff_vonmises	0.1343846138859509	7.699671207160144	0.886060653035125	30.09470972484093	0.8343533284858928	30.439070002733104	0.1900011053734385	-0.1514184011796677	0.3414195065531062	96.36046123044169
0	1.0	ltm	217	diff_vonmises	0.0650141206954942	3.725034724605962	4.626042625890882	0.2263960507385948	4.520357907051297e-19	3.216423821009147	-0.3236004354922631	-0.5118916872495056	0.1882912517572424	63.54098480221833
1	1.0	perception	217	diff_vonmises	0.0166489867488027	0.9539166738756312	12.276139109901663	0.6971408858773905	0.0634211882782314	3.7206759966417007	0.3338373188539423	-0.6087839811398499	0.9426212999937922	38.194037570719445
2	1.0	wm	217	diff_vonmises	0.0672864281567859	3.855228351894061	4.906896225015179	0.3144010202404907	0.0020112155001944	3.4699283433281285	-0.2834634804977775	-0.5515367869933429	0.2680733064955654	61.39629673684692
3	2.0	ltm	217	diff_vonmises	0.0270841777173411	1.5518090747859137	4.448769288482213	0.4080044176994502	0.0056507844179706	2.1392049767135908	-0.0101139806644171	-0.3390816961032205	0.3289677154388034	64.44598939224468
4	2.0	perception	217	diff_vonmises	-0.0064308792510783	-0.3684622396450401	7.413931804357563	1.288185193507069	0.2465771084297718	3.1457649012034614	0.7428127364563399	-0.5283118459076707	1.2711245823640107	47.941106930259366
5	2.0	wm	217	diff_vonmises	0.0770581979550087	4.415109519705632	4.08988821295368	0.6151056931053217	0.1225877454190374	2.634365825483403	0.006465509722997	-0.4108060588117286	0.4172715685347257	63.09884909916863
6	3.0	ltm	217	diff_vonmises	0.0561319396329197	3.2161232368494157	2.9076327653876235	0.7614448188019101	0.3160701234104877	1.8932165788548891	0.0866814308964007	-0.2677150515716882	0.3543964824680889	69.80061423059487
7	3.0	perception	217	diff_vonmises	-0.0002231109866336	-0.0127833178971103	4.506503074469437	1.9273457343178075	0.2121147816529096	3.106284313385614	0.976401965965561	-0.4722622577539883	1.4486642237195493	61.514770414583495
8	3.0	wm	217	diff_vonmises	-0.0102656339683667	-0.5881775004135511	3.658394787168153	0.610965395105291	0.12711539322908	2.066084177807757	0.0753358459249362	-0.3159753511881682	0.3913111971131044	66.94586733161279
9	4.0	ltm	217	diff_vonmises	0.0470976454521452	2.6984963094114383	0.7122486011411987	147.5299018973591	0.6953804192431016	149.8228487965011	-0.1760629407229288	-0.4446761341767242	0.2686131934537954	88.4773639450147
10	4.0	perception	217	diff_vonmises	-0.0606167871860905	-3.473086073405678	1.8283295177072716	3.991546152288322	0.4231609478570036	6.097111319095611	0.5326086425545944	-0.6368605285223022	1.1694691710768963	84.0016506999529
11	4.0	wm	217	diff_vonmises	-0.0104203044869005	-0.5970394683406389	0.7526935655828006	203.0972714091759	0.7382700539895344	205.66019376645275	-0.1888558948736829	-0.5020063050044072	0.3131504101307243	86.29673490608843
12	5.0	ltm	217	diff_vonmises	0.0064153095379438	0.3675701607942039	1.9021829125190093	1.0366568817489938	0.0972494776151312	2.604800024005556	0.0629487190049115	-0.3659359610007951	0.4288846800057066	91.76341799131438
13	5.0	perception	217	diff_vonmises	-0.0410602725976496	-2.3525803255019886	2.000531900577717	2.947770653973786	0.2386933986115653	4.513910594664218	0.6216697124921933	-0.5529441319659432	1.1746138444581364	87.16187865736563
14	5.0	wm	217	diff_vonmises	0.0414691710264991	2.376008479724595	1.1455228722221236	2.0071942545527706	0.1542213288724711	3.839544602381406	0.0319485529199311	-0.4457153940663995	0.4776639469863307	109.23538291586767
15	6.0	ltm	217	diff_vonmises	-0.1135705353473651	-6.507112352445354	0.4957268284117533	198.35870126455197	0.4850708641386522	199.97312385110507	0.0006001029779554	-0.3896678389247725	0.3902679419027279	116.40803621558445
16	6.0	perception	217	diff_vonmises	-0.0892397143678238	-5.113058998229281	0.4708969230110549	140.44292437459353	0.4484012283397631	142.05482941667478	0.2042711622843569	-0.5248149352541436	0.7290860975385005	125.05085191658635
17	6.0	wm	217	diff_vonmises	-0.0184567530929624	-1.0574940557417754	0.4849940274120693	233.30926251107456	0.4747078458868441	235.07212388776367	0.0204382210285558	-0.4405350191552628	0.4609732401838187	118.48738672187736
18	7.0	ltm	217	diff_vonmises	0.0157208542280401	0.9007385976070972	0.8026814711173706	231.46849715904992	0.7896815857857024	233.60435212840196	-0.0696871962698821	-0.4495246265218071	0.3798374302519249	87.47883890551671
19	7.0	perception	217	diff_vonmises	0.0075337247427138	0.431650631770785	0.7355838827044019	58.70740810472584	0.6584312215016415	60.691164567381286	0.3142652188091155	-0.5839085923923539	0.8981738112014694	102.5258599416794
20	7.0	wm	217	diff_vonmises	0.0999741565966991	5.728097233370839	1.0610824200484157	4.782623303873623	0.5567162167224946	6.991217397039511	-0.1100451265153215	-0.4499736162872728	0.3399284897719513	86.31909747421318
0	1.0	ltm	315	diff_vonmises	-0.0916771449473575	-5.252713483292688	2.7629921906116985	0.4039149034765508	2.277880641358605e-18	1.7968684017414098	-0.0336465307653544	-0.2849756537658746	0.2513291230005201	82.72122913297338
1	1.0	perception	315	diff_vonmises	-0.0529759154909972	-3.035296373475859	13.588531235388531	0.6771249681059545	1.3771020250451545e-18	2.281917865655565	0.6231218219071091	-0.3631785080472378	0.9863003299543468	36.763905993118414
2	1.0	wm	315	diff_vonmises	0.0285982830657914	1.6385609209903047	4.559481330833983	0.4066563413575307	7.145050327723814e-20	1.8857421859544932	0.0354824843958262	-0.3000884116640491	0.3355708960598753	64.0177945498908
3	2.0	ltm	315	diff_vonmises	-0.0533350691461805	-3.05587436211456	2.722120005324295	1.0170627264256198	0.5032089789067963	1.8813348801810803	0.1646138356098255	-0.2414855979056934	0.4060994335155189	69.67115994008566
4	2.0	perception	315	diff_vonmises	-0.0260645785568119	-1.4933903460925102	6.739162762688965	1.2023431210538598	0.201791298564288	2.041076138427161	0.8265221839875163	-0.3307402799345648	1.1572624639220812	50.951144585511145
5	2.0	wm	315	diff_vonmises	0.0308013700500369	1.7647885070877751	4.623977037110896	0.5091055255879289	0.1662126981901871	1.4005198805454937	0.1619664693838172	-0.2186440272672476	0.3806104966510648	60.13052336590721
6	3.0	ltm	315	diff_vonmises	0.001467357670723	0.0840734015685784	1.2200835473297498	48.7231478603734	1.1727710573574417	49.30477820430095	0.2084523088672014	-0.2031023367724307	0.4115546456396322	79.91856172450485
7	3.0	perception	315	diff_vonmises	-0.0274148188335768	-1.5707534152797138	4.279583882029964	1.871528412817194	0.2448308985452832	2.4432147830792275	1.003239447720051	-0.3624499358411112	1.3656893835611623	63.14212457499744
8	3.0	wm	315	diff_vonmises	-0.0706475308048936	-4.047805348140878	1.5224805178671776	5.7774672050122975	1.0916121432600592	6.426854788066614	0.2181821327488022	-0.2235443756107612	0.4417265083595635	76.21332653277628
9	4.0	ltm	315	diff_vonmises	-0.1698867221732377	-9.733792175838106	1.8210944167268448	2.2805059377444885	0.7898740900670097	3.32338353383034	0.1087671142455497	-0.2767300261326615	0.3854971403782113	73.7377473433244
10	4.0	perception	315	diff_vonmises	-0.1135997893286924	-6.508788482109367	2.1935445971441863	2.821055235205748	0.2791937766711434	4.006309064458278	0.7116104410586225	-0.4879439694791558	1.1995544105377784	83.44048833769114
11	4.0	wm	315	diff_vonmises	-0.1470284978661476	-8.424112395878492	1.1969194757103658	275.15639493185046	1.185643944108079	276.4000196932383	0.1056047508038346	-0.3256581893173518	0.4312629401211865	75.70704158891627
12	5.0	ltm	315	diff_vonmises	0.0014358052220898	0.0822655794285937	1.5068994166458765	1.2161291298470245	0.0478465144560625	1.688064898354314	0.2465660827245082	-0.2300264314971729	0.4765925142216811	107.79234714898568
13	5.0	perception	315	diff_vonmises	-0.0483126215613684	-2.768109312679154	2.072007864167925	2.325310223043288	0.206129890994821	2.643750115189452	0.7138191571437846	-0.3242074162273184	1.038026573371103	88.92970360460129
14	5.0	wm	315	diff_vonmises	0.0249750945965125	1.4309675133201558	0.7460568895327362	136.84330315082832	0.7318694028144964	137.30256642250177	0.2370394886281701	-0.207648035088809	0.4446875237169791	103.82601725556428
15	6.0	ltm	315	diff_vonmises	-0.115787079565411	-6.634110981243509	0.4071154856480509	119.297256040121	0.3965309213558401	119.69129130834884	0.1420656705798251	-0.1952176254131732	0.3372832959929983	133.85946753902556
16	6.0	perception	315	diff_vonmises	-0.070238336440877	-4.024360238082185	0.5832554006149543	115.6249279728042	0.5616718253357941	116.04765381788296	0.3617810932291725	-0.299172844569167	0.6609539377983396	118.93786749921648
17	6.0	wm	315	diff_vonmises	-0.0997607591288435	-5.715870459103935	0.565456468357461	97.25832626884277	0.5489480464351773	97.6132730312252	0.2116267059439351	-0.2023350438682367	0.4139617498121719	119.47620883555976
18	7.0	ltm	315	diff_vonmises	0.0580174388110217	3.3241543820300468	0.9157481665168994	80.26948699409546	0.8829732186458762	81.13255506011468	0.2253224270800977	-0.2752299571283458	0.5005523842084436	91.54639152036546
19	7.0	perception	315	diff_vonmises	-0.0278628819184331	-1.5964255389975923	1.7994047271411422	2.644324863739474	0.262489844263289	3.4106367435798868	0.5856371349545311	-0.3841877613274093	0.9698248962819404	91.6656718985463
20	7.0	wm	315	diff_vonmises	0.130356251219658	7.468863028033496	2.1833882993322864	0.8333527015113517	0.073543031380723	1.6016958029931354	0.1791895992151188	-0.2311657318927866	0.4103553311079054	89.01131195391542
0	1.0	ltm	482	diff_vonmises	0.0046105441733511	0.264164722391651	4.932676595184628	0.3773213728279631	3.12959153414893e-13	3.718518608413298	-0.2670058391297256	-0.5918037437092192	0.3247979045794936	61.48574412580973
1	1.0	perception	482	diff_vonmises	-0.017564236353185	-1.006356613407753	14.064614229457764	0.6573402412931884	0.0165212516239083	3.981584374507904	0.3302400218181321	-0.6380465082405933	0.9682865300587254	35.98803458693658
2	1.0	wm	482	diff_vonmises	0.02507895080312	1.436918035635006	3.333574902409474	0.596194226340762	0.0573851268651545	4.133466324281701	-0.2817280562631958	-0.6429880246331972	0.3612599683700013	70.06012944138848
3	2.0	ltm	482	diff_vonmises	-0.0543301819551007	-3.1128901262050968	2.82500906133024	0.8207099256833925	0.1443402317993302	2.657387523706217	0.0332598882398548	-0.3915876277955355	0.4248475160353903	74.26256239443575
4	2.0	perception	482	diff_vonmises	-0.0357389292505201	-2.047689810371449	6.774351000268776	1.1999299614122978	0.1576019596552512	3.0596697992578266	0.6545915301371782	-0.4967866721781253	1.1513782023153034	50.645960065039816
5	2.0	wm	482	diff_vonmises	0.0156482494389345	0.8965786496189069	3.7133994892446034	0.8415978500975011	0.1641204181078715	2.855493866362857	0.0892701831403853	-0.4369872824284363	0.5262574655688217	65.47954283379207
6	3.0	ltm	482	diff_vonmises	-0.0526430896079028	-3.016226855061835	2.563790180712691	1.0912367176574131	0.1630189381299559	2.626419149257443	0.1639375142487324	-0.3722034860694531	0.5361410003181857	78.30054818574163
7	3.0	perception	482	diff_vonmises	-0.0290694709173131	-1.6655579962403322	3.543598248406058	2.359950887512426	0.2204068026395926	3.795411917087353	0.9533776033892192	-0.5494019453810196	1.502779548770239	68.50926533852879
8	3.0	wm	482	diff_vonmises	-0.0681766999205444	-3.906237166577093	2.6283434352081456	1.2267765116585845	0.2242460668494593	2.918038433323568	0.1705785548623886	-0.4072613737523609	0.5778399286147495	75.54072474545927
9	4.0	ltm	482	diff_vonmises	-0.079719300283638	-4.567579451988529	2.391578098118058	0.8603418111471882	0.0159951160645383	3.1661942947222883	-0.0180704936327539	-0.4917533245182131	0.4736828308854591	87.35329743124998
10	4.0	perception	482	diff_vonmises	-0.0901021903593501	-5.1624752324751	1.4186867438759665	7.278877041912237	0.5615701836437442	9.281967806456707	0.6509475625750913	-0.6743136823320107	1.325261244907102	89.0340855798691
11	4.0	wm	482	diff_vonmises	-0.1106479290637918	-6.33965934721819	0.7608846385283079	260.0723775334012	0.7472757237402088	262.5588194879545	-0.0542718747871759	-0.5319296786220313	0.4776578038348553	90.86822546022164
12	5.0	ltm	482	diff_vonmises	-0.0419570456163789	-2.4039616346563824	0.5878993788078779	93.76188883860333	0.5575382457314133	95.35234688120838	0.1276295801716571	-0.435466953916289	0.5630965340879461	111.18453031943372
13	5.0	perception	482	diff_vonmises	-0.0248336268414355	-1.4228620080170549	1.4334334381212592	4.912648609158669	0.4080845102634003	6.41727888154749	0.5962436118653822	-0.558624727614416	1.154868339479798	93.88394174904232
14	5.0	wm	482	diff_vonmises	-0.0548291568679712	-3.141479282795485	0.6134109314752947	296.6117794416293	0.603308560777247	298.27201704963176	0.1256692462043958	-0.4413105637780354	0.5669798099824312	107.49680988226606
15	6.0	ltm	482	diff_vonmises	-0.0881260107349918	-5.049248480439617	0.8625620811156597	1.718852692857691	9.041927432777112e-19	3.264827812194576	0.0228333950190597	-0.4229760065555226	0.4458094015745824	134.4571415169354
16	6.0	perception	482	diff_vonmises	-0.0358212907100147	-2.0524087743950283	0.4578382074940366	171.1419239954067	0.4384803031289779	172.63116494359716	0.2633140980538115	-0.5363934659858458	0.7997075640396574	127.25549376427335
17	6.0	wm	482	diff_vonmises	-0.096619832276432	-5.535908606701444	0.4709202859859959	280.39644227169435	0.4618208252043853	281.9890277629994	0.0925866441940428	-0.447762687267037	0.5403493314610799	122.34519120671632
18	7.0	ltm	482	diff_vonmises	-0.0171436137676572	-0.98225671448913	0.6732880778568338	203.7707322556816	0.6584537373271581	205.80175746215247	0.0132421072064019	-0.461833313282483	0.4750754204888849	99.09360803113248
19	7.0	perception	482	diff_vonmises	0.062060115625327	3.5557827014251364	0.7575478012392753	309.24275405249296	0.741647342558052	311.1188457032254	0.3898592332833175	-0.5817556840944746	0.9716149173777922	99.7064182895264
20	7.0	wm	482	diff_vonmises	0.0782964986989242	4.486058926099899	0.8358237787523463	111.28339442738483	0.8062000763797077	113.32063150839268	0.0083752240829682	-0.4555108360423539	0.4638860601253221	88.55719768777132
0	1.0	ltm	50	diff_vonmises	-0.0432213081684414	-2.4763985430860056	4.017064903173475	0.3338365337903134	6.210484300333375e-17	1.8264155470904175	-0.0334490753131946	-0.2905996423569695	0.2571505670437749	68.31831978797757
1	1.0	perception	50	diff_vonmises	-0.033032732371826	-1.8926361506908	12.6862238060074	0.6753544679727981	0.0006347700949555	2.394018953793072	0.5685434819880234	-0.3810364397022212	0.9495799216902446	38.05188553139382
2	1.0	wm	50	diff_vonmises	0.0623900938892158	3.574689063277018	4.21246267141399	0.4394864519797418	3.662447521682175e-17	2.006045874309061	0.0282413009251155	-0.3191958785612285	0.347437179486344	66.67040166079931
3	2.0	ltm	50	diff_vonmises	-0.0064761891248107	-0.371058304180179	2.5562545440446325	1.1758054275195884	0.6698195695156041	1.9184364690344888	0.1671679955137784	-0.2227526516478891	0.3899206471616676	69.05110516897986
4	2.0	perception	50	diff_vonmises	-0.0096227947335671	-0.5513455253541137	6.501941072852432	1.2678253520891447	0.3507328979130543	1.9054617655054091	0.8448976888779951	-0.3141215902046292	1.1590192790826244	51.078866208147446
5	2.0	wm	50	diff_vonmises	0.0596386103307383	3.4170406679766163	4.524122029124074	0.5589913924008764	0.268172650770492	1.324376284213025	0.1886656752399605	-0.2061517521419918	0.3948174273819524	59.61108778169941
6	3.0	ltm	50	diff_vonmises	0.0258157924694563	1.479135953285462	2.1103617818478217	1.3575473470934067	0.7341751262222008	1.8582287501769787	0.1824640594273114	-0.1719591892111016	0.3544232486384131	74.33479266228886
7	3.0	perception	50	diff_vonmises	-0.0131145412245803	-0.7514078624187865	4.728320608545785	1.599295750143209	0.2422485473407582	2.0619176388244105	0.9339036681330624	-0.3123661218112534	1.246269789944316	60.33215142976417
8	3.0	wm	50	diff_vonmises	-0.0281455697763625	-1.6126223601765404	2.433743093977132	1.1971751296547803	0.6670618968556399	1.776311747881942	0.2001466531258798	-0.1935963228881284	0.3937429760140083	71.45988991505294
9	4.0	ltm	50	diff_vonmises	-0.1812156941736843	-10.382894457685572	1.5143747139267925	4.323466925201372	0.971754848183756	5.282555406138223	0.1067075372972834	-0.2591106580230446	0.365818195320328	75.0192390655429
10	4.0	perception	50	diff_vonmises	-0.0944077105571602	-5.409163368417946	2.441867960307874	2.3374380907727583	0.1903444100144621	3.361124488438856	0.7172922797257231	-0.4472465353519034	1.1645388150776266	81.93739376986241
11	4.0	wm	50	diff_vonmises	-0.1108370101938515	-6.350492897956173	1.2122069916950104	270.42523023724885	1.200559562008695	271.5845981112912	0.1415705592876435	-0.3175142816079557	0.4590848408955992	76.12657926347069
12	5.0	ltm	50	diff_vonmises	-0.0124298158301751	-0.7121759871939382	1.2192405287108083	1.7867734373414397	0.2112131047505887	2.244395929233189	0.2474308792142406	-0.2263075246544047	0.4737384038686454	109.0642456352102
13	5.0	perception	50	diff_vonmises	-0.0436863079023015	-2.5030410653108963	1.861852815872136	2.7159509845400085	0.3304028976567846	3.025561077976915	0.6894047701403913	-0.3161588313531444	1.0055636014935356	89.88151198736136
14	5.0	wm	50	diff_vonmises	0.0770913845366928	4.4170109707726	0.7504674252684087	120.29496149672842	0.7334794420560596	120.6798606406879	0.2780484392018039	-0.2103739322602198	0.4884223714620237	104.6697502302774
15	6.0	ltm	50	diff_vonmises	-0.0874240108870525	-5.00902685193387	0.4709097859403934	157.8709703748857	0.4609804817577102	158.1794840350869	0.2174540112320926	-0.2114482234570367	0.4289022346891293	128.53442331163237
16	6.0	perception	50	diff_vonmises	-0.0608374429305526	-3.4857287162886754	0.6844119094262536	228.78976834736503	0.6714702967989951	229.1215596609219	0.4710894359083042	-0.3067616488828619	0.7778510847911662	111.10687883892044
17	6.0	wm	50	diff_vonmises	-0.0751238588579853	-4.304280053299047	0.5978434052218163	54.28344351395216	0.5612820279698453	54.50339391730437	0.3180316104751046	-0.2267905545961381	0.5448221650712428	119.24382613684392
18	7.0	ltm	50	diff_vonmises	0.0512511859674025	2.936476650972277	0.8664229452557781	111.0769452936635	0.8419073388202174	112.0653346632646	0.2115252978598576	-0.2997035029367687	0.5112288007966264	93.27853829424927
19	7.0	perception	50	diff_vonmises	-0.0390636218622051	-2.238180665199329	2.4785619215867616	1.8560256487821132	0.0449242936558865	2.7448115240931936	0.631629702134741	-0.4097943030023804	1.0414240051371215	85.6447837476228
20	7.0	wm	50	diff_vonmises	0.2061173774333924	11.809655811238423	2.468060477685568	0.8012646811724793	2.989849522335341e-16	1.6491453534984708	0.206200937586327	-0.2591033612016011	0.4653042987879282	87.5238074640265
0	1.0	ltm	27	diff_vonmises	0.001209979178522	0.0693267002280176	5.719661495923614	0.2616997579996963	1.16570276244659e-20	3.311547983796069	-0.2833510806242906	-0.5270466077698774	0.2436955271455868	57.004447680545866
1	1.0	perception	27	diff_vonmises	-0.0158828673915832	-0.910021268103676	14.721716967837988	0.6617794349407281	0.0399769258357628	3.75111544535272	0.3829779937048414	-0.6087376199862361	0.9917156136910776	35.052312326117544
2	1.0	wm	27	diff_vonmises	-0.0083927750741501	-0.4808705901513986	4.653237530606217	0.3624721731509061	0.0239548141336198	3.694313247301936	-0.2997260555074605	-0.5850047016322729	0.2852786461248124	61.34162116804046
3	2.0	ltm	27	diff_vonmises	-0.0264845745092188	-1.5174543415780013	3.886049067121076	0.4829249667182198	1.8585114931019837e-15	2.2857087099792297	0.0016452206791634	-0.3636278324421449	0.3652730531213083	69.49087453618165
4	2.0	perception	27	diff_vonmises	-0.030958513116364	-1.7737921415680606	7.7204755288829565	1.1991493738211252	0.2088271626927458	3.162173602709463	0.6927652574243546	-0.5286334038467608	1.2213986612711154	47.2009334299342
5	2.0	wm	27	diff_vonmises	0.0090295120293909	0.5173529303467103	3.6479215668118856	0.7294386616249852	0.1392481744326665	2.874501217250524	0.009787307737429	-0.4418183182775826	0.4516056260150117	66.06895673964615
6	3.0	ltm	27	diff_vonmises	0.0086052589789924	0.4930450211133237	2.5078214559002148	1.140122639418084	0.3627209795266713	2.492236819835601	0.1213401828121552	-0.3290966670909706	0.4504368499031258	73.36931809857901
7	3.0	perception	27	diff_vonmises	-0.0225756388652604	-1.293488826790932	4.068948437520601	2.2944367301707107	0.2825166914190419	3.6381708831741095	1.027553436802072	-0.5385129202766308	1.5660663570787028	63.63207145648028
8	3.0	wm	27	diff_vonmises	-0.0579172781178172	-3.3184155970363247	3.1532433009204643	0.8607631633284979	0.1901073206893548	2.562542186973094	0.0911001957897097	-0.3794136581699546	0.4705138539596644	69.94908070662254
9	4.0	ltm	27	diff_vonmises	-0.0472060760449689	-2.7047089247503395	1.376344130500301	2.097240140563343	0.333515819858905	4.360915292270527	-0.0799516640351483	-0.4668314747846421	0.3868798107494938	88.4138040218755
10	4.0	perception	27	diff_vonmises	-0.0683800246074743	-3.9178868130089946	1.8781330389813893	3.9654630186973847	0.4010811020831277	6.045751921059537	0.58835173452471	-0.648495196504185	1.236846931028895	83.99613203078545
11	4.0	wm	27	diff_vonmises	-0.110287532302493	-6.319010133845586	0.7624819799297196	270.4953690374664	0.7505583940332136	273.0223430557699	-0.1276778960570084	-0.5147842158644238	0.3871063198074154	88.24186110531303
12	5.0	ltm	27	diff_vonmises	0.0109639845033225	0.6281900386872216	1.5979932735848168	1.557808936943901	0.1770293305737038	3.0613709882892586	0.1241140996101123	-0.3807546999679426	0.504868799578055	95.27504078038211
13	5.0	perception	27	diff_vonmises	-0.0264478306015589	-1.5153490707462722	2.001120075690807	2.801492835407145	0.1958579535703405	4.292257408964153	0.6226196814823844	-0.5427817547377621	1.1654014362201466	88.61357882033255
14	5.0	wm	27	diff_vonmises	-0.0534134979264226	-3.060368000214792	0.5819874065726143	182.18461752967733	0.5668474786113326	183.93271011305825	0.0673989075197809	-0.4386299158072795	0.5060288233270605	109.1435338005919
15	6.0	ltm	27	diff_vonmises	-0.1402806688406581	-8.037490271842065	1.0484105753244275	1.3327024852122693	7.935535832178021e-15	2.7568771474082627	0.0288054470564733	-0.3813306007483883	0.4101360478048616	126.45554947033644
16	6.0	perception	27	diff_vonmises	-0.0330572890820079	-1.8940431465429524	0.9491354659471848	2.68091532232614	0.0422541665444716	4.1423834483481885	0.2028180680272773	-0.4983380637165399	0.7011561317438172	127.68146456741026
17	6.0	wm	27	diff_vonmises	-0.0820620704704418	-4.701810296061459	0.425997260273761	248.1726799872888	0.4172673597760792	249.73972053511272	0.0366847177815898	-0.4185004285268228	0.4551851463084126	126.44798618341277
18	7.0	ltm	27	diff_vonmises	-0.0002061454382078	-0.0118112635751865	0.8252815530486963	229.87527041402785	0.8123196407095422	231.633368956572	0.0309469928062782	-0.4016396981169201	0.4325866909231983	89.41442244180979
19	7.0	perception	27	diff_vonmises	0.0279139356660061	1.599350703261854	0.6424942008152317	238.87105052915004	0.6260761901589802	240.505757485668	0.3023001477362186	-0.5191068365718294	0.821406984308048	108.26409896128372
20	7.0	wm	27	diff_vonmises	0.0630612495146056	3.6131434480083127	0.8422896400463445	152.63645004909387	0.8238641719418905	154.48716532047965	-0.0335489766167143	-0.3998106388566143	0.3662616622399	86.48952076752755
0	1.0	ltm	125	diff_vonmises	-0.051897807507286	-2.9735253361498475	2.9379725956613125	0.1856964749248278	9.049663424773698e-23	1.4616362336726572	-0.1124457503305195	-0.2322893869293186	0.1198436365987991	80.1816369272438
1	1.0	perception	125	diff_vonmises	-0.0191141383096023	-1.0951594541695342	13.212528597728634	0.6626244869072296	0.0559931031980057	2.15653194331819	0.588741861341062	-0.3514202664499041	0.9401621277909662	37.0263997307261
2	1.0	wm	125	diff_vonmises	0.0544076614320542	3.117329373233412	5.316136457375395	0.2540176258523616	5.2525382203111927e-17	1.639266129773928	-0.0333332002080081	-0.2608918175505748	0.2275586173425666	59.175092533156544
3	2.0	ltm	125	diff_vonmises	0.0754100324142632	4.320676590282016	5.314207216962415	0.3325913164692342	0.1351646371332289	1.112465577803221	0.0961206073166518	-0.1768495082201754	0.2729701155368272	56.507639480517724
4	2.0	perception	125	diff_vonmises	0.003997567845231	0.2290437658489472	7.40552701115912	1.3734417020403744	0.5325953397390202	2.0922704335301163	0.935031600102631	-0.3700038976440998	1.3050354977467309	47.18334012807824
5	2.0	wm	125	diff_vonmises	0.1054201412331463	6.04012916833235	4.949094496338351	0.3639103983431812	0.1796746835900408	1.2942513226868682	0.0692894142130117	-0.2060511852864749	0.2753405994994867	57.41180522916491
6	3.0	ltm	125	diff_vonmises	0.1486139855894013	8.51495415089073	1.7651537950851608	65.95306858981776	1.7385913027138664	66.33049304442105	0.1109068895990965	-0.1391975897675781	0.2501044793666747	64.62334606072605
7	3.0	perception	125	diff_vonmises	-0.0001550392581252	-0.0088830951494146	5.461207415566552	1.6449027582734044	0.4224286889819647	1.994182929186653	1.0314694071889727	-0.3126685167034103	1.344137923892383	55.31834889458469
8	3.0	wm	125	diff_vonmises	0.01418986144617	0.8130191727409491	4.422762254164885	0.429057103629579	0.4349211916049239	1.0514096617107542	0.1016553504639052	-0.1663474491044873	0.2680027995683925	57.64355507868336
9	4.0	ltm	125	diff_vonmises	-0.1137559764478517	-6.517737344851501	1.352568846401352	131.25389777452196	1.335691714123347	132.2844530655825	-0.0167812886899696	-0.2530114503901828	0.2362301617002131	67.648170869507
10	4.0	perception	125	diff_vonmises	-0.0588972299783643	-3.374562702771667	2.97713268378686	1.822073016368121	0.1856009497735699	3.0180477669252146	0.6147603910686685	-0.4258835631662654	1.040643954234934	74.58854788356888
11	4.0	wm	125	diff_vonmises	-0.0779934184410935	-4.468693706472463	1.2509297431929594	230.5604783022353	1.2387834080984887	231.8769926662441	0.0051604531708164	-0.3196002510171141	0.3247607041879305	71.26091055419727
12	5.0	ltm	125	diff_vonmises	0.0689922151534706	3.9529627475523927	2.193384713087649	0.8285604884324184	0.2512158386265398	1.4053349965855666	0.1687921077214267	-0.1782584573043052	0.347050565025732	82.83217300132094
13	5.0	perception	125	diff_vonmises	-0.04402972376652	-2.522717344948456	2.533543874568612	1.9026677206401128	0.1450186502291141	2.35657854791906	0.6987447833341065	-0.3223856580308242	1.0211304413649307	82.31611675492232
14	5.0	wm	125	diff_vonmises	0.1694500889875934	9.708774937105332	1.9026958607037516	0.8046547049539982	4.1353668273587914e-16	1.4810349935333331	0.1670341006122193	-0.2267522603576764	0.3937863609698957	99.27354644570426
15	6.0	ltm	125	diff_vonmises	-0.1704963027937442	-9.768718572666094	0.5848423180071389	101.96573723138292	0.5699774003190207	102.45523514318064	0.1589937622558928	-0.2000890666557051	0.3590828289115979	115.73330772516368
16	6.0	perception	125	diff_vonmises	-0.0764411870921648	-4.379757401350951	0.6894736350123166	160.3273121362426	0.6722168664589734	160.93682071491253	0.3566156205266821	-0.3080273858459765	0.6646430063726587	108.61809074845564
17	6.0	wm	125	diff_vonmises	-0.0036954883802174	-0.2117358874260984	0.787397213327327	2.8205777160081227	0.2295991461247226	3.369700215422293	0.1837436279688419	-0.244796419528652	0.4285400474974939	124.21825255543249
18	7.0	ltm	125	diff_vonmises	0.074912969145221	4.292196962814923	1.111174553549069	189.04169680181823	1.097114179453537	190.0689550543929	0.1275717229655555	-0.2771770402979747	0.4047487632635302	79.82169784665311
19	7.0	perception	125	diff_vonmises	-0.0770859557627986	-4.416699924940527	2.085439687367794	1.59248360269261	2.91478709091578e-14	2.5893010238878214	0.430389220503431	-0.3990917018088587	0.8294809223122896	95.09388888068364
20	7.0	wm	125	diff_vonmises	0.2333014386095215	13.36718778665606	2.302692757095602	0.5992482654151168	0.1237663018289187	1.6185159051085658	0.0459838347238817	-0.2308279149893543	0.2768117497132361	82.83184643710456
0	1.0	ltm	223	diff_vonmises	-0.0012257465781915	-0.0702301056829795	6.046162473550938	0.3507924514473916	0.0246037139666473	3.524579775258676	-0.2384883595361194	-0.5609960276734836	0.3225076681373641	54.11316470604308
1	1.0	perception	223	diff_vonmises	-0.0138203322047398	-0.7918467068003239	13.471874487367808	0.6825169806802932	0.0475235337544105	3.8576709445434902	0.3462206889763313	-0.6275674450696347	0.973788134045966	36.5767326433232
2	1.0	wm	223	diff_vonmises	0.0104935399896859	0.6012355535607607	3.933169138150869	0.5658729552138719	0.0917168818077358	3.9911816413776817	-0.2637214682540448	-0.6274376927190255	0.3637162244649807	63.397659342062695
3	2.0	ltm	223	diff_vonmises	-0.0766936678531086	-4.394223483361283	2.905690729593469	0.8257067139657713	0.1812339146408617	2.540167547274773	0.0503308505684896	-0.3722404183976733	0.4225712689661629	72.37009138189833
4	2.0	perception	223	diff_vonmises	-0.0371728968621579	-2.1298501024767504	7.286788552285719	1.1449899472322838	0.1821425586854776	2.9683903769840474	0.6482122185594472	-0.4889263738214816	1.137138592380929	48.71881365597062
5	2.0	wm	223	diff_vonmises	0.0170283948859929	0.9756551588495512	3.7887112227728696	0.7944017270035894	0.1790296105755751	2.71768123879965	0.0796772837851588	-0.4172674624439312	0.49694474622909	64.50797507117389
6	3.0	ltm	223	diff_vonmises	-0.0390453062846474	-2.2371312599059263	2.0733703393081973	1.618427143814986	0.4420416508608371	2.9434620080940195	0.1587281834179078	-0.3399813734313802	0.498709556849288	77.73898569845548
7	3.0	perception	223	diff_vonmises	-0.0286515022810251	-1.6416101574121935	3.916325640110272	2.148883940338667	0.2608292981717146	3.441197347915375	0.9341220255832594	-0.5061393866547821	1.4402614122380415	64.96743493758314
8	3.0	wm	223	diff_vonmises	-0.0428960486306634	-2.45776254432495	2.3984928470874483	1.3282894028620684	0.3542991993659256	2.861258083943356	0.1347916091738221	-0.3721629607050903	0.5069545698789125	74.87116911182287
9	4.0	ltm	223	diff_vonmises	-0.097352464698174	-5.5778853524017125	1.5086721178064653	2.032607273687042	0.3188104109461332	4.0751585985687	0.0136083772459009	-0.4504763816594984	0.4640847589053993	88.41089244705461
10	4.0	perception	223	diff_vonmises	-0.0917458421498298	-5.256649543058708	1.8030869105108849	4.164501683398298	0.4198519046773222	6.014395334948864	0.6229455139849869	-0.6144775289868343	1.2374230429718212	85.30869034145027
11	4.0	wm	223	diff_vonmises	-0.139363716572204	-7.984952776844698	0.836206214022574	280.4169053824708	0.8239626215858227	282.62485898303294	-0.0251061824609593	-0.4819303081370378	0.4568241256760785	87.0971230143727
12	5.0	ltm	223	diff_vonmises	-0.0132484459817387	-0.7590800398606875	1.1635494101594446	2.750644500948323	0.2587243839758116	4.2044891656635786	0.1718634894973987	-0.4091910387485976	0.5810545282459963	104.4864661459668
13	5.0	perception	223	diff_vonmises	-0.040824982116029	-2.339099173945531	1.9372162654786864	2.965070184219681	0.2329650868537228	4.355363047366451	0.6370726693531423	-0.5271596842566973	1.1642323536098398	88.83127200729726
14	5.0	wm	223	diff_vonmises	-0.0562763131821009	-3.2243952318908224	0.6641614769829561	268.40201497540386	0.6530579297162534	269.9017649153725	0.1533866792832015	-0.4087405174737952	0.5621271967569967	104.0120540425373
15	6.0	ltm	223	diff_vonmises	-0.0797969177306829	-4.572026604120781	1.028658497937716	1.5164798805655186	5.155541413859698e-13	2.7978596727871152	0.0810997266572801	-0.3780182213989753	0.4591179480562554	127.35707273571852
16	6.0	perception	223	diff_vonmises	-0.0542715598128691	-3.109531324869208	1.0136731452525196	2.4341697481844857	1.9793969943370076e-11	3.718500125200593	0.2462545599674521	-0.4814561349844819	0.7277106949519341	127.99565276452356
17	6.0	wm	223	diff_vonmises	-0.1459812929449644	-8.36411197360936	0.5090495766752826	233.69499678420823	0.4989446329689649	234.9724794894249	0.1266756814706653	-0.3815080852983605	0.5081837667690259	119.33179350032503
18	7.0	ltm	223	diff_vonmises	0.0082624782221078	0.473405130445535	0.69871488925515	252.82427646855325	0.6870519612797237	254.45143205938817	0.1028060333945575	-0.4085303142701839	0.5113363476647415	99.86788056917834
19	7.0	perception	223	diff_vonmises	-0.0169489846204508	-0.9711052857839756	0.7940310971161967	332.8202752472669	0.7804376482791716	334.2552936694848	0.4336205644466133	-0.4970298688449084	0.9306504332915218	98.6248892071166
20	7.0	wm	223	diff_vonmises	0.1147212049938155	6.573040866800776	1.21088378964322	4.8220942872549655	0.6302962431866894	6.38590166571097	0.1054063916634138	-0.3834764883034652	0.488882879966879	86.97293950200998
0	1.0	ltm	344	diff_vonmises	-0.1793969230555314	-10.278686548715129	1.9227764183283929	0.4752032554073422	1.1597838154459149e-19	2.139555782204508	-0.1011509919482602	-0.3354042148193621	0.2342532228711019	98.79238534312864
1	1.0	perception	344	diff_vonmises	-0.0397929180842395	-2.2799662607367357	14.092797322519608	0.7696177309339873	3.99597769785736e-22	2.629182872515867	0.7234062926249063	-0.4184474504527927	1.141853743077699	36.09817011944517
2	1.0	wm	344	diff_vonmises	0.0213875208171163	1.225414677068955	2.6989796480413166	0.4896941962056261	3.711615666220524e-37	2.258808597966949	-0.057701436359364	-0.3581346121370136	0.3004331757776496	83.70930422943968
3	2.0	ltm	344	diff_vonmises	0.0105776779546107	0.6060563038477664	4.5117371673013125	0.3907920729814367	1.2529335948981476e-20	1.3343090496346404	0.1083265621550077	-0.2123232147208522	0.32064977687586	64.36459288810255
4	2.0	perception	344	diff_vonmises	-0.0277555162559378	-1.590273939671985	7.319829656089588	1.3042625201319733	0.2836545818525397	2.1084334462303054	0.9449491607772068	-0.3515746860734005	1.296523846850607	48.59667004080396
5	2.0	wm	344	diff_vonmises	-0.0010568485470824	-0.0605529613323589	4.166621747991061	0.5353107297097721	0.1209756695342767	1.5317329282759533	0.146696582695146	-0.2363900205211717	0.3830866032163178	63.79409897850786
6	3.0	ltm	344	diff_vonmises	0.0231089259048197	1.32404392342671	3.1492256135519567	0.5228292852129186	0.1122055822384932	0.9820989688275468	0.1776656264430501	-0.1448113946418011	0.3224770210848512	73.95119216947637
7	3.0	perception	344	diff_vonmises	-0.0138489592919281	-0.7934869180759686	4.084650211650185	2.018864669310984	0.3414759057743365	2.289332537632462	1.0719658265614491	-0.3277422898000818	1.399708116361531	63.93982788358875
8	3.0	wm	344	diff_vonmises	-0.1253926765559009	-7.184471148502144	2.985094569113558	0.8753967349767627	0.4033510461380417	1.3897538361079704	0.2537013324026785	-0.183565505194395	0.4372668375970735	70.57511596637045
9	4.0	ltm	344	diff_vonmises	-0.1404308154494546	-8.046093038834309	2.4060980771652454	1.011273481004117	0.4633257354798952	2.108097348419349	0.0769688986182518	-0.2665211684539297	0.3434900670721815	71.96920401896341
10	4.0	perception	344	diff_vonmises	-0.0899615959677203	-5.154419767211503	2.3350810294479647	2.9425900804695915	0.3299539452019698	4.028589757788904	0.7977092776745212	-0.4852164543829045	1.2829257320574257	80.43459422250905
11	4.0	wm	344	diff_vonmises	-0.1108045699711534	-6.348634210109111	1.1139445859274706	254.3966890543649	1.102357307519679	255.70330891388363	0.07966917563283	-0.3270769189480553	0.4067460945808854	77.91732854653839
12	5.0	ltm	344	diff_vonmises	-0.0154447740612309	-0.8849203692416621	1.1647755263792912	1.5115856023287608	0.1703296139808979	2.1630898092430564	0.1579856449614202	-0.2334299968699105	0.3914156418313308	111.51519336625464
13	5.0	perception	344	diff_vonmises	-0.0042299121355168	-0.2423561130762841	2.0481062145665785	2.4197290531053515	0.1863423437874299	2.8528310998742787	0.7239970520528286	-0.3562660445322507	1.0802630965850792	89.7191678490328
14	5.0	wm	344	diff_vonmises	0.0337787875955664	1.9353819662948144	0.592107101791618	82.15913337290273	0.5692618174593842	82.84076845035018	0.1774921162300593	-0.2535002043093994	0.4309923205394588	114.6545965714754
15	6.0	ltm	344	diff_vonmises	-0.1456867884230399	-8.34723810745557	0.3782212745327504	123.73524123964036	0.3677573128437696	124.33713842533336	0.1022673856958995	-0.2263669805415862	0.3286343662374857	135.5455573965637
16	6.0	perception	344	diff_vonmises	-0.0249222532406273	-1.4279399266441837	0.4973597875256948	252.8078755944543	0.4858172797643448	253.36707417764356	0.4081480790911271	-0.3831809090039151	0.7913289880950423	126.14056124994453
17	6.0	wm	344	diff_vonmises	-0.0703856013723732	-4.032797897127202	0.4180074644643684	115.53006360953016	0.4019002073511046	116.16671706102136	0.1966058775905175	-0.2915492415376395	0.488155119128157	132.7392650377176
18	7.0	ltm	344	diff_vonmises	0.1684239315282605	9.64998044556969	0.8821392182139971	123.66626448265876	0.8648996789273334	124.54738290651788	0.1280281585884921	-0.2428109146757204	0.3708390732642126	90.81398150258386
19	7.0	perception	344	diff_vonmises	0.0595766963000735	3.4134932553268795	1.7358638809954128	2.081456237140572	0.1528320781026186	2.878698709643013	0.4545516654491167	-0.3605840743181848	0.8151357397673016	96.57197955649453
20	7.0	wm	344	diff_vonmises	0.091961270541889	5.268992680710988	0.6834144825457477	78.41418895905872	0.6614838706566044	79.31679447231721	0.0770827069425905	-0.2373927692467132	0.3144754761893038	102.31057245759368
0	1.0	ltm	200	diff_vonmises	-0.1760940485136812	-10.089445777205905	1.549522855294473	0.5059864081639681	3.7657753459129353e-16	1.1594770751062746	0.0389933278086528	-0.1744570149021523	0.2134503427108051	108.84663151955368
1	1.0	perception	200	diff_vonmises	-0.0628516757338449	-3.6011357548741247	13.135599385383568	0.6609530327904329	6.877916760180966e-17	1.5585598417378734	0.6978862510755222	-0.2480525029134173	0.9459387539889396	37.40458403408658
2	1.0	wm	200	diff_vonmises	0.0651818128277402	3.734642776041204	3.2594549853851684	0.4374423290916412	1.6521290357833379e-21	1.1284560217308817	0.1206719036063498	-0.1791563398727538	0.2998282434791037	76.04369184958429
3	2.0	ltm	200	diff_vonmises	0.0202301219475299	1.1591006066284435	2.64331125706736	1.2775357097281868	1.0118966467127275	1.648440935809774	0.2108793751385957	-0.1585433579895226	0.3694227331281184	66.01455024537961
4	2.0	perception	200	diff_vonmises	-0.0037892857317607	-0.2171100797990333	6.423415855607678	1.2835168311627505	0.3589063897254672	1.508453273951657	0.9374059588247788	-0.2448021697244324	1.1822081285492112	51.73648690474775
5	2.0	wm	200	diff_vonmises	0.0694752472756604	3.980638449523113	5.2621483518619305	0.3889416067290868	0.2547909910181061	0.7608882584985222	0.1928228678911679	-0.1203181945558653	0.3131410624470332	56.44494198991504
6	3.0	ltm	200	diff_vonmises	0.0726909357987331	4.164883830123839	1.517188333321217	107.51844686065805	1.5001541512864105	107.77989138589388	0.2065563505904322	-0.1314569909727012	0.3380133415631334	72.94479937775594
7	3.0	perception	200	diff_vonmises	-0.0180570462900716	-1.0345925428934644	4.888219761888794	1.644140362878247	0.2299343801902078	1.8954287243430905	1.0339110651318064	-0.2876166857433273	1.3215277508751335	59.69312106958159
8	3.0	wm	200	diff_vonmises	-0.0471296638990473	-2.700330831285493	1.569529404750457	43.34959058897885	1.5219370297451384	43.66686445824888	0.2187788175800307	-0.1501052098652042	0.3688840274452349	71.65096569973642
9	4.0	ltm	200	diff_vonmises	-0.1967077960388208	-11.27052651034465	1.6383188769652977	101.66242296872936	1.614176088852771	102.32605005063876	0.1172455852432676	-0.2137495369219095	0.3309951221651772	65.84588072174776
10	4.0	perception	200	diff_vonmises	-0.1054738347551285	-6.043205580529122	2.5425912688798045	2.174579130856066	0.1487199658744371	3.057687752716516	0.7328085426947857	-0.4208247760075075	1.1536333187022931	81.6185677725133
11	4.0	wm	200	diff_vonmises	-0.1143982132017318	-6.554534800297011	1.4055672823107206	302.9397025176028	1.3959448253318618	303.836925793926	0.1480281930256666	-0.2685824057297026	0.4166105987553692	71.13225542319327
12	5.0	ltm	200	diff_vonmises	0.0184550676241046	1.0573974854897232	1.7223524464719584	0.8752976448695137	9.243896638580277e-18	1.0083459931990435	0.2518920583794436	-0.1473226071387086	0.3992146655181522	103.97789044697608
13	5.0	perception	200	diff_vonmises	-0.0474796812456925	-2.7203853480046325	1.962514446215632	2.2821184458412285	0.2937592707554031	2.208982417237948	0.7022820208024089	-0.2387530972672412	0.94103511806965	89.96700491479086
14	5.0	wm	200	diff_vonmises	0.1180639755758791	6.764567513033509	0.7958116213561979	54.30533327339765	0.7678690612946679	54.39260507050712	0.2638110778481923	-0.1364325862047573	0.4002436640529496	104.7223821178392
15	6.0	ltm	200	diff_vonmises	-0.1473173175360018	-8.4406605440015	0.4639088851329184	96.28531933124292	0.4523167591228266	96.39803848037884	0.1803281197028141	-0.1413485842713733	0.3216767039741874	130.2638146015547
16	6.0	perception	200	diff_vonmises	-0.0687363958769768	-3.938305382691208	0.754970612331564	249.4391181949586	0.7447161180011851	249.5524989265009	0.455069374195773	-0.2345224972964992	0.6895918714922722	107.1351584734654
17	6.0	wm	200	diff_vonmises	-0.0271792622473768	-1.557257017053948	1.2165376617848105	1.2239334687980217	3.216747762268193e-10	1.2839521927496542	0.2634085395464493	-0.1632910564549581	0.4266995960014075	120.08348391321329
18	7.0	ltm	200	diff_vonmises	0.0437163854121802	2.5047643796852057	1.1020947041873617	109.97931832403376	1.0773193924489544	110.71902450105507	0.2471714139954954	-0.2514517425077063	0.4986231565032017	83.6913932839891
19	7.0	perception	200	diff_vonmises	-0.0384471001913328	-2.2028565754799896	2.5067855514946107	1.7476195768951968	3.985720130381622e-19	2.469015754452996	0.6386483769524618	-0.3860986445034048	1.0247470214558665	86.87600086166344
20	7.0	wm	200	diff_vonmises	0.1255053733584054	7.190928199650274	1.903696061441672	0.7499821469549082	1.3652372667425866e-24	1.3896141378212643	0.1543442806426422	-0.2128252414990022	0.3671695221416445	99.27282356230728
0	1.0	ltm	79	diff_vonmises	0.0058661321348612	0.3361046133936184	7.375334038763843	0.2002460867993875	0.024777549390096	3.275833898208694	-0.3213730772575691	-0.5240614450796788	0.2026883678221096	48.72296870266041
1	1.0	perception	79	diff_vonmises	0.0196636368897551	1.1266434036607242	12.235071063888428	0.7588077269453772	0.1045522250231342	3.872096225099447	0.3652834611987394	-0.6468866589357164	1.012170120134456	38.01698089255643
2	1.0	wm	79	diff_vonmises	0.0486260698311948	2.7860685756358854	5.4474170350997575	0.3141436538632328	0.0385857840680034	3.653011699693423	-0.3189594991651201	-0.5820627860592124	0.2631032868940922	55.96371292892215
3	2.0	ltm	79	diff_vonmises	0.0079094866991977	0.4531802059788922	4.630027622008281	0.3726811835042101	5.493873638128785e-17	1.954842622234194	-0.0010230866993536	-0.3110933517322742	0.3100702650329205	63.51798923316275
4	2.0	perception	79	diff_vonmises	-0.0137492026799405	-0.7877712852305546	7.897769581535675	1.284330648448024	0.3223429780945006	3.0578541973740894	0.7609119255795359	-0.5303387624763412	1.291250688055877	46.114579760726
5	2.0	wm	79	diff_vonmises	0.0590426284629134	3.38289342228393	3.9444854741518647	0.6349179306401668	0.151122140406721	2.5899481710523293	0.0076830626384905	-0.4023309723697318	0.4100140350082224	63.44100540927681
6	3.0	ltm	79	diff_vonmises	0.0690224897372578	3.954697353429911	2.707382350813927	0.8187770738325607	0.5082747223983537	1.68653362545633	0.0867916700585985	-0.2212242681551244	0.308015938213723	68.47778413263723
7	3.0	perception	79	diff_vonmises	-0.0003959650678259	-0.0226871272210357	4.749503390793544	1.860441781021074	0.3265611014668895	2.8026070208540537	0.9674056730502246	-0.4287422450038124	1.396147918054037	59.08856474822585
8	3.0	wm	79	diff_vonmises	-0.0122657375587956	-0.7027749947340898	3.7966559626149863	0.5555166239225409	0.1940637104248455	1.7930452159936845	0.0718072445573719	-0.2746689029433323	0.3464761475007042	64.33811299638697
9	4.0	ltm	79	diff_vonmises	-0.0054141161260528	-0.3102060038165499	0.8070790318469588	199.13231394858065	0.7939812297205922	201.11597183568395	-0.1019741889989518	-0.4053724345588314	0.3033982455598796	85.59538657720432
10	4.0	perception	79	diff_vonmises	-0.0501284455458514	-2.8721483633286558	2.3204635319196054	2.756096341504893	0.335327533595927	4.591203879818839	0.5606594255457331	-0.5685029627812049	1.1291623883269382	78.84755785482398
11	4.0	wm	79	diff_vonmises	-0.0576425951261246	-3.302677420908313	0.8209108204533588	247.3015269790116	0.80900425846164	249.55198536239223	-0.1249774702862254	-0.4578979216072945	0.332920451321069	84.4092002355192
12	5.0	ltm	79	diff_vonmises	0.0262683357381505	1.505064772628692	1.9181568904758983	1.1662029824986864	0.1632083322344697	2.650568590194325	0.0932123183891808	-0.3531967218143383	0.4464090402035192	88.32554585041439
13	5.0	perception	79	diff_vonmises	-0.03676146526048	-2.106276808142301	2.383546206691985	2.390423162259704	0.1518555476283975	3.869405812187429	0.6570295663638008	-0.529237362454371	1.186266928818172	83.30965731943411
14	5.0	wm	79	diff_vonmises	0.0331781700202413	1.9009691141273044	1.5683514957240186	1.2351540323720485	0.0291418968860826	2.965100540902184	0.0639101238590749	-0.4343891893777688	0.4982993132368438	105.81945066602276
15	6.0	ltm	79	diff_vonmises	-0.1015641357530102	-5.819196328541234	0.5382865435379013	141.55743278502737	0.5226527720973605	142.9370203677134	0.0692261932440132	-0.3646798101941826	0.4339060034381958	114.49747437511267
16	6.0	perception	79	diff_vonmises	-0.0663360746566294	-3.800777107289607	1.0512246052673433	2.347861039295854	9.707464025018487e-14	3.788536164840785	0.2220171123859499	-0.5021858318785811	0.724202944264531	126.44952999874567
17	6.0	wm	79	diff_vonmises	-0.0773441071267793	-4.4314909085721705	0.465367060584684	192.3551131387168	0.4532319243644135	193.87044874223312	0.0726008844459755	-0.4183480169738445	0.49094890141982	122.81081094734988
18	7.0	ltm	79	diff_vonmises	0.0770734324793192	4.415982393651516	0.8101956078120285	236.01609154836672	0.7987908359341775	237.65951430653712	0.0153614269351578	-0.3704867778751612	0.3858482048103191	89.80550447063047
19	7.0	perception	79	diff_vonmises	-0.0391711639092473	-2.2443423706150423	0.7194654702381633	171.23962957929845	0.6967882612244174	172.69916609135024	0.3259600409917951	-0.4713209298323662	0.7972809708241613	102.96692313081304
20	7.0	wm	79	diff_vonmises	0.1520677727905517	8.712841580852952	0.8310969639080076	133.31612618757697	0.8113677713340971	135.00563456832862	-0.014500468181346	-0.3702018218509408	0.3557013536695947	87.77205808058363
0	1.0	ltm	56	diff_vonmises	-0.0865856739805666	-4.960993685382175	3.5998934027953107	0.3220289318715694	2.824870847938329e-20	1.7657637430571314	-0.0473737925128298	-0.28085554612485	0.2334817536120201	72.26501436436129
1	1.0	perception	56	diff_vonmises	-0.051450129539294	-2.9478752780029165	14.970363626180587	0.6499501735568034	4.803367520615485e-22	2.321713494150075	0.625083940025208	-0.3695121790370419	0.99459611906225	35.01284829663382
2	1.0	wm	56	diff_vonmises	0.0153475056943098	0.8793473023369546	4.444339989975255	0.3797771421101402	4.465941799830916e-19	1.9558944358323127	-0.0021279088993954	-0.3112476204304684	0.309119711531073	64.85902942626385
3	2.0	ltm	56	diff_vonmises	-0.0022519379063212	-0.1290265377577343	3.4711931096936213	0.6152696457276837	0.2808574036205146	1.4212955999117975	0.1437507718738533	-0.2089057406091017	0.3526565124829551	66.4692690673827
4	2.0	perception	56	diff_vonmises	-0.0220085636764871	-1.260997811807641	7.086248061574863	1.2242992415170864	0.342179580706953	1.9954912356763577	0.8410950852451906	-0.3356111505515958	1.1767062357967863	49.00152342300714
5	2.0	wm	56	diff_vonmises	0.0240583038939425	1.378439275366061	4.332237809827321	0.5384780615211215	0.2242969498685714	1.4343331753229849	0.1501928078434325	-0.2223356472783965	0.372528455121829	60.9963311141685
6	3.0	ltm	56	diff_vonmises	0.0320350612944796	1.8354738086165816	1.4134096819428266	38.91424298716315	1.3547801321029749	39.46163173606438	0.1854410413391676	-0.1921988460847261	0.3776398874238937	73.80295835303005
7	3.0	perception	56	diff_vonmises	-0.0243159332840727	-1.393200352099054	4.540804674290544	1.8946391370953268	0.3505334768488533	2.411639303862374	1.0315489347214983	-0.3596285467873725	1.3911774815088709	60.556150489217885
8	3.0	wm	56	diff_vonmises	-0.0583464148402798	-3.34300332006751	2.4209956926272493	1.299687968090829	0.6871874045642131	2.0152910732282234	0.1830619202766377	-0.2212840069733905	0.4043459272500282	70.51620402308902
9	4.0	ltm	56	diff_vonmises	-0.164487739877761	-9.424453276641437	1.2437653141853255	109.38853308318922	1.2193897204695157	110.37637238761052	0.1120835698770008	-0.2693832357011025	0.3814668055781034	75.10325250755687
10	4.0	perception	56	diff_vonmises	-0.0885904537484578	-5.075859104935557	2.54910341086156	2.331223660570679	0.2052999553463178	3.4040676387615765	0.7314103481648243	-0.4546713951627434	1.1860817433275677	79.96798929249542
11	4.0	wm	56	diff_vonmises	-0.1335886228317282	-7.654064279223017	1.201269198229984	287.87723211269684	1.1901721661491176	289.1124134702958	0.1243996961979121	-0.3295810272546973	0.4539807234526094	75.97327106283811
12	5.0	ltm	56	diff_vonmises	0.0216083384241503	1.238066593994184	1.3456002758510448	1.7829441978604506	0.3020560527682936	2.287413721381604	0.2419817802245522	-0.2153232345825225	0.4573050148070747	100.58402593482695
13	5.0	perception	56	diff_vonmises	-0.0270429217729897	-1.5494452832947514	2.010291830218588	2.3530396040006445	0.2318264208979939	2.7707569298416965	0.6689627134259296	-0.3301062064026723	0.999068919828602	89.1852711271899
14	5.0	wm	56	diff_vonmises	0.0384853024984184	2.2050454064436598	0.7278401355919253	36.45126435993941	0.6730697927876741	36.98394459946293	0.2316627325320777	-0.2264358586208392	0.4580985911529169	106.08005363153931
15	6.0	ltm	56	diff_vonmises	-0.150858556751842	-8.643558605315357	0.44334836019671	145.02637538299058	0.4329575495277104	145.4424205517014	0.1811566255628136	-0.2201621340100601	0.4013187595728738	130.3443031368786
16	6.0	perception	56	diff_vonmises	-0.0255592268263479	-1.4644358247672882	0.6657152561111919	177.110213689652	0.6494933870101628	177.62210859983597	0.4055641397235732	-0.3181895315527594	0.7237536712763326	111.42971152173328
17	6.0	wm	56	diff_vonmises	-0.0801770444495797	-4.59380626079372	0.5006740347808647	101.66741350540806	0.4824715009010754	102.08414054485628	0.2439500586936702	-0.2489094879135525	0.4928595466072227	125.68284307939597
18	7.0	ltm	56	diff_vonmises	0.0449111724369528	2.573220633621672	0.9724128908453232	167.96976660097425	0.9564118862510907	168.87114177143286	0.2092936884051965	-0.2753358995204991	0.4846295879256956	87.85944594503098
19	7.0	perception	56	diff_vonmises	-0.0227975766087827	-1.306204922809419	2.084126174272789	1.7149327130888172	9.076457554326473e-18	2.5985204009727143	0.4933814704333289	-0.3995276077777436	0.8929090782110726	95.12811923399394
20	7.0	wm	56	diff_vonmises	0.1666595670918731	9.548889809841713	1.7248145376853117	1.1265141168635209	0.230696365433659	1.9768407755806263	0.140125152699238	-0.2368225238942968	0.3769476765935349	91.1703256087268
0	1.0	ltm	275	diff_vonmises	-0.0068758067553777	-0.393954707830684	6.371075748571544	0.4278484104323374	0.0463100686658311	3.623405600644621	-0.1820945046183938	-0.5796019249083222	0.3975074202899283	52.2402220888801
1	1.0	perception	275	diff_vonmises	-0.0388582598450417	-2.2264142883435745	15.554949939655486	0.6334620720836922	0.0294569003443272	3.8589134447440903	0.3559409984972643	-0.6231979684626344	0.9791389669598988	34.15424534636469
2	1.0	wm	275	diff_vonmises	-0.0308562574049418	-1.7679333208724632	3.65199418276551	0.695263923502459	0.1316946134488796	4.246063638252275	-0.2590946533373421	-0.6635552230517274	0.4044605697143852	64.20098453886072
3	2.0	ltm	275	diff_vonmises	-0.0786644362551449	-4.507140195195705	2.373748660564797	1.218357441060903	0.3160681381534165	2.85143147742912	0.0891284492332785	-0.3781526122970643	0.4672810615303429	75.47294793513151
4	2.0	perception	275	diff_vonmises	-0.0511843452022082	-2.932646957227214	7.102806364550004	1.1093763189534571	0.1944261431040538	2.862468185297006	0.6090636011961738	-0.4717768276156479	1.0808404288118216	49.21218078114404
5	2.0	wm	275	diff_vonmises	-0.0191327816912213	-1.096227641252154	3.40165893265196	0.9718139873034384	0.238050227533404	2.857533860696289	0.1143179480192515	-0.4272294318534429	0.5415473798726944	66.63395918446085
6	3.0	ltm	275	diff_vonmises	-0.0644192787041275	-3.69095278902349	1.8333773757251743	2.566652861456778	0.552570263481931	4.114174106812441	0.2003391552177096	-0.4078481246800864	0.6081872798977961	78.92463500080254
7	3.0	perception	275	diff_vonmises	-0.0446062804324595	-2.555751608556922	3.8954096209471194	2.327573572784805	0.2906875438909892	3.820748938377384	0.9673131202246142	-0.5606108320942134	1.5279239523188275	64.64329490927682
8	3.0	wm	275	diff_vonmises	-0.0492186228441841	-2.820019362417934	2.2144031280455225	1.7501687130658825	0.405050873855396	3.5646785950086377	0.1430928720786262	-0.4400789789645707	0.5831718510431969	75.85214492497533
9	4.0	ltm	275	diff_vonmises	-0.1386364922489722	-7.9432858923642575	1.7517376407518244	1.8065598779356	0.2044997173504389	3.826673590326168	0.120449245185243	-0.4820211304463351	0.6024703756315781	89.80823847687199
10	4.0	perception	275	diff_vonmises	-0.0828778937691512	-4.748553527905952	1.9664161445825077	3.445205025051575	0.2874764626360443	5.293440682408914	0.6589647821915916	-0.623666296687472	1.2826310788790636	86.11435073301425
11	4.0	wm	275	diff_vonmises	-0.167522924233519	-9.598356530270504	0.8499128407700072	288.5110965301494	0.8362034694353164	290.7415009981319	0.062173702610849	-0.5179345121157048	0.5801082147265539	88.56052999777044
12	5.0	ltm	275	diff_vonmises	-0.0213843338975887	-1.2252320800303798	0.9296750618623756	6.148146814439525	0.4400033645198634	7.352892224818756	0.286659771016869	-0.4059624030283099	0.6926221740451789	106.01969045520826
13	5.0	perception	275	diff_vonmises	-0.0307269643399975	-1.760525373930845	1.6749977138003382	3.451069797663576	0.2980447790737112	4.627253292169174	0.6280121511354839	-0.4928358266903265	1.1208479778258105	92.57899497942104
14	5.0	wm	275	diff_vonmises	-0.0817895581695396	-4.686196491354363	0.7137106859332335	299.60948547112287	0.7031197898713165	300.85562468006304	0.2496646786175063	-0.389044080095676	0.6387087587131823	102.52493155608973
15	6.0	ltm	275	diff_vonmises	-0.0888519350591583	-5.090840880460243	0.8577743356920524	2.026343428003159	1.4775335754653148e-15	2.934629826993408	0.1705748190169595	-0.3523722530808037	0.5229470720977633	134.67054087095676
16	6.0	perception	275	diff_vonmises	0.0032800359198912	0.1879322148610767	1.231458961699501	2.0425926349073267	4.4179147416195765e-17	3.036867307681496	0.3029265770189544	-0.416353278173069	0.7192798551920234	119.53341685415012
17	6.0	wm	275	diff_vonmises	-0.1374531819860663	-7.875487208445235	0.479891927799511	207.70938176598784	0.4689076953322308	208.61627613934985	0.2061402505186933	-0.3486253812728712	0.5547656317915646	125.00725182795809
18	7.0	ltm	275	diff_vonmises	-0.0624207039687856	-3.5764428916469275	0.7412291742513144	250.34337447071377	0.7284555724744779	251.73579691577172	0.2064411459438133	-0.3973733288039653	0.6038144747477787	99.47330751936784
19	7.0	perception	275	diff_vonmises	-0.0038186258085864	-0.2187911423717344	0.7294494220030251	235.7899468933564	0.7120036542935678	237.0636031907016	0.4193219867877786	-0.4711788815615101	0.8905008683492888	103.5231722551564
20	7.0	wm	275	diff_vonmises	0.106264377825318	6.088500361974295	0.9129734403238208	116.68045147869968	0.8861178734060807	118.0273633901393	0.1656944813425127	-0.3591346496060197	0.5248291309485325	88.87797342959342
0	1.0	ltm	390	diff_vonmises	-0.0517271511582283	-2.963747447601732	6.200811477763083	0.2448944460669017	1.9458957788672063e-15	2.453745674209811	-0.1525765709738123	-0.390524774712833	0.2379482037390206	54.70355590845486
1	1.0	perception	390	diff_vonmises	-0.0263932659238484	-1.5122227450029675	13.762960818148594	0.7425640597226733	0.0657235199115758	3.082435463641064	0.5647919250144823	-0.505874806377775	1.070666731392257	36.19818750290446
2	1.0	wm	390	diff_vonmises	-0.0043890372823876	-0.2514733124063824	7.163279008621968	0.296352138598895	0.0072275087374254	2.727729406824394	-0.1267941681751556	-0.4339506321135654	0.3071564639384097	50.50488110663716
3	2.0	ltm	390	diff_vonmises	-0.0913045054872529	-5.23136281494866	4.146639774531192	0.4860099314195749	0.0600420621240642	1.7924646931214032	0.0783997011546803	-0.2793366194259655	0.3577363205806458	64.92231063465547
4	2.0	perception	390	diff_vonmises	-0.0382425279454933	-2.1911354491878736	8.192303537565945	1.1566629856551225	0.2397293837961594	2.5871998299026906	0.7834081607014498	-0.4378447901389	1.2212529508403498	45.92392516837401
5	2.0	wm	390	diff_vonmises	0.0026757487617347	0.1533091110847582	4.080075418158073	0.5763832924218986	0.1485826599491355	2.071015939150251	0.0676546734820896	-0.3213408952994777	0.3889955687815674	63.07510507893002
6	3.0	ltm	390	diff_vonmises	0.015995490953979	0.916474122902687	1.279818745296261	54.470874109097785	1.2381924310634995	55.14370403993408	0.1551701861417527	-0.2087127649240541	0.3638829510658068	76.33748260507687
7	3.0	perception	390	diff_vonmises	-0.0245862074510068	-1.4086859211757907	4.26262422844327	2.0198768080219742	0.4032600682887984	2.6769364118874988	0.9949617819994258	-0.3918668011941444	1.3868285831935705	61.66848133160323
8	3.0	wm	390	diff_vonmises	-0.0729377521565694	-4.179025365742649	2.360785429881893	1.2346882299350328	0.5892297886671096	2.1056788211042377	0.1485934950560394	-0.2425157824483177	0.3911092775043572	71.82296888556738
9	4.0	ltm	390	diff_vonmises	-0.1116438185454135	-6.396719611376584	1.066934459039849	139.72486323858598	1.0469526652570256	141.04746646888057	0.0615767217456664	-0.3221869126757966	0.383763634421463	79.37527928826424
10	4.0	perception	390	diff_vonmises	-0.094369551377541	-5.406977008476089	2.3527888656659632	2.7684352567450734	0.3654564946350712	4.141511238446725	0.6551160031826432	-0.4992114198972703	1.1543274230799137	78.65778440015427
11	4.0	wm	390	diff_vonmises	-0.1695556223765369	-9.714821554889507	1.0536995998574863	248.7779883197188	1.0420570378085834	250.27837088840968	0.0208196597377536	-0.3501463271282397	0.3709659868659933	78.39276479289018
12	5.0	ltm	390	diff_vonmises	0.0441822520251342	2.5314565704235266	1.884123992035991	1.1113800958874098	0.0965889632146952	2.054424649925348	0.1936587960211485	-0.2836335823018571	0.4772923783230056	94.09100686848176
13	5.0	perception	390	diff_vonmises	-0.0415533427757247	-2.380831165709457	2.670680129763236	1.988708021864024	0.0651445278647571	2.8448665170980054	0.7353775142814623	-0.4193870590820032	1.1547645733634655	81.96440425816402
14	5.0	wm	390	diff_vonmises	-0.037205382340429	-2.1317113832771497	0.6828866830795107	159.35500662484517	0.668554297005902	160.3717200519747	0.1515687648254626	-0.2976529891072417	0.4492217539327043	103.94166013320812
15	6.0	ltm	390	diff_vonmises	-0.1214847735470579	-6.960564799348967	0.4743977963720738	31.307871346949888	0.4263806387680464	32.075251341024284	0.0997461536838528	-0.253144621000597	0.3528907746844498	126.15183733822607
16	6.0	perception	390	diff_vonmises	-0.0711768785207746	-4.078134738155748	0.8734963480016916	2.377855584046099	6.061682926365157e-24	3.215887337232874	0.2435531310908543	-0.3801638780784055	0.6237170091692599	133.99409316059524
17	6.0	wm	390	diff_vonmises	-0.1941519591426252	-11.12408784306882	0.5182083547408166	135.73394706414052	0.505223139619279	136.50915047943832	0.137979589947669	-0.2666532779932247	0.4046328679408937	120.26847099184354
18	7.0	ltm	390	diff_vonmises	0.1208338990117588	6.9232724354837885	0.8445123038704414	138.22521373272087	0.8282372075143982	139.0592217956157	0.1716677624474059	-0.2511498590398933	0.4228176214872992	94.15757185457328
19	7.0	perception	390	diff_vonmises	-0.0633347161870263	-3.628811934175507	0.8430634375542134	185.6100278757846	0.8249349723093302	186.29319707301505	0.4315826509366331	-0.3268293145895029	0.7584119655261361	98.31144412203868
20	7.0	wm	390	diff_vonmises	0.1395575636270155	7.996059394956437	1.473910329053524	1.8466406261463748	0.497571058370557	2.6348219523665635	0.1425111683032572	-0.2233677108001201	0.3658788791033774	87.79791333586053
0	1.0	ltm	442	diff_vonmises	-0.011076172919321	-0.6346179614341938	6.822061357407947	0.2989072341457223	0.0264322211083029	3.4530383196272165	-0.2589201268723272	-0.5513089055596355	0.2923887786873083	50.86465777219814
1	1.0	perception	442	diff_vonmises	-0.0126223328136285	-0.7232063978304041	13.9758084092785	0.7025217150362252	0.0650733851904121	3.879514159618836	0.3796310362976305	-0.6375825326825074	1.017213568980138	35.830753456184
2	1.0	wm	442	diff_vonmises	-0.0065563010681941	-0.3756483804246374	4.603135316302376	0.4458831620206747	0.069755114757593	3.915914376862703	-0.2975825380964014	-0.6219196283918426	0.3243370902954411	59.51730733520674
3	2.0	ltm	442	diff_vonmises	-0.0596274035261606	-3.416398565372485	3.533766340393239	0.5759426000042346	0.0635593084572253	2.260223115003845	0.0306324486487387	-0.3488824230949074	0.3795148717436462	69.69658615887036
4	2.0	perception	442	diff_vonmises	-0.0365637224846367	-2.094946981657279	7.809143243772402	1.1652344364221872	0.2294479373207163	3.015229996476831	0.6810849195056515	-0.5078570382117666	1.188941957717418	46.83176872479064
5	2.0	wm	442	diff_vonmises	0.0050760409435341	0.2908357227001115	3.64029129787168	0.782443763917448	0.176872447871537	2.7832118972324857	0.0466583349696477	-0.4257851986459551	0.4724435336156029	65.46416785960909
6	3.0	ltm	442	diff_vonmises	-0.0083540421336696	-0.478651356133738	2.206558481333521	1.4409976507041389	0.4954124615882416	2.639669938848688	0.1395663302176606	-0.308687175726009	0.4482535059436696	74.66484116806359
7	3.0	perception	442	diff_vonmises	-0.0246022536970171	-1.4096053033492102	4.1302686581591965	2.176122139608769	0.3228435653634511	3.3660067421759683	0.9814809924737996	-0.4977711168791419	1.4792521093529416	62.82240865555923
8	3.0	wm	442	diff_vonmises	-0.0494573430272307	-2.833697021391091	2.816312740989974	1.0090555516200082	0.2958527744935164	2.5166933640443725	0.1105309502036435	-0.3539205632569835	0.4644515134606271	71.14097493772954
9	4.0	ltm	442	diff_vonmises	-0.086612324311406	-4.9625206368619	0.8997093165962138	14.211765640484993	0.691913293063402	16.21197052492739	-0.0025903645712421	-0.4428303938195042	0.440240029248262	89.85875585714749
10	4.0	perception	442	diff_vonmises	-0.0742553307172478	-4.254517056446442	2.079994360286112	3.329986340834445	0.3600775990967477	5.162003378981575	0.6186035014579776	-0.5965310547638458	1.2151345562218234	82.10151252131942
11	4.0	wm	442	diff_vonmises	-0.1392040621383805	-7.975805251606064	0.831611788852857	308.91998123738745	0.820833314562326	311.13420318295664	-0.0454544862498806	-0.4762538636126763	0.4307993773627956	86.69346365527508
12	5.0	ltm	442	diff_vonmises	0.008396326471392	0.4810740702247343	1.4438142794771205	1.9648238038893169	0.2225219148988057	3.396723955782933	0.1645543261655571	-0.3855182704497083	0.5500725966152654	97.67400393386087
13	5.0	perception	442	diff_vonmises	-0.0315025126834535	-1.804961020819233	2.1565090903735853	2.5698259393550726	0.1664036087025328	3.967725822548658	0.6465823102010283	-0.5235227465461301	1.1701050567471585	86.8036427895043
14	5.0	wm	442	diff_vonmises	-0.0591237374172531	-3.387540623048314	0.6365133572660994	226.2310011060634	0.6237126573195801	227.8014966531076	0.1254509389927278	-0.416305003904224	0.5417559428969518	105.67840694376888
15	6.0	ltm	442	diff_vonmises	-0.1055758856481878	-6.049052665996964	1.0886378682657791	1.4337024259618765	1.4627771238250595e-16	2.674961110715924	0.0881152453930688	-0.3674885547464431	0.4556038001395119	124.90629314521406
16	6.0	perception	442	diff_vonmises	-0.0336543550441662	-1.9282525062655391	1.0011069092271665	2.3899737073324445	2.4611511983215985e-17	3.682901040635503	0.2310269701225066	-0.4758031600303671	0.7068301301528738	128.53130244264884
17	6.0	wm	442	diff_vonmises	-0.1411500528077741	-8.087302303934155	0.4610391456200594	213.89713364891975	0.4505147304582041	215.20331817405452	0.1073644986972652	-0.3897311368587388	0.4970956355560041	124.3442682957256
18	7.0	ltm	442	diff_vonmises	0.0295797051071042	1.6947922618786415	0.7658855959671353	233.81590864398956	0.7539209400137528	235.2868240232372	0.1004344819216669	-0.3668150650465946	0.4672495469682616	95.31238379164876
19	7.0	perception	442	diff_vonmises	-0.0200413435373119	-1.1482844004597603	0.723549356873646	262.06581261016885	0.7087849090094908	263.3661961082109	0.3657474149884905	-0.4531936753301728	0.8189410903186634	103.2578659843931
20	7.0	wm	442	diff_vonmises	0.1152530176279228	6.603511486226855	0.8888380086856168	157.40900920706892	0.8708176184783063	158.8820332804632	0.0735168830862633	-0.3538578283222335	0.4273747114084969	87.54449517031853
0	1.0	ltm	252	diff_vonmises	-0.005737307575072	-0.3287235098200653	6.869849728193525	0.2459872608383369	0.005682056246706	3.5220594583769858	-0.3115965954657088	-0.5603498075466672	0.2487532120809583	51.510142638153496
1	1.0	perception	252	diff_vonmises	-0.0009615730155887	-0.055094075486902	13.831066323158169	0.7122868994569715	0.0697507201615792	3.990889814619481	0.3666867492678116	-0.6574512658306286	1.0241380150984405	35.974928523495464
2	1.0	wm	252	diff_vonmises	0.0191652097953999	1.0980856347591994	4.548831141903326	0.3694777044403354	0.0280576250583816	3.924419645354182	-0.3376700627252768	-0.6213035777058159	0.283633514980539	61.64285470814392
3	2.0	ltm	252	diff_vonmises	-0.0157337257639977	-0.9014760822933182	3.832455030756374	0.4537004800973201	2.168327732449812e-16	2.1733551283708024	-0.0051471461999543	-0.3457403971386293	0.3405932509386749	69.97991914640284
4	2.0	perception	252	diff_vonmises	-0.0273389679429557	-1.56640747937482	7.849763161181062	1.2138741326441536	0.2519875330219684	3.068090843718796	0.7150905203128942	-0.520575146693244	1.2356656670061383	46.607566647520144
5	2.0	wm	252	diff_vonmises	0.0223174132254705	1.2786935874689052	3.694021088843044	0.7467471983829072	0.1600670657287933	2.8191872975350907	0.026366722568791	-0.4332428141851862	0.4596095367539772	65.27471180778605
6	3.0	ltm	252	diff_vonmises	0.0086282030970353	0.4943596222418287	2.7479026159942923	0.9028516458716428	0.3451150818330128	2.0464059541386623	0.1156736577963249	-0.2803995721332903	0.3960732299296152	71.23836543361256
7	3.0	perception	252	diff_vonmises	-0.0154430941975728	-0.8848241201438968	4.130353585976334	2.160108561858342	0.3124650185828739	3.289933281982891	0.9915638236869572	-0.4862272032907745	1.4777910269777317	62.99052280795803
8	3.0	wm	252	diff_vonmises	-0.0544327359247514	-3.1187660358383926	3.2925324604582293	0.7841457901844896	0.2037503857316253	2.2670798545477213	0.1035315855764951	-0.3370856348168769	0.440617220393372	68.50558622789578
9	4.0	ltm	252	diff_vonmises	-0.0448400384193679	-2.569144954634244	0.7769433026212486	93.05467703273636	0.7459631180896006	95.13967596189208	-0.0611739362797578	-0.4403751502398574	0.3792012139600995	89.82724502233165
10	4.0	perception	252	diff_vonmises	-0.0670722316879359	-3.8429557982423495	2.011658676027632	3.666325869073298	0.4133893017397507	5.505295442365052	0.628134477816203	-0.6039255893805842	1.2320600671967872	81.9300848677249
11	4.0	wm	252	diff_vonmises	-0.0966078478147938	-5.535221947629838	0.7898720958983456	272.2300956588426	0.7781685167880673	274.5657213034635	-0.0910423175255061	-0.4860578799317494	0.3950155624062432	87.66537220889734
12	5.0	ltm	252	diff_vonmises	0.0105764966449747	0.6059886197913263	1.289079337513292	2.277552147204589	0.2918897199947637	3.925842848123803	0.0816370184089408	-0.398948242476429	0.4805852608853699	96.84756070382488
13	5.0	perception	252	diff_vonmises	-0.0183857579393484	-1.0534263330738125	2.053502656023972	2.755825139795644	0.1964538183104004	4.3823211866143765	0.6037872619525653	-0.5601445257860144	1.1639317877385795	87.37977792266409
14	5.0	wm	252	diff_vonmises	-0.0384725903745863	-2.204317055399432	0.5600122995088729	200.60063773859667	0.5461417303077624	202.47959267910196	0.0440389374968361	-0.4613760602041701	0.5054149977010063	110.54413406131124
15	6.0	ltm	252	diff_vonmises	-0.1307346081972583	-7.49054128599932	0.4465876559984251	163.1351191659043	0.4333125248921546	164.7654553949296	0.0184890541479774	-0.4176936971777021	0.4361827513256795	123.49196415904002
16	6.0	perception	252	diff_vonmises	-0.0274267639172044	-1.571437818157506	0.8008482253730079	4.2337465530409455	0.1388384598996863	5.888194188132274	0.2146743033034031	-0.5524867894626782	0.7671610927660812	127.52345779074348
17	6.0	wm	252	diff_vonmises	-0.1098289770789083	-6.292736854860502	0.4272092923317822	241.91367239061307	0.4170545278199158	243.6985792276804	0.0398444941041304	-0.4752647857044074	0.5151092798085379	126.31452568800776
18	7.0	ltm	252	diff_vonmises	0.0508352554179745	2.9126455859194924	0.7598313640864846	236.97583644619047	0.7481094092968658	238.76030075822797	0.0061659260441757	-0.3988705839396225	0.4050365099837982	92.58131498211864
19	7.0	perception	252	diff_vonmises	0.0138356128118786	0.7927222210977779	0.6855474208155643	155.6177918949483	0.6599861962846679	157.24748508121658	0.3057850871953818	-0.5081013761592299	0.8138864633546117	105.05469462861252
20	7.0	wm	252	diff_vonmises	0.1258329810009253	7.2096987349028945	0.8338333711140912	179.57650116330885	0.8178544375648237	181.43937918316928	-0.0241854886529253	-0.4054676294479122	0.3812821407949869	87.22807186741997
0	1.0	ltm	131	diff_vonmises	0.059520458732598	3.410271080060452	5.942823350153114	0.2863315946668434	0.0299058554123678	3.4455044902828726	-0.2928629704756459	-0.5492287774008255	0.2563658069251796	54.10940217735978
1	1.0	perception	131	diff_vonmises	0.0477218038823081	2.734257953207284	9.492232579182826	0.8516479119864445	0.0948199685141992	4.079730109420749	0.3198784359883988	-0.6706300397744612	0.99050847576286	43.06806294491517
2	1.0	wm	131	diff_vonmises	0.0566221874874259	3.244212369827965	4.545696085446269	0.4516983458376845	0.0488274376903334	3.72780163107664	-0.2504227859988628	-0.589625509538328	0.3392027235394652	61.01138292527239
3	2.0	ltm	131	diff_vonmises	0.0330682827505701	1.8946730373529297	2.699276295009489	0.9998709129167416	0.3908185939329288	2.444415495134105	0.0625417526946379	-0.3352845651639845	0.3978263178586224	69.67572099252473
4	2.0	perception	131	diff_vonmises	0.003185811945797	0.1825335788165287	6.561942788635133	1.443151405070371	0.3260324211665603	2.9288412025276083	0.8153935858579234	-0.4891782242693904	1.3045718101273138	50.436419850941576
5	2.0	wm	131	diff_vonmises	0.0784320955603905	4.493828053977137	4.04564741900219	0.6762145690900021	0.1707955660224953	2.254893457834765	0.100434956977665	-0.3487841311446803	0.4492190881223454	63.051825829915856
6	3.0	ltm	131	diff_vonmises	0.0943593309964982	5.406391423777321	3.931861390600704	0.4411991969186878	0.0736181420928067	1.3025685876844595	0.1131703128471645	-0.2011064199021271	0.3142767327492917	66.6044043810202
7	3.0	perception	131	diff_vonmises	0.0175330729835545	1.004571083852524	5.195651854725985	1.535713027918523	0.1511923604138345	2.4262109753358416	0.9125425818160472	-0.3771971108056022	1.2897396926216496	58.17291496129792
8	3.0	wm	131	diff_vonmises	0.0214479605328862	1.228877617697541	4.042253796534959	0.5232480159964357	0.0579753882186991	1.5588274634192756	0.1419201750506255	-0.2418822730379968	0.3838024480886224	66.13322962288427
9	4.0	ltm	131	diff_vonmises	-0.021133398085416	-1.2108545170641942	1.4849144235679366	1.0655669394420708	0.1400308563014383	3.2806241471901494	-0.1389417394286696	-0.4351484553090482	0.2962067158803785	94.67514350856317
10	4.0	perception	131	diff_vonmises	-0.0262717296010265	-1.5052592266477356	2.081030060524557	2.783293000564468	0.2155623778966897	4.910624658179972	0.5121821044364424	-0.6291819848451822	1.1413640892816246	85.44961808882474
11	4.0	wm	131	diff_vonmises	0.0197641111500071	1.1324001547228613	0.7757773782428081	253.91062313742552	0.7630268645274806	256.3249802787502	-0.0978485601288525	-0.5006003563261494	0.4027517961972968	88.39246964830681
12	5.0	ltm	131	diff_vonmises	-0.0564151260657464	-3.23234862426575	1.7444913942198244	1.0662790872136283	3.1739244537951523e-15	2.0212698723046656	0.1845711682586616	-0.3062373702513841	0.4908085385100457	103.37746415687816
13	5.0	perception	131	diff_vonmises	-0.0566800289131549	-3.2475264394032584	1.862077686998223	3.297797866947517	0.3073737345835219	4.089199365887521	0.764682220649491	-0.4459807905496898	1.2106630111991807	89.45655435434881
14	5.0	wm	131	diff_vonmises	0.0785144995437265	4.498549454437359	1.4535127219329074	1.692576861208655	0.1158940011646793	2.6484144676267936	0.247559880935441	-0.3348227253759583	0.5823826063113994	105.03377431226022
15	6.0	ltm	131	diff_vonmises	-0.0183568354785956	-1.051769198139545	0.5108183196799534	95.79796798493452	0.4926649079674552	96.39620780096368	0.1783337559186506	-0.2506338706282971	0.4289676265469477	122.9964546102554
16	6.0	perception	131	diff_vonmises	-0.0910892211072304	-5.2190279285782815	1.0897935182159837	2.385972918612353	4.527366287655859e-21	2.951675490726612	0.3858853223331806	-0.3730072408901757	0.7588925632233563	124.87978129183922
17	6.0	wm	131	diff_vonmises	0.0080072008180627	0.4587788125886951	0.5447542134448715	146.45873137495886	0.5298824141749783	147.03024395701212	0.2650550702516199	-0.2876106347500062	0.5526657050016262	120.71723944305124
18	7.0	ltm	131	diff_vonmises	0.0403157385063191	2.309921664365147	1.4417303059055198	1.7545014111867547	0.2603497465371147	3.38492246219664	0.0547216951624125	-0.3797230744339523	0.4344447695963649	93.6885291440444
19	7.0	perception	131	diff_vonmises	0.00724907821794	0.415341587248182	0.8489496534405688	384.6895498538678	0.8364302832534795	386.0510463256047	0.4962276938341006	-0.4973067699523597	0.9935344637864604	95.92663769685072
20	7.0	wm	131	diff_vonmises	0.114824596473664	6.578964762233707	0.7290041933575218	95.01481853310318	0.701791172114583	96.56816697871132	0.0505580995056469	-0.367210092977551	0.4177681924831979	96.82287317808048
0	1.0	ltm	108	diff_vonmises	0.0575256597371021	3.2959775166415994	4.755846900817647	0.3944639792095948	0.0338355693627691	3.520832045275781	-0.2464711869359864	-0.5575288023258783	0.3110576153898919	60.35156371877008
1	1.0	perception	108	diff_vonmises	0.0155428777223288	0.8905412949773505	10.764561647713846	0.6802772452062988	0.0424491560788777	3.8192045003997954	0.2456748513617928	-0.6169295650174843	0.8626044163792771	40.88649882438773
2	1.0	wm	108	diff_vonmises	0.0664027267180604	3.804595989105451	2.995758771706324	0.7363190814604097	0.1152182027708907	3.9655274344527447	-0.2240005427783004	-0.6049508857060458	0.3809503429277454	70.91799235234407
3	2.0	ltm	108	diff_vonmises	-0.0138969855257465	-0.796238618579672	2.439365826388799	1.2313641260299304	0.4015065983970592	2.813065625318256	0.0725454826974858	-0.368468129762921	0.4410136124604068	72.35816265505932
4	2.0	perception	108	diff_vonmises	-0.0061699538533072	-0.3535123155849845	6.150158157344701	1.2824384616986475	0.2237883802896936	2.875885495644206	0.6751665815554247	-0.4666882748267504	1.141854856382175	52.58407413497412
5	2.0	wm	108	diff_vonmises	0.0684299338466463	3.9207464017722575	4.043207231844125	0.7492628908406175	0.1917045910852725	2.415757197066769	0.1179850389710939	-0.3734395258095825	0.4914245647806765	62.721526290301625
6	3.0	ltm	108	diff_vonmises	-0.0009949932713279	-0.057008915091006	2.7876704345496344	0.9266388842495384	0.1927538335853276	2.315708892395804	0.1391023970413984	-0.3311881245078458	0.4702905215492443	74.4650470816452
7	3.0	perception	108	diff_vonmises	-0.006582435388157	-0.377145766658957	4.346122786257192	1.7809979007584162	0.1136264910677108	3.1251903212634	0.8768895829316746	-0.4781926291540931	1.3550822120857675	63.64556085351387
8	3.0	wm	108	diff_vonmises	0.0193636452096921	1.1094551465040714	2.9163809597595187	0.9352313470948084	0.1785766432561452	2.456477057782465	0.1390244492766115	-0.3566478119512941	0.4956722612279056	73.2640135509759
9	4.0	ltm	108	diff_vonmises	-0.0533945160348094	-3.0592804179381834	2.0186134178798447	0.8889484618365907	0.0644916050104058	3.1726197627815846	-0.0768467343309812	-0.4672454876155942	0.390398753284613	89.80557594034383
10	4.0	perception	108	diff_vonmises	-0.0720542554525149	-4.128404733386606	1.566567662590148	4.651120120188966	0.3806907629596431	6.7148998764325984	0.5597446200592218	-0.6553367684679694	1.2150813885271912	90.59137890057116
11	4.0	wm	108	diff_vonmises	-0.044882143749979	-2.571557412373265	0.7960422298774337	253.74815076351825	0.7819130062147369	256.2106627745395	-0.0545621618719991	-0.5269940654212597	0.4724319035492605	88.70620834702663
12	5.0	ltm	108	diff_vonmises	-0.0513736970249663	-2.943496017514365	1.4793735966901094	1.510915209891391	0.0386020751903487	2.8235404508075983	0.1821007250353301	-0.398530595422759	0.5806313204580892	108.38559220662836
13	5.0	perception	108	diff_vonmises	-0.0551820706928379	-3.161699755492162	1.3003558963680986	6.620155137948401	0.5469961693024523	7.828119343785268	0.6312057251999081	-0.5064542734510316	1.1376599986509397	93.64279145587048
14	5.0	wm	108	diff_vonmises	0.0315884930165209	1.8098873310251276	0.6691484304073145	224.69987597316813	0.655985510502195	225.98447697548545	0.2078353214608057	-0.3864977830680338	0.5943331045288396	105.32190262859066
15	6.0	ltm	108	diff_vonmises	-0.0379843649841869	-2.176343801078418	0.4496559090081737	147.85003792094778	0.4350686062987263	148.98104460294505	0.133689882987241	-0.3666973352529652	0.5003872182402063	126.86963452954572
16	6.0	perception	108	diff_vonmises	-0.0823297193669225	-4.71714544822114	0.7793470871898135	7.491630442631578	0.3571170263281641	8.5859039081084	0.3530520648145412	-0.4539246214722491	0.8069766862867903	117.50764223218528
17	6.0	wm	108	diff_vonmises	-0.0350488525293702	-2.0081513267093376	0.568594314305387	242.04417684534332	0.557708042480179	243.13579908588704	0.215580107067062	-0.3729521757046257	0.5885322827716877	115.369849940555
18	7.0	ltm	108	diff_vonmises	-0.0785020964625913	-4.497838810235356	0.6777311039009065	104.80921089330946	0.6463371562361048	107.04542467354398	0.0123402311916187	-0.507935571108959	0.5202758023005778	99.34576923737848
19	7.0	perception	108	diff_vonmises	0.0060087991400756	0.3442788306681724	0.8445553029517758	336.8737276607808	0.8272481162481707	338.89604736820587	0.4882716921591594	-0.6382258012663655	1.126497493425525	94.78564211744688
20	7.0	wm	108	diff_vonmises	0.1280281938502613	7.335475166302737	1.7598729015853547	1.696960101440975	0.2516653076306683	3.79998393063156	0.044336020825359	-0.469897774493263	0.514233795318622	86.48109183504883
0	1.0	ltm	206	diff_vonmises	-0.1366525558078923	-7.829614707468174	2.93643845803142	0.326634026778513	2.5390653960823363e-19	1.9722548297814395	-0.1025656976829239	-0.3132992501907419	0.2107335525078179	80.20026539328529
1	1.0	perception	206	diff_vonmises	-0.0393237527473312	-2.253085067038058	15.178089432072978	0.6876288251451629	0.0136365285215294	2.559471409253501	0.6465832972829988	-0.4096135921837894	1.056196889466788	34.70547996774084
2	1.0	wm	206	diff_vonmises	0.0162378853368985	0.930362298021653	2.48723309767808	0.4764827570335477	8.609083050330072e-36	2.2591757187077137	-0.0795827263564221	-0.3576237217918748	0.2780409954354527	87.21618991945007
3	2.0	ltm	206	diff_vonmises	0.0746088876932551	4.274774378989067	4.96131710109731	0.3434989528094047	6.456855902283756e-22	1.1814389379636925	0.1085806220185958	-0.1880172959100755	0.2965979179286713	61.30429503745091
4	2.0	perception	206	diff_vonmises	-0.0170052956434416	-0.9743316697414132	7.221816645979985	1.3179599184076534	0.4481141325788029	2.028781610743037	0.9057630422274296	-0.3499532466674681	1.2557162888948978	48.1174464806935
5	2.0	wm	206	diff_vonmises	0.0225075971074664	1.289590321238686	4.093903164766244	0.5675232096623788	0.2234370763388668	1.518509221335111	0.1434266566677116	-0.2332088250754933	0.3766354817432049	62.48857304873067
6	3.0	ltm	206	diff_vonmises	0.0493663123917705	2.8284813501728308	3.1381419358143194	0.6582252336545488	0.4857321898794283	1.1576728696549454	0.1597096340072141	-0.1563347621764727	0.3160443961836868	67.07786911442679
7	3.0	perception	206	diff_vonmises	-0.0134198891175554	-0.7689030079694695	4.462841490582493	1.9454826472752087	0.4005552176307471	2.308266782770637	1.0602479391050026	-0.3392557329072967	1.3995036720122993	60.80903433613548
8	3.0	wm	206	diff_vonmises	-0.0775414615791974	-4.442798485763839	3.3823353609889155	0.74291230520686	0.4099057377079552	1.4183192320867235	0.1943580350079692	-0.2009405032640407	0.39529853827201	65.9109570298481
9	4.0	ltm	206	diff_vonmises	-0.1397521724874013	-8.007209661312396	1.3480147996263572	6.682949474241686	1.0004948088722585	7.722289697874827	0.0748111045432513	-0.2661206544149918	0.3409317589582431	76.07089641366042
10	4.0	perception	206	diff_vonmises	-0.0713108477783278	-4.085810611198051	2.616546393293316	2.437219965635981	0.2443031612126305	3.4113007877347687	0.7922855244984705	-0.448038890458009	1.2403244149564794	78.41591493775138
11	4.0	wm	206	diff_vonmises	-0.0936296938763505	-5.364586296216774	1.146392209947493	278.71407425870063	1.1349926530432646	280.0211455599714	0.1119936893349944	-0.3390559962080317	0.4510496855430261	77.4816489671203
12	5.0	ltm	206	diff_vonmises	0.0175265405403419	1.0041968024265295	0.7422569951247945	73.71119845302272	0.7161573522032324	74.42716548363362	0.1611355598625223	-0.2294726079860067	0.3906081678485291	101.44597695827876
13	5.0	perception	206	diff_vonmises	0.010757309125003	0.6163484117802429	1.796096876358351	2.7771864386917664	0.2989915246123426	3.3951702753994173	0.6295185318503692	-0.3659160062845138	0.995434538134883	91.11737219492748
14	5.0	wm	206	diff_vonmises	0.069250799406905	3.9677785339227247	1.073567765572683	1.8967341735019057	0.1686796414344163	2.689924465112803	0.1712476328911609	-0.2803168348272397	0.4515644677184006	114.8071986290362
15	6.0	ltm	206	diff_vonmises	-0.1836665284512786	-10.523316918077724	0.4437742595365645	167.12319225008005	0.4334507908586025	167.8219082260537	0.1552626731421824	-0.2738597111720935	0.4291223843142759	128.71882037071825
16	6.0	perception	206	diff_vonmises	0.0092408968330924	0.529464387452005	0.6677225050773292	261.9141153645492	0.6541851079053859	262.67099459659795	0.4655687769909065	-0.4005927003234149	0.8661614773143214	110.40857497140398
17	6.0	wm	206	diff_vonmises	-0.0436651624816817	-2.501829521953354	0.4051142385693715	101.28105241309277	0.3831425701772019	102.05932799446803	0.232489565216305	-0.3556431166310183	0.5881326818473234	134.4249816492197
18	7.0	ltm	206	diff_vonmises	0.0944384248408368	5.410923167243387	0.9532698553464268	162.11102514530302	0.9375386649808866	163.24027484171103	0.1119223949385741	-0.2912444127018041	0.4031668076403782	85.93958423833286
19	7.0	perception	206	diff_vonmises	0.0420024347677802	2.406562241467361	1.862037276445636	1.7131077125192808	2.7671550514679722e-15	2.8554302925252792	0.3918040795105807	-0.4340290867515835	0.8258331662621643	100.3330870539425
20	7.0	wm	206	diff_vonmises	0.1921691127138511	11.010479111277478	0.7289365123173379	63.37026119383624	0.6982007735392848	64.53712957547094	0.0397989444546205	-0.2767071982976157	0.3165061427522362	97.0297628455872
0	1.0	ltm	304	diff_vonmises	0.0217252685705224	1.2447661978791529	4.307573406980165	0.388113325665229	0.0028961000313678	3.477616489242935	-0.2444339461212107	-0.5522068993753446	0.3077729532541339	65.54429962259425
1	1.0	perception	304	diff_vonmises	-0.0192840763031404	-1.104896183978189	13.642657796174673	0.6239921550402764	0.0052211216103388	3.708588695907415	0.3174070605504605	-0.5912179192392673	0.9086249797897278	36.63762038944773
2	1.0	wm	304	diff_vonmises	0.0342924294164289	1.9648114748116527	3.341699215543516	0.6128449933018241	0.0750528464056888	3.856121063180144	-0.2340129942535002	-0.5978239983355604	0.3638110040820602	69.26906552740792
3	2.0	ltm	304	diff_vonmises	-0.0695618140770982	-3.985598361891447	2.673092654847975	0.9730485523759876	0.2162065966225087	2.837025622186289	0.0423431951491833	-0.4054779635822982	0.4478211587314816	73.83382760673723
4	2.0	perception	304	diff_vonmises	-0.0323676162174597	-1.8545278021596392	6.530880421548483	1.183966296062881	0.1276439934741153	3.093170221194039	0.6250075541440799	-0.4974321660286498	1.12243972017273	51.7804426672524
5	2.0	wm	304	diff_vonmises	0.0322577063931225	1.8482304330980943	3.942267939990333	0.7655126394899163	0.1463716881210289	2.752226829886616	0.0795346010568562	-0.4253151495151581	0.5048497505720144	64.07000280098504
6	3.0	ltm	304	diff_vonmises	-0.0501344600770006	-2.872492970579257	2.202680327311684	1.433127555082272	0.2691481174490386	3.055896888358587	0.1583256583114118	-0.3969055097254125	0.5552311680368245	80.0514289276039
7	3.0	perception	304	diff_vonmises	-0.0309628922371793	-1.774043046708755	3.5476014267450773	2.3027718257690366	0.1852268391064783	3.868086250686559	0.9227060026435396	-0.5657841180870655	1.4884901207306052	68.90525461811632
8	3.0	wm	304	diff_vonmises	-0.0454322469602666	-2.603076004619344	2.3164773887980057	1.4270457379726722	0.2859602838338825	3.177854454738553	0.1443064314251526	-0.4188307539070504	0.563137185332203	77.63810156582824
9	4.0	ltm	304	diff_vonmises	-0.0689470060720958	-3.9503724579939496	2.318096003234858	0.8772251188998489	0.0525021417995906	3.2313865754532585	-0.0472095962002535	-0.4859145904346736	0.4387049942344201	85.36005470032825
10	4.0	perception	304	diff_vonmises	-0.1029869314343363	-5.90071651619066	1.1934673713525097	11.93760934521838	0.6683397053825005	14.056013165170333	0.5965763836237059	-0.6875471354895236	1.2841235191132294	90.70869126675515
11	4.0	wm	304	diff_vonmises	-0.1129474010165558	-6.471409385220275	0.7737883993687482	282.3291944027921	0.7615290344971811	284.8422287449231	-0.0837240315654952	-0.5273570297293375	0.4436329981638423	89.11900169019796
12	5.0	ltm	304	diff_vonmises	-0.0329207927571691	-1.8862224832106416	1.0418690248635385	2.97236575199522	0.2382970041477632	4.526330097237844	0.13779247058699	-0.4303280948651936	0.5681205654521837	109.55063444953326
13	5.0	perception	304	diff_vonmises	-0.0455252835055553	-2.608406606004864	1.5178725036847396	4.430747848091618	0.3820957087983572	5.905602420996348	0.6045972035869738	-0.5508415829074044	1.1554387864943785	92.81239967502898
14	5.0	wm	304	diff_vonmises	-0.0474661507168218	-2.7196101058057613	0.6404289211497873	296.4582630410485	0.6305012261748452	298.0562402620134	0.125181777643732	-0.421318374397515	0.5465001520412471	105.14632613466128
15	6.0	ltm	304	diff_vonmises	-0.0808043386419158	-4.62974757052765	0.915426693024729	1.5181420545080335	6.033737663791524e-20	3.031749572998181	0.0118705120949949	-0.4032759379197174	0.4151464500147123	132.13894190950285
16	6.0	perception	304	diff_vonmises	-0.0738098928184089	-4.228995344807795	0.498434293113368	29.76328608671447	0.3969072295894908	31.208499464421344	0.2306031934279726	-0.5051586056626687	0.7357617990906413	127.09589097865388
17	6.0	wm	304	diff_vonmises	-0.0957858511923216	-5.488125010388175	0.5175959858378528	268.688227295845	0.5086739693982579	270.19155943444065	0.0755537307526452	-0.4022494878744354	0.4778032186270806	116.51073559653162
18	7.0	ltm	304	diff_vonmises	-0.0477802126715391	-2.7376045303166863	0.7031331076815889	158.7114964830607	0.6827398197188876	160.825333259531	0.022144494473153	-0.4818066989144434	0.5039511933875964	97.25620481523208
19	7.0	perception	304	diff_vonmises	0.0277503660066058	1.589978852121822	0.7887704947509967	389.5672569904637	0.7751873075942801	391.5167078519733	0.4277806664486974	-0.6072346797382551	1.0350153461869525	97.7499987889958
20	7.0	wm	304	diff_vonmises	0.0676842093792969	3.878019537113497	1.6172896136149946	2.17629057756961	0.3917521283031462	4.239258643616383	0.0257262359729366	-0.4589577559449778	0.4846839919179145	83.73822474521964
0	1.0	ltm	471	diff_vonmises	0.0098127808569577	0.5622309283904436	4.491863912930718	0.392791241438017	1.2272709289837915e-16	3.606495051672753	-0.2524357165742241	-0.5739511699809651	0.321515453406741	64.51125264576618
1	1.0	perception	471	diff_vonmises	-0.0252330324808768	-1.4457462654707671	14.17432523682498	0.6583818455897409	1.7118142722117208e-22	3.911062859236003	0.3569721418729362	-0.6224649867900532	0.9794371286629896	36.00130186454217
2	1.0	wm	471	diff_vonmises	-0.0090310869233933	-0.5174431651262253	3.734824423747612	0.5218752047767369	0.0324494094448659	3.9437148998931386	-0.2618077638049741	-0.6191814933578847	0.3573737295529106	67.99052403324615
3	2.0	ltm	471	diff_vonmises	-0.0343713913667112	-1.9693356613049493	2.6386343342800465	0.9863888812628692	0.2130408432223709	2.824654184835376	0.0499463611067332	-0.4022768759658496	0.4522232370725829	74.44601812514077
4	2.0	perception	471	diff_vonmises	-0.0353497186050526	-2.0253896830445983	6.522279698413019	1.2671760038740945	0.1594305159100636	3.13621888241282	0.6825675993808265	-0.5071404115220733	1.1897080109029	51.58088987592507
5	2.0	wm	471	diff_vonmises	0.0006879284423144	0.0394153963516271	3.551607566379688	0.8619255721740964	0.1526843331460005	2.878728436829209	0.0900834929265129	-0.4377893922586899	0.5278728851852028	67.1102672038518
6	3.0	ltm	471	diff_vonmises	-0.0284580213812704	-1.6305245184398542	2.7860375580746184	0.9604012474309228	0.0505535539144532	2.5918802896271718	0.1692260117143234	-0.3929483177154248	0.5621743294297482	79.48042466842494
7	3.0	perception	471	diff_vonmises	-0.0267792261405229	-1.5343366364783717	3.742112217779622	2.3471714043346927	0.1792515614804211	3.876051972875034	1.007566670699229	-0.5727308267509261	1.5802974974501551	67.39664298093211
8	3.0	wm	471	diff_vonmises	-0.0694379909451413	-3.978503819024228	2.882027101240804	1.1149291233637892	0.1337557610286956	2.9051197099928534	0.187487151103139	-0.4257529485887526	0.6132400996918916	75.12773101996243
9	4.0	ltm	471	diff_vonmises	-0.0869040989540634	-4.979238092455107	2.112020263861639	0.9355705529294474	5.808333294195473e-20	3.4512843954655303	-0.0505204410385761	-0.5419873104483031	0.4914668694097269	94.5109157798248
10	4.0	perception	471	diff_vonmises	-0.0682370340490413	-3.9096940575005656	1.4161469331392578	6.379971243362276	0.4543157585756945	8.687873843252325	0.5993793388835935	-0.728628307788962	1.3280076466725554	91.52303004488522
11	4.0	wm	471	diff_vonmises	-0.0940827941601987	-5.390547030177456	0.7117947083584275	307.8582122542976	0.7000132511875619	310.585882644644	-0.0847172968152989	-0.5744608533096525	0.4897435564943535	93.34708856836292
12	5.0	ltm	471	diff_vonmises	-0.0526704599260418	-3.0177950587751337	1.4327853571944031	1.577379841227689	0.0370110571920061	2.834683170497481	0.1965669803777699	-0.3967647946314525	0.5933317750092225	110.03951207202996
13	5.0	perception	471	diff_vonmises	-0.028474761814156	-1.631483674591419	1.346514063198646	5.474215379262966	0.4431284237517799	6.630434278884413	0.6560209327285824	-0.5129727681698784	1.1689937008984608	95.91838893384704
14	5.0	wm	471	diff_vonmises	-0.0404802484244218	-2.3193473883604714	0.6329905604909788	235.3019802787632	0.6207260633427075	236.6364000496021	0.1879113875792128	-0.3954808050876259	0.5833921926668388	107.88848472697052
15	6.0	ltm	471	diff_vonmises	-0.0759405946277457	-4.351075565883685	0.7862286076780073	1.7574831082350346	5.53490506142763e-20	2.7941017278410354	0.084325055136684	-0.3349018749414027	0.4192269300780868	137.95757113402453
16	6.0	perception	471	diff_vonmises	-0.0279386383325727	-1.6007660617988366	0.8987176751958824	3.2486419986837887	0.0938641556510816	4.27680274843802	0.3015805919412779	-0.4447104935576685	0.7462910854989465	127.04818348148578
17	6.0	wm	471	diff_vonmises	-0.0350023846954264	-2.005488915941241	0.4599099337356584	279.7293701359976	0.4521099854233101	280.8269089637706	0.1437671818839021	-0.3612319416729725	0.5049991235568747	125.57415478709012
18	7.0	ltm	471	diff_vonmises	-0.0472406601940998	-2.70669045053359	0.7466007596730012	158.1113854718001	0.7269906044905919	159.95968936514834	0.0562546872890834	-0.4337927600183278	0.4900474473074112	95.21532152943963
19	7.0	perception	471	diff_vonmises	0.1006587613599056	5.7673221969371244	0.7139005894934245	283.9440626749058	0.6976307947108862	285.651541250821	0.3956243306036811	-0.558716441576081	0.954340772179762	103.28643770835332
20	7.0	wm	471	diff_vonmises	0.0096854137829502	0.5549333326008874	0.787503101481804	161.323444527962	0.7689560641202208	163.2199714924987	0.0067317445374399	-0.4235911953159075	0.4303229398533474	91.0547058252615
0	1.0	ltm	281	diff_vonmises	0.0835330416219373	4.786090734827654	3.7001617303485688	0.3014269945183107	1.5427869853878432e-17	3.184381053033668	-0.2847612012626468	-0.5066742942436977	0.2219130929810508	71.25529503333516
1	1.0	perception	281	diff_vonmises	0.008767126870751	0.5023193681497701	11.825576071385772	0.6755452503059701	0.0274745554880743	3.627689916305535	0.3228377117164122	-0.5830639548149834	0.9059016665313956	39.180908223556
2	1.0	wm	281	diff_vonmises	0.0454890033413632	2.606327905716616	4.40217762235285	0.3751343628758771	0.0045623247498576	3.371249336886689	-0.2352137824383878	-0.5349360270150074	0.2997222445766196	64.66258625388872
3	2.0	ltm	281	diff_vonmises	0.0196031124253508	1.1231756072930643	3.247310299608058	0.7064936663116652	0.1689437604736528	2.473217513574003	0.0211861200876253	-0.3720753672146609	0.3932614873022863	68.90485392247297
4	2.0	perception	281	diff_vonmises	-0.0043333037996126	-0.248280019065809	6.646618589764197	1.3428698042369214	0.2048907144196607	3.181639694766675	0.7379724974225303	-0.52042196203198	1.2583944594545105	50.79866969070335
5	2.0	wm	281	diff_vonmises	0.070049552954295	4.013543741059275	4.092273202494124	0.6428186539022297	0.1125816052944117	2.586509747022032	0.0411648214636583	-0.4024713095000758	0.4436361309637341	63.56823395441995
6	3.0	ltm	281	diff_vonmises	0.0567636544730327	3.2523178310436736	3.139073743940883	0.7192974733570324	0.1303218347543917	2.0815758195779543	0.1075663225465003	-0.3104318299377235	0.4179981524842239	72.07147803289286
7	3.0	perception	281	diff_vonmises	-0.0006065032754655	-0.0347500779450383	4.464584787998241	1.934812260800702	0.1232142616454445	3.304568956214325	0.986284698716035	-0.5061940300408783	1.4924787287569132	62.74328799392819
8	3.0	wm	281	diff_vonmises	-0.0040606796096222	-0.2326598035861841	3.5418125131778893	0.6920570341931259	0.0644539768758333	2.280124431300021	0.1109655739387441	-0.3508008972410507	0.4617664711797948	70.00319940595185
9	4.0	ltm	281	diff_vonmises	0.0396472125650169	2.2716179494335185	1.853705325377092	0.718210613657328	0.07089147776607	3.285242703499195	-0.2067360902876157	-0.4822558920093779	0.2755198017217622	90.49435291216366
10	4.0	perception	281	diff_vonmises	-0.0537219538144799	-3.0780412207664343	1.5074931205345556	5.1802449467669245	0.4201270267020829	7.618975260624617	0.4836925471232447	-0.7085101965172129	1.1922027436404576	89.71588012612875
11	4.0	wm	281	diff_vonmises	0.0149434879689527	0.8561987918255134	0.6995183799552309	204.54834302362983	0.6845323874541189	207.35795194034665	-0.2071672676112754	-0.5472057577206684	0.3400384901093929	89.68316042003445
12	5.0	ltm	281	diff_vonmises	-0.0316603056353796	-1.814001891001509	1.891467956966578	0.9823027475475328	9.213081589820337e-14	2.243418099624404	0.1328584897483251	-0.3459025812953645	0.4787610710436896	99.6036477397934
13	5.0	perception	281	diff_vonmises	-0.0522928757231501	-2.9961610775386247	1.663623087037039	3.846596459239264	0.3448316887120604	5.049976924400623	0.6726809866059391	-0.510909486911385	1.1835904735173242	91.46817863057248
14	5.0	wm	281	diff_vonmises	0.0400896349901388	2.296966887154948	1.209537259256244	2.0708975122039623	0.177767906476208	3.4900310893882684	0.1304811709564581	-0.3911340529261172	0.5216152238825754	107.29134362968564
15	6.0	ltm	281	diff_vonmises	-0.077679940294565	-4.450732731706796	0.4558475337053077	73.56648534488723	0.432126210349284	74.69278713342213	0.0593183340155825	-0.3175808386334484	0.3768991726490309	124.85166363244264
16	6.0	perception	281	diff_vonmises	-0.0944771971094481	-5.413144654596959	0.6507444551928061	7.884528803740923	0.3076103444985142	9.007812488872004	0.2649900619185639	-0.439085643558681	0.704075705477245	125.36620097658506
17	6.0	wm	281	diff_vonmises	0.0290080791623184	1.6620405077822331	0.5192793025630414	210.7197751351168	0.5090253605346614	211.92912416575803	0.1042643279333574	-0.3492169215116227	0.4534812494449802	117.81371590903338
18	7.0	ltm	281	diff_vonmises	-0.0340579256507405	-1.951375398757783	0.8138647535891449	124.5877583066636	0.7882332506226417	126.72622417831124	-0.0347024146383034	-0.4623621333072201	0.4276597186689166	88.41709681473915
19	7.0	perception	281	diff_vonmises	0.0468253548854689	2.682895209139664	0.7260014106818687	350.7053898888024	0.7118458776610695	352.6857677371823	0.3789002983401843	-0.60714123775929	0.9860415360994744	101.56925417027918
20	7.0	wm	281	diff_vonmises	0.0188999927048455	1.0828898148156962	1.1189804530338738	3.490720619489322	0.4613557342265567	5.664420009537754	-0.0859271063515214	-0.4484045175830517	0.3624774112315302	89.18064132662508
0	1.0	ltm	379	diff_vonmises	0.0140620235010053	0.8056945980213831	2.829753960266217	0.2833115110100611	6.222400837252304e-16	2.2091548613518963	-0.172151105862564	-0.3509726617529439	0.1788215558903798	81.72777343452341
1	1.0	perception	379	diff_vonmises	-0.0283216440012124	-1.622710670141479	14.428470711639784	0.5825967063680692	9.852504756193362e-19	2.6797164453860614	0.448189314665893	-0.4264901183675778	0.8746794330334708	35.67655220259584
2	1.0	wm	379	diff_vonmises	0.0310333918115199	1.7780823747759391	4.411153902032154	0.3208102692683	2.1740221055087604e-14	2.388903423183573	-0.1201059680515375	-0.3801674450946872	0.2600614770431497	65.1094389353778
3	2.0	ltm	379	diff_vonmises	0.0329317911473243	1.8868526445479707	4.233007601769745	0.4676029701086455	0.0888497798336496	1.7979591216725566	0.0586365881291423	-0.2802431592530759	0.3388797473822183	63.39000109364105
4	2.0	perception	379	diff_vonmises	-0.0062496162213824	-0.358076633061712	7.148842212971891	1.2474365539262902	0.2543394213353212	2.649915667035397	0.7702477753550243	-0.4416172866609457	1.21186506201597	48.915958191964535
5	2.0	wm	379	diff_vonmises	0.0696852876960807	3.992672879140351	4.440667609864486	0.4937327960463104	0.1221874313315941	2.0231345972502925	0.0392686034417696	-0.3175090159171821	0.3567776193589518	61.01118551844249
6	3.0	ltm	379	diff_vonmises	0.0723082025395243	4.142954829691886	1.852314602715806	2.357460122036331	0.8246482726218388	3.397145111679474	0.1134031785316516	-0.2795415377608032	0.3929447162924548	72.81350006745032
7	3.0	perception	379	diff_vonmises	-0.0144206268681978	-0.8262410574806921	4.703314014237577	1.953195804579484	0.2235157592642496	3.042092142081872	1.0412263687740722	-0.4651994321236738	1.506425800897746	60.26699482214747
8	3.0	wm	379	diff_vonmises	-0.0028219485978539	-0.1616857446598938	3.462229547246644	0.6688490965068209	0.2350014695696901	2.0173630621771776	0.0743181991286672	-0.3031810835788875	0.3774992827075547	66.10388928617093
9	4.0	ltm	379	diff_vonmises	-0.0682466321390637	-3.9102439875502366	0.9492020187210722	85.87429405396823	0.9190707799851084	87.67255048166334	-0.0949861212549585	-0.3757770342050328	0.2807909129500743	78.9413400482199
10	4.0	perception	379	diff_vonmises	-0.0722734497010652	-4.140963638722079	2.0650886828551416	2.991832904938437	0.2939947473316847	4.83473637138747	0.5630521652267158	-0.5826091721631039	1.1456613373898197	83.85248231534968
11	4.0	wm	379	diff_vonmises	-0.0851229044335644	-4.877183163938688	0.9676239297475768	289.9398503562354	0.956601961077595	292.038119482298	-0.0933767330694763	-0.4460799520461904	0.3527032189767141	78.42259359348094
12	5.0	ltm	379	diff_vonmises	0.0306150661152872	1.7541140779199362	1.9111094135854236	1.0712946984800205	0.1509876809975645	2.077317691099783	0.1553311784823098	-0.2750529923333112	0.4303841708156211	90.3896409714716
13	5.0	perception	379	diff_vonmises	-0.0460689469465092	-2.6395562266470822	1.9463937809446337	2.7074976167811946	0.2547353846119941	3.675454338153554	0.6313515604765046	-0.4331101949346777	1.0644617554111824	88.62820899227717
14	5.0	wm	379	diff_vonmises	0.0554378583894034	3.1763553109567417	1.6126967465532962	1.0908889943705016	0.0361824680576207	2.2975824185692857	0.1147477167361891	-0.3329391361570303	0.4476868528932194	104.33557183677004
15	6.0	ltm	379	diff_vonmises	-0.1697307385921553	-9.724854974968746	0.4777400550499281	143.6452756659941	0.466003671357891	144.63970650836967	0.0745801221342858	-0.2889533682523471	0.3635334903866329	122.223956264362
16	6.0	perception	379	diff_vonmises	-0.0706719213022101	-4.049202820697338	0.6050205936684552	196.3223033247133	0.590145824721248	197.40303516951025	0.2676062994247346	-0.3889010886235411	0.6565073880482757	112.8224683877358
17	6.0	wm	379	diff_vonmises	0.0057019619946364	0.3266983572366672	0.5020212850021716	151.65556257275227	0.4893420996492655	152.76056224253517	0.0886934680096587	-0.3193191421786103	0.408012610188269	119.71738079435237
18	7.0	ltm	379	diff_vonmises	-0.0431433102359958	-2.471929590746125	1.0052202958837435	213.70319728981917	0.9894133986986678	215.41601196008503	0.0572770067810068	-0.406263083997942	0.4635400907789488	81.31261716966719
19	7.0	perception	379	diff_vonmises	-0.0083794262699145	-0.480105760007151	1.7719727782320365	1.9893863191459331	1.3237370369971332e-11	3.689479240107597	0.3663400110510203	-0.5596390347443321	0.9259790457953524	102.65580459454976
20	7.0	wm	379	diff_vonmises	0.0944070489091561	5.409125458779791	1.563663760494872	1.341351627822886	0.3061819483540127	3.092117346527519	-0.0571943727286025	-0.3610307711990612	0.3038363984704587	85.65734397649496
0	1.0	ltm	258	diff_vonmises	-3.822834173485664e-06	-0.0002190322639191	7.006346047602248	0.2195795946201683	0.0078753457246691	3.449735767795321	-0.3259506539168212	-0.54909417554598	0.2231435216291587	50.83746771525705
1	1.0	perception	258	diff_vonmises	0.0191487892408441	1.0971448062858873	11.875568986682431	0.8078346212622517	0.0946086977500965	4.052693930640953	0.3909959563161111	-0.6726840887377161	1.0636800450538273	38.64160081218665
2	1.0	wm	258	diff_vonmises	0.0441184858002571	2.527803034862589	5.646754033796998	0.3271130100123767	0.0227504070198859	3.7777060042654345	-0.3124961225902898	-0.6007278134534981	0.2882316908632083	55.85662645891392
3	2.0	ltm	258	diff_vonmises	-0.0216506442751083	-1.2404905407027842	4.2317556111454655	0.430894146529409	0.0112111885213489	2.117549161942485	0.0007842664492847	-0.3345869414632754	0.3353712079125601	65.80106505534485
4	2.0	perception	258	diff_vonmises	-0.0201157185866603	-1.1525457768885017	7.8264117937390525	1.2803726408470648	0.2624880987028619	3.098841229935952	0.7742963681367999	-0.5266225547195118	1.3009189228563116	46.66091828313773
5	2.0	wm	258	diff_vonmises	0.0456953856432592	2.6181527405814484	3.924374165801316	0.6639427475014114	0.1335462456870292	2.634583213421856	0.0280511010514745	-0.4082852637626443	0.4363363648141189	64.18848893439153
6	3.0	ltm	258	diff_vonmises	0.0436331906371322	2.499997670197416	2.9382863787306657	0.6412899349870543	0.2818061711183983	1.5082353998737843	0.1030607057217191	-0.2133757782485834	0.3164364839703025	70.84421574606367
7	3.0	perception	258	diff_vonmises	-0.0012487739059661	-0.0715494743779246	4.429187411752558	1.8963036830032205	0.2878284534345548	2.792045876899542	0.9603869741456604	-0.4194087296098718	1.3797957037555322	61.41927499361756
8	3.0	wm	258	diff_vonmises	-0.0439405183818306	-2.517606252895907	3.4504134491874106	0.6412329407067437	0.1862907351822956	1.7693712485771862	0.1180310934213846	-0.2647702605972711	0.3828013540186558	67.87530685073091
9	4.0	ltm	258	diff_vonmises	-0.0246990433184135	-1.415150940155889	0.7718449622159552	113.33965456438722	0.7486637350806822	115.36901792714158	-0.0946837852161408	-0.4162202179337733	0.3215364327176324	88.39247931476254
10	4.0	perception	258	diff_vonmises	-0.0628653069237086	-3.601916764523059	2.088845354545378	3.342767991568445	0.3957610513868528	5.216284412605319	0.5838597933915337	-0.5935759318045064	1.17743572519604	80.90836392069266
11	4.0	wm	258	diff_vonmises	-0.0671495576837929	-3.8473862514516046	0.7979411824993032	266.40763302688566	0.7870371550634362	268.63643680953766	-0.1164879671032395	-0.4544005225398351	0.3379125554365956	85.96016406809613
12	5.0	ltm	258	diff_vonmises	0.0023195847049198	0.1329024138150041	1.960423165133831	0.9763735442581162	0.0413335696694021	2.4350553985821364	0.0939074977060467	-0.3618345560995191	0.4557420538055658	94.71258519734388
13	5.0	perception	258	diff_vonmises	-0.0360818796545188	-2.0673394211028806	2.339966763622182	2.486687281170552	0.1465097740032113	3.882662221792133	0.6977851298999576	-0.5296273818026004	1.2274125117025578	84.33070872729894
14	5.0	wm	258	diff_vonmises	0.0073736315036594	0.4224779648443893	0.7164333148435066	9.362339260884475	0.4528850414864105	10.98017175021177	0.0805320143558923	-0.4148223192351945	0.4953543335910868	109.22434554839984
15	6.0	ltm	258	diff_vonmises	-0.0751565641996482	-4.306153931343865	0.5020723408368676	101.82876743661238	0.4825570020157441	103.13996910519964	0.051705455076533	-0.3472471098493681	0.3989525649259011	118.4679965999655
16	6.0	perception	258	diff_vonmises	-0.0773602919290281	-4.43241822943328	0.8167737982362349	2.9740393168346966	5.0550340979571424e-08	4.279704210407373	0.2314194577043863	-0.5029643066962304	0.7343837644006167	136.54811696806388
17	6.0	wm	258	diff_vonmises	-0.0960005875111908	-5.500428495167555	0.4695767154600676	209.2403566962033	0.4587457360340845	210.6363751369136	0.0873155690006655	-0.3969451210564472	0.4842606900571127	122.7678692918178
18	7.0	ltm	258	diff_vonmises	0.1258004139826927	7.207832782206839	0.7362998811162099	169.82204894782194	0.7219133182031189	171.34146346064222	0.0274512784854081	-0.3492625271337495	0.3767138056191577	95.09379005920093
19	7.0	perception	258	diff_vonmises	-0.0081317682644993	-0.4659160015342353	0.7786034068757406	252.95941544952208	0.7628052753185307	254.26424984985127	0.3761298639087869	-0.4471367399208006	0.8232666038295875	99.53153135558838
20	7.0	wm	258	diff_vonmises	0.1204841724012631	6.90323457671897	0.8241735611377623	137.45438256865606	0.8054718672079222	138.9990319107724	0.0202109154693843	-0.3503278455126644	0.3705387609820487	89.40450895320737
0	1.0	ltm	425	diff_vonmises	-0.0779792833704084	-4.467883826579091	2.2418558874681973	0.3829986770357252	5.328582186920509e-21	2.7182656461444705	-0.2210281064087972	-0.4302358220770973	0.2092077156683001	91.81672235481682
1	1.0	perception	425	diff_vonmises	-0.0261883556058257	-1.5004822486015843	14.275211080775756	0.7275327171075612	0.0079361960205521	3.205035602167106	0.5719501537594899	-0.5115152309928713	1.0834653847523612	35.82193632825488
2	1.0	wm	425	diff_vonmises	-0.0060466997743262	-0.3464503770516017	3.902817440611632	0.3670068980988419	5.616970612165861e-24	2.8647313303812463	-0.1775494365615743	-0.4558227118330699	0.2782732752714956	69.33304123307039
3	2.0	ltm	425	diff_vonmises	0.0125457543023469	0.7188187723325726	4.14316305021392	0.4305587751028558	1.6539153204065283e-17	1.8787835611584496	0.0384058926271313	-0.2989326723306638	0.3373385649577951	67.23764880342236
4	2.0	perception	425	diff_vonmises	-0.0262730950053511	-1.505337458552863	7.479938074765999	1.3074721472288813	0.2273804891563332	2.7459673398924758	0.8590972786767613	-0.4568241614334695	1.3159214401102308	48.09176971578199
5	2.0	wm	425	diff_vonmises	-0.0009025822601379	-0.0517141541692848	3.8361041117180834	0.5881472709773782	0.0889623498103213	2.2182077061441445	0.0568394810780413	-0.3429081309401829	0.3997476120182243	66.34112461826504
6	3.0	ltm	425	diff_vonmises	0.0452601906121464	2.5932179020336203	3.254409952759405	0.5926716296452497	0.1059646866696198	1.4517922858426977	0.1502829964930083	-0.2174423788583726	0.3677253753513809	72.251457356137
7	3.0	perception	425	diff_vonmises	-0.0121769370728072	-0.6976871016682394	4.146036378930745	2.1732334174168475	0.2753208408224942	2.927619244070028	1.1016045505868584	-0.4304923874911681	1.5320969380780265	63.66709809063909
8	3.0	wm	425	diff_vonmises	-0.1053544031092044	-6.036362651277371	3.4442701459609824	0.7479788616998276	0.1655232485507885	1.7879125978727426	0.1960611203815576	-0.2660753932782866	0.4621365136598443	69.0114163321247
9	4.0	ltm	425	diff_vonmises	-0.0911876535552992	-5.224667692419764	2.4375851613579105	0.7740418701954545	0.2037794387596455	2.5667255209816298	-0.046238218653295	-0.3654640895353664	0.3192258708820714	75.73545689039099
10	4.0	perception	425	diff_vonmises	-0.0691224040636554	-3.960422022645388	2.038148798028428	3.502322031915316	0.3584048468749863	5.274669686935756	0.6638553623124339	-0.6010969518403625	1.2649523141527963	83.06468718006252
11	4.0	wm	425	diff_vonmises	-0.0904193560880936	-5.180647490138289	0.8937731149605707	274.0397938101322	0.8826115962630839	276.079423050423	-0.0686122326625309	-0.4335469942782026	0.3649347616156717	82.55602805864862
12	5.0	ltm	425	diff_vonmises	-0.0052192891197454	-0.299043238619966	1.8552557694207883	0.8796564683822389	5.0551346483279925e-21	1.8544635847838904	0.1384426272869512	-0.2845387365345778	0.422981363821529	100.50673548969502
13	5.0	perception	425	diff_vonmises	-0.0158691437743074	-0.9092349627541252	2.063125785300929	2.5562410760521304	0.162389001493333	3.3905050493933024	0.7130971357491901	-0.4382878810295393	1.1513850167787294	89.49683701237277
14	5.0	wm	425	diff_vonmises	0.0029434792996909	0.1686489409564123	1.2751254454784784	1.4418432304811668	0.0731820691447883	2.577759450565026	0.1257236609841832	-0.3365753822652058	0.462299043249389	112.56079835622988
15	6.0	ltm	425	diff_vonmises	-0.1437446192152084	-8.235960008746558	0.3878277126623968	112.12061990410048	0.3755108271718291	112.99161375668228	0.057443372564002	-0.2638197382991034	0.3212631108631054	132.78047581070325
16	6.0	perception	425	diff_vonmises	-0.0367883575971022	-2.107817625531996	0.4347875318716392	146.27411900298506	0.4161981784441111	147.1587836783707	0.2969900137376129	-0.4156445513025346	0.7126345650401475	131.2672987654208
17	6.0	wm	425	diff_vonmises	-0.0298495162175148	-1.7102512997709038	0.4024448744802603	216.2067740269936	0.3940414353910513	217.20197432970093	0.1071585709745477	-0.325933648010249	0.4330922189847968	131.82202317558097
18	7.0	ltm	425	diff_vonmises	0.1014345931123202	5.811774081962718	0.8879463423991805	132.95062413885842	0.8696509756861972	134.20308134795744	0.0667386698106824	-0.3023668689285319	0.3691055387392143	87.72894479158202
19	7.0	perception	425	diff_vonmises	0.0794301770456781	4.55101391069427	0.7028534122822228	114.26818125870872	0.6711640123968526	115.43492347211004	0.3641179354208219	-0.430867110480472	0.7949850459012939	105.89432265463816
20	7.0	wm	425	diff_vonmises	0.0206720234825746	1.1844196995468566	0.7057690456355841	130.10685276340266	0.6906172993722758	131.4657455681549	-0.0085436406566472	-0.299912816695695	0.2913691760390478	95.79161091174734
0	1.0	ltm	235	diff_vonmises	0.0087985647148406	0.5041206239330988	6.138792699163791	0.3856598948666766	0.05740946039401	3.65137524980095	-0.2422999533803668	-0.5856896825743141	0.3433897291939472	52.62775317661678
1	1.0	perception	235	diff_vonmises	0.0020639491067462	0.1182555729463552	12.515660630187533	0.6712535651503425	0.0705735055808341	3.9010005042360185	0.2720944760568627	-0.6412867678461078	0.9133812439029706	37.75134204116799
2	1.0	wm	235	diff_vonmises	0.0506764856107624	2.903548746052135	3.0676907583820707	0.7723348283665736	0.1512898498723618	4.263558436560929	-0.2725939376028999	-0.6526157765340329	0.3800218389311329	68.24383845076113
3	2.0	ltm	235	diff_vonmises	-0.0591316738857902	-3.3879953491997266	2.811346694754612	0.8390488538639542	0.2299082080775329	2.4024691994875678	0.0545247319700339	-0.3455446221076694	0.4000693540777034	72.12927489775416
4	2.0	perception	235	diff_vonmises	-0.0255089731765378	-1.4615565027280448	7.113037921729912	1.1220979881714157	0.228617229829719	2.768808760204335	0.6244139149882316	-0.4602279826627212	1.0846418976509529	48.982908122101406
5	2.0	wm	235	diff_vonmises	0.0446432828341018	2.5578716900028704	3.92661554193844	0.793768435558897	0.2230178933870543	2.556893827777872	0.1017339714168497	-0.39424682228279	0.4959807936996397	62.79885030358256
6	3.0	ltm	235	diff_vonmises	-0.0403076102870088	-2.309455951703706	2.0768065064216072	1.73169979027496	0.5596789664006732	2.982437822072173	0.144592290272278	-0.3251188452112351	0.4697111354835131	74.99826522659379
7	3.0	perception	235	diff_vonmises	-0.0233301205876981	-1.3367174452063777	4.086056311199026	1.9204173833592844	0.2549577420502371	3.144451829483348	0.8582362359816631	-0.4679389031473334	1.3261751391289964	63.75512687524636
8	3.0	wm	235	diff_vonmises	-0.0059525379296547	-0.3410553007607555	2.356204940613964	1.3056480631020524	0.40328349773815	2.778334264101499	0.107312805349067	-0.3543529682226194	0.4616657735716865	73.9414901265094
9	4.0	ltm	235	diff_vonmises	-0.0899029377799123	-5.151058900616218	0.8260727759905184	120.04046425785592	0.8002448904722835	121.91512118058844	0.0226930259048927	-0.4245021775149133	0.4471952034198061	89.44909374556636
10	4.0	perception	235	diff_vonmises	-0.093726744438232	-5.370146883811958	1.8788790934440505	3.796263835827428	0.4176617629975043	5.404876015317192	0.6346300200122559	-0.5629374070883175	1.1975674271005734	84.42202625032854
11	4.0	wm	235	diff_vonmises	-0.1193016203521192	-6.835479335248479	0.8809395657594348	312.5376076830603	0.8698432615177554	314.57946982380247	0.0139870933548991	-0.4598999449441265	0.4738870382990257	85.7641147087451
12	5.0	ltm	235	diff_vonmises	-0.0095040186679462	-0.5445401580868668	0.6537340553405921	197.38259880553412	0.6380536002275946	199.02851188616435	0.1390932763455765	-0.4369163451569839	0.5760096215025605	104.47803721977928
13	5.0	perception	235	diff_vonmises	-0.0423846771596285	-2.428463117271254	1.7815776419524725	3.392514402429048	0.3155636457345364	4.986576539897881	0.569952238436791	-0.5486137633305417	1.118566001767333	88.83406375778773
14	5.0	wm	235	diff_vonmises	-0.0281094195961234	-1.6105511074202052	0.6647160789694453	305.60542324805573	0.654446788449338	307.26006721489097	0.1403538008229929	-0.4369406671050626	0.5772944679280556	103.33731826549916
15	6.0	ltm	235	diff_vonmises	-0.0736174709362911	-4.217970383076482	0.474083876363824	164.8233212406551	0.4589378578646896	166.39251663736545	0.088828171696015	-0.4396410815959246	0.5284692532919397	122.28015836022256
16	6.0	perception	235	diff_vonmises	-0.057789413480663	-3.31108949297842	0.9342618447721818	4.20919911514926	0.1995225549255113	5.800254207377557	0.2699775692579143	-0.5347854444395692	0.8047630136974835	118.07828775248883
17	6.0	wm	235	diff_vonmises	-0.1641737911741497	-9.406465340940905	0.5641488078226838	203.10955547699805	0.5497975298068433	204.65236261032416	0.1540097373230935	-0.4439527008820967	0.5979624382051902	113.55033600406811
18	7.0	ltm	235	diff_vonmises	-0.0184746482859601	-1.0585193747741175	0.6475433698821389	288.64442895400583	0.6367046343593106	290.5871855439043	0.0648514258919306	-0.4686533058981723	0.5335047317901029	102.57822584380018
19	7.0	perception	235	diff_vonmises	-0.0524107420509379	-3.0029143206675744	1.4935650733213903	3.976972576293333	0.3555479677721804	5.730175065415817	0.4569624855724914	-0.5571968150334109	1.0141593006059022	92.99399823847584
20	7.0	wm	235	diff_vonmises	0.189313043550904	10.846838402243147	2.0573317802011863	1.5976280155076092	0.290176564009811	3.40290088690943	0.129450494827046	-0.4294630376215471	0.5589135324485932	81.16707522304662
0	1.0	ltm	114	diff_vonmises	-0.0591060121626078	-3.38652504076634	2.284675628800774	0.4703810792827226	1.097879743068963e-21	2.7359712980649684	-0.1726157242855997	-0.4327189482798229	0.2601032239942231	90.9674374684702
1	1.0	perception	114	diff_vonmises	-0.0421241887598102	-2.413538231349546	14.203053463184888	0.669807260059478	6.017743404907136e-21	3.089048436258383	0.5058840639508271	-0.4916373280803514	0.9975213920311784	35.96294771894634
2	1.0	wm	114	diff_vonmises	0.0063818830348993	0.3656549632458709	3.3264408018119784	0.4622911927625405	2.1346651025088508e-17	2.85947836192719	-0.1341375448461398	-0.4546859222930828	0.320548377446943	75.2570653888967
3	2.0	ltm	114	diff_vonmises	0.0010959465579704	0.0627931123435957	3.328736755536652	0.6553459410379346	0.127390018135806	2.105472634598668	0.076120807726975	-0.3178559821685454	0.3939767898955204	69.9344373104033
4	2.0	perception	114	diff_vonmises	-0.0266752519489265	-1.528379354121613	6.600217614165556	1.2872020538452316	0.1752973409296213	2.7066785057638563	0.7825846837237784	-0.4378587087449175	1.220443392468696	51.38143777692463
5	2.0	wm	114	diff_vonmises	0.0081772095671477	0.4685195963915661	3.893028616483928	0.6527980079218649	0.1156597283033571	2.220190201054842	0.0991033418851242	-0.3421027329142391	0.4412060747993633	65.43358394813848
6	3.0	ltm	114	diff_vonmises	0.0045013996559608	0.2579112021881972	2.882581935150176	0.8106699299279959	0.0859173761170971	1.9834393632106084	0.1755908529424362	-0.2952754650000893	0.4708663179425255	77.03990627696498
7	3.0	perception	114	diff_vonmises	-0.0236692697911756	-1.3561492631908616	3.892522934210884	2.2532895822853694	0.1905313866487019	3.347535541130123	1.067926554770409	-0.4944927845165328	1.562419339286942	66.29216424618721
8	3.0	wm	114	diff_vonmises	-0.0934009766043322	-5.351481761828381	2.904896326702925	1.0082107961288007	0.1920544888786206	2.310596107127174	0.2067272157550012	-0.3310731017612378	0.537800317516239	73.72251023436917
9	4.0	ltm	114	diff_vonmises	-0.1218576691722892	-6.981930144873612	3.131064040630793	0.6032143224182648	0.0508736934992632	2.5413341961574245	-0.0205064104138081	-0.3911862243006456	0.3706798138868374	74.10733106803326
10	4.0	perception	114	diff_vonmises	-0.0788356921955244	-4.516952437795992	1.6603519220834673	4.643571030314055	0.3923692761314407	6.539780202053651	0.6560067443332918	-0.6472191291458275	1.3032258734791191	88.91754085461187
11	4.0	wm	114	diff_vonmises	-0.0969589007168535	-5.555335797303681	0.8804182208606968	328.72783092006614	0.8699797290787479	330.9107402072098	-0.0377768125995885	-0.4742797233550888	0.4365029107555003	84.34033727095266
12	5.0	ltm	114	diff_vonmises	-0.0312440613544355	-1.7901528504569562	1.5058239112677951	1.2387290635158064	0.0352510270379021	2.182891117947437	0.1780436479854193	-0.3088136404639827	0.486857288449402	107.96980909268142
13	5.0	perception	114	diff_vonmises	-0.0227541290473362	-1.3037155609084006	1.4885019769716474	4.1300020257741785	0.3880425112608012	4.945235153815603	0.6628505680435244	-0.4364795379268514	1.0993301059703755	94.99279118225972
14	5.0	wm	114	diff_vonmises	-0.0037307796842451	-0.2137579302003956	0.6134573653671618	87.45164449687017	0.5866885302616202	88.50372329485225	0.1663348105126623	-0.3268724003838281	0.4932072108964904	110.82662618434873
15	6.0	ltm	114	diff_vonmises	-0.1282503725722105	-7.348205069368033	0.3479082516279096	117.92655895095216	0.3357448662318813	118.79053804200562	0.0724850971319206	-0.2796764387635004	0.3521615358954211	138.0761370153644
16	6.0	perception	114	diff_vonmises	-0.0317293946611601	-1.8179604005894023	0.5220241885343775	243.6822664052718	0.5100648736692451	244.5484091710146	0.3306591491012085	-0.4017033669983441	0.7323625160995526	122.2537130323245
17	6.0	wm	114	diff_vonmises	-0.0087140326969914	-0.4992772960766102	0.4506623039863411	204.91115110742365	0.4412035066922156	205.85905946075	0.1353717332370223	-0.3214332734153764	0.4568050066523987	126.952794476505
18	7.0	ltm	114	diff_vonmises	-0.0040004886649935	-0.2292111164940559	0.880662152769512	127.14021182639964	0.8572348369137599	128.7163465559717	0.0722072339378527	-0.3762537966412456	0.4484610305790983	87.9495428279265
19	7.0	perception	114	diff_vonmises	0.0996670729994776	5.71050263929235	0.8114589286889204	17.711325358588397	0.5750542682545746	19.240211574014392	0.3980574605627938	-0.5254572843762544	0.9235147449390482	104.91374805907628
20	7.0	wm	114	diff_vonmises	-0.008398621048996	-0.4812055398372076	0.6977492029943153	84.84420446487195	0.6705700599996308	86.48936431025021	-0.0197544132074121	-0.3598093650823877	0.3400549518749756	96.43433991340902
0	1.0	ltm	212	diff_vonmises	0.0235248249637502	1.3478731842068865	3.0018077196514605	0.3207583111144899	3.5473867783195e-13	2.358455194012925	-0.1652161677121303	-0.3748407306210803	0.20962456290895	79.3123448751304
1	1.0	perception	212	diff_vonmises	-0.0229598128727955	-1.3155003760213242	13.743724944399013	0.5672250875444497	2.442581696218976e-05	2.721687724111094	0.3976667158463972	-0.43316917070783	0.8308358865542271	36.55680632624424
2	1.0	wm	212	diff_vonmises	0.0894305974528895	5.123995793383981	4.0550255799145685	0.3832193390050624	6.472688293227443e-23	2.504193953828321	-0.1017127603270692	-0.3984656424330205	0.2967528821059513	67.98086880218284
3	2.0	ltm	212	diff_vonmises	-0.0122973007009625	-0.704583429568422	3.796631134637462	0.5377556670017349	0.128017719601599	1.8917129720969263	0.0609907143817943	-0.2908923242390097	0.351883038620804	65.70529859766839
4	2.0	perception	212	diff_vonmises	-0.0061595266345202	-0.3529148799564278	6.913566061153175	1.1640821441164642	0.1951788891937116	2.555469618066917	0.7074635554195343	-0.4180266390636595	1.125490194483194	50.06206120882058
5	2.0	wm	212	diff_vonmises	0.086338739570138	4.946845385848064	4.619298225591476	0.5311794174888187	0.1579368406258951	1.9954777466351248	0.0718766254940707	-0.3147822938460481	0.3866589193401188	59.418033844996586
6	3.0	ltm	212	diff_vonmises	0.0100477393727757	0.575693059707476	1.2308692846721616	66.06193575411847	1.1875038699314662	67.13876868009571	0.1226422944809897	-0.2923927728850088	0.4150350673659986	75.84864194308904
7	3.0	perception	212	diff_vonmises	-0.0203760735066723	-1.1674630149806546	4.215876819087082	1.907350259030365	0.1941812282616099	3.024254572454417	0.9299931305168384	-0.4545495585478433	1.3845426890646817	63.68919138853374
8	3.0	wm	212	diff_vonmises	-0.0021870710137279	-0.1253099385820129	2.3861093345097144	1.1436564736030703	0.4364637464313252	2.427563194027921	0.0854470455508481	-0.308769788755231	0.3942168343060792	72.69609685124937
9	4.0	ltm	212	diff_vonmises	-0.0728922268392415	-4.176416957198764	0.9975249264545244	132.5827743038589	0.9774045085648037	134.24157211375135	-0.054560185124501	-0.360018912578802	0.305458727454301	78.21240345983551
10	4.0	perception	212	diff_vonmises	-0.1104350801197493	-6.327464001050739	1.6791569943935012	4.616331851211144	0.5048270601391277	6.203621651056982	0.6051826072358766	-0.5556177534175953	1.160800360653472	85.76806854123254
11	4.0	wm	212	diff_vonmises	-0.0975310812751541	-5.588119328413741	1.0120023494129926	254.7638162243679	0.999557741398572	256.6489330481704	-0.04457290916352	-0.4157234969080079	0.3711505877444878	78.07504596869376
12	5.0	ltm	212	diff_vonmises	0.0317420172428307	1.8186836212456865	1.0695266404341348	3.197382900694647	0.4114988771246038	4.523849307778399	0.0925435225299138	-0.3344841847052158	0.4270277072351296	98.60170990113356
13	5.0	perception	212	diff_vonmises	-0.0538612870879329	-3.086024429281032	1.8253805472545808	3.068075463556563	0.3193722820174907	4.364439105260319	0.5654016848103426	-0.4805150847528742	1.0459167695632168	88.30916025844681
14	5.0	wm	212	diff_vonmises	0.046067924910132	2.639497668276159	0.6229146933813203	176.7835713404647	0.6095110602115853	178.23548843450848	0.0609663483709113	-0.3597780146566336	0.4207443630275449	105.2955915350384
15	6.0	ltm	212	diff_vonmises	-0.1688067454383072	-9.671914066954267	0.4772688527213487	205.9437176143173	0.4678544059438168	207.471383999716	-0.0070317403520689	-0.3682031662801357	0.3611714259280667	118.30058743455986
16	6.0	perception	212	diff_vonmises	-0.1080975581694012	-6.193533858776604	0.6127751904689597	272.03434026413305	0.6001396403412076	273.57710331647377	0.2412458360943077	-0.4757826834777283	0.7170285195720361	110.1689858382195
17	6.0	wm	212	diff_vonmises	-0.0877650340937827	-5.028566042395529	0.5754389223745799	167.27085654173857	0.5612665452372947	168.8391289571826	0.0421956277707877	-0.3849467138755891	0.4271423416463769	109.13425378087982
18	7.0	ltm	212	diff_vonmises	-0.0611026872207311	-3.500926094655847	0.8870710702785164	178.81534340239256	0.8677545110564054	180.8705323047645	0.0078369945862348	-0.4608957968143734	0.4687327914006083	85.50140961154753
19	7.0	perception	212	diff_vonmises	-0.0565789272796476	-3.2417337425014097	2.4707144068221614	1.8344716744610765	1.2639006489018712e-14	3.858367177429643	0.4595991825642816	-0.6064071085960993	1.066006291160381	87.50567780703508
20	7.0	wm	212	diff_vonmises	0.1899407901943383	10.882805635515435	2.803498158020212	0.8161646299897911	0.1632043209262606	2.7933182708608397	-0.0057271721709007	-0.4110022612545753	0.4052750890836745	73.3937171195436
0	1.0	ltm	333	diff_vonmises	-0.0227102109299171	-1.3011992381361244	5.964252626982566	0.2992977600574221	1.1280776368382988e-15	2.5870835398223884	-0.1268433758505709	-0.4117452530006656	0.2849018771500947	55.80202280561829
1	1.0	perception	333	diff_vonmises	-0.027263856806867	-1.562103928282503	13.198827677136473	0.7382292315633648	0.0359156065742835	3.1974213088089227	0.5317316182084788	-0.5164947824395183	1.048226400647997	37.08672767139666
2	1.0	wm	333	diff_vonmises	-0.0207660507018166	-1.1898070623687724	6.071348270569223	0.3586458779264568	3.1603766989915905e-18	2.853181858029343	-0.1094740623556011	-0.4540961602641225	0.3446220979085214	55.295723186164935
3	2.0	ltm	333	diff_vonmises	-0.0274732728416514	-1.574102583238016	2.737074683745811	0.9681290032704208	0.3740091668731932	2.15343209392043	0.1202987733325766	-0.2926570603978383	0.412955833730415	70.7510545026717
4	2.0	perception	333	diff_vonmises	-0.0295652194604261	-1.6939622954604692	7.057809210077244	1.2751018833280872	0.2879948499204	2.4852415647735304	0.8087926954671063	-0.4156248811783507	1.224417576645457	49.1204705827771
5	2.0	wm	333	diff_vonmises	0.0050834859022808	0.2912622874149472	3.8108843821472327	0.6942567375646341	0.19246180889944	2.0214398321249902	0.1333734077835867	-0.3081249464485928	0.4414983542321795	64.71286948836155
6	3.0	ltm	333	diff_vonmises	0.0260877822569899	1.4947198201817986	2.574549783763571	0.9416310711809877	0.3622341824259235	1.724614023426326	0.1828748497968141	-0.2231229139769627	0.4059977637737769	74.38749286919997
7	3.0	perception	333	diff_vonmises	-0.016592983042745	-0.9507078978814352	4.567154660413018	1.899079892138362	0.2982034064928648	2.6331805392794743	1.0165003278154066	-0.3966609809935639	1.4131613088089705	60.63075790610088
8	3.0	wm	333	diff_vonmises	-0.0526093571758625	-3.014294129073216	2.957824622330114	0.9314153295523204	0.3371449533006525	1.8781983917643108	0.1980036479646781	-0.2592325505948779	0.4572361985595561	70.43794159202051
9	4.0	ltm	333	diff_vonmises	-0.1677594730270019	-9.611909777785982	2.038641723250876	1.2821106170893148	0.3102484117700881	2.770467063103099	0.0819676784334019	-0.3467914542531988	0.4287591326866007	80.44920786154702
10	4.0	perception	333	diff_vonmises	-0.0658649867862749	-3.773785760538488	2.413416459627591	2.461959695961269	0.1780973426483814	4.028715300474551	0.6609945922400464	-0.5442037948427816	1.205198387082828	82.0192442683265
11	4.0	wm	333	diff_vonmises	-0.1302963944679154	-7.46543348878328	0.9961813873932672	340.30589134095067	0.9861686122937804	342.0121486281041	0.0664564824512154	-0.4073314619739889	0.4737879444252044	81.80254791071224
12	5.0	ltm	333	diff_vonmises	-0.021353686741739	-1.2234761273461106	1.7207019159759007	1.1890566831444485	2.765761519708958e-17	1.800309548630075	0.2733333561557231	-0.268601094629892	0.5419344507856152	104.02691363255312
13	5.0	perception	333	diff_vonmises	-0.0375576947503103	-2.151897397433429	2.079876748197095	2.4645633991943137	0.1781181678935348	2.910623618779937	0.7526307842767579	-0.3679336142477972	1.120564398524555	89.3340452912027
14	5.0	wm	333	diff_vonmises	0.0057849562229758	0.331453576244459	1.1806538369626849	2.574768298058958	0.3370753572539487	3.1808370600784337	0.2775117826240731	-0.2607790950703644	0.5382908776944376	104.06031065438717
15	6.0	ltm	333	diff_vonmises	-0.0752387075251375	-4.310860397209569	0.9368549348096816	1.3849128786374485	6.160151899122733e-19	1.7134803794478188	0.1839395204474624	-0.2025872341611438	0.3865267546086063	131.2175379038612
16	6.0	perception	333	diff_vonmises	-0.0348603364173533	-1.997350149120549	1.12516418593075	2.02788945467252	4.2772234798798753e-19	2.3960709481508684	0.359319102208729	-0.3033065816787293	0.6626256838874582	123.53664376975432
17	6.0	wm	333	diff_vonmises	-0.0697492299765872	-3.996336501945816	0.4905913511176717	133.48138678199422	0.4777637464689261	133.77671978749433	0.247570976689154	-0.2233406841872227	0.4709116608763768	127.07004455743711
18	7.0	ltm	333	diff_vonmises	0.0505308370990302	2.8952037010375165	0.8534113503787907	145.8925282450661	0.836465345276063	146.7666812808173	0.2002974119188252	-0.2709001706471685	0.4711975825659937	94.06035478593353
19	7.0	perception	333	diff_vonmises	-0.0022959932256949	-0.1315507216229507	0.81305597861511	217.8746307752204	0.7964570533396492	218.5993882164404	0.471033869235228	-0.3576751917295091	0.8287090609647372	100.17973302309376
20	7.0	wm	333	diff_vonmises	0.1064015141020516	6.096357691849272	0.7971499130649522	101.78723608728488	0.776756615667614	102.61556054043014	0.1485750069671816	-0.2435453582771174	0.392120365244299	96.66879235557944
0	1.0	ltm	91	diff_vonmises	-0.2712570543075882	-15.54188437497577	1.7099721590198522	0.4921477970314672	6.9966675905724446e-15	1.3311284209214749	0.018979230036319	-0.204303250447689	0.2232824804840081	104.15195366769944
1	1.0	perception	91	diff_vonmises	-0.0518697868327318	-2.971919869758783	14.122914606677949	0.79458162620159	4.404932018862441e-16	1.861367691673018	0.8841255898307814	-0.2962458690406733	1.180371458871455	36.05114658084887
2	1.0	wm	91	diff_vonmises	-0.1775404775660117	-10.172320057269546	0.0005308407187981	1667.8852216516077	8.3745080476256065e-22	1668.790788952622	-0.0031946279149792	-0.2850189961483238	0.2818243682333445	179.06965033599883
3	2.0	ltm	91	diff_vonmises	0.0143971249339478	0.8248944958377753	5.2340002074795375	0.3232543225767098	0.017912510575995	0.7623129013687044	0.1636946583668682	-0.1203600815519626	0.2840547399188309	59.25593474892602
4	2.0	perception	91	diff_vonmises	-0.0255208167676741	-1.4622350905144326	7.470419839296333	1.2988057126796382	0.4165593893228811	1.532562545587454	1.0361199272696502	-0.2603095194294513	1.2964294466991015	47.96828703740499
5	2.0	wm	91	diff_vonmises	0.0047839503568542	0.2741001648478534	4.787942779187773	0.404927839259076	0.1544809524891239	0.8306757185874682	0.1896998330087328	-0.1288643859925568	0.3185642190012896	60.00092610181835
6	3.0	ltm	91	diff_vonmises	0.0435103157767981	2.4929574592920125	2.668716389647049	0.5891050261266538	0.5699525240393517	0.7141969574322319	0.1750681337548528	-0.0801282028434547	0.2551963365983075	73.10758979202515
7	3.0	perception	91	diff_vonmises	-0.0146355398351118	-0.8385546634475027	4.266741451701128	1.8475966812364155	0.4864390961351271	1.7226693894112928	1.050576926176698	-0.2399177253618626	1.290494651538561	62.14637930658543
8	3.0	wm	91	diff_vonmises	-0.1304435621513982	-7.473865575927564	2.336941667770892	1.4292134632422535	1.087430124861701	1.5609144466127032	0.2502990980352215	-0.1113172052716218	0.3616163033068434	70.45272026818074
9	4.0	ltm	91	diff_vonmises	-0.1486312169503578	-8.515941435148804	1.5801475242290703	78.52090045544972	1.5520268569065023	79.07432168833519	0.1361112126647441	-0.1863831478893196	0.3224943605540638	68.12681733442366
10	4.0	perception	91	diff_vonmises	-0.1028340819782212	-5.891958887454397	2.7264140120826603	2.378957182556846	0.3042246865663613	2.96104658466808	0.8504943448019529	-0.3780092254367455	1.2285035702386984	76.52759055169761
11	4.0	wm	91	diff_vonmises	-0.1221506724620377	-6.998717996759654	1.3571372585719377	188.30240049691136	1.343864730466089	189.05476707298888	0.1452183030759641	-0.2287700520342284	0.3739883551101925	72.99038353999003
12	5.0	ltm	91	diff_vonmises	0.0210773676168498	1.2076442076912106	1.2098420803286436	1.2605209179665342	0.1996397052337374	1.5525166034102758	0.1814919607823967	-0.1576584175747833	0.3391503783571801	110.19823581132243
13	5.0	perception	91	diff_vonmises	-0.0040116508322644	-0.2298506615688991	2.315787308506932	1.969904583178541	0.1282632039181333	2.007879581440309	0.7478147047986938	-0.2700938897675398	1.0179085945662336	86.91606909784406
14	5.0	wm	91	diff_vonmises	0.082147311629867	4.706694254737325	0.6412938660550955	61.04895255223277	0.617364115515489	61.30570890970871	0.208189658800034	-0.1663335672885928	0.3745232260886268	113.858845074146
15	6.0	ltm	91	diff_vonmises	-0.1763751578007291	-10.105552152935678	0.4088485762571173	89.3233126829471	0.3963988772227023	89.60602480439398	0.1397976542480989	-0.165221175440454	0.305018829688553	134.1900469009429
16	6.0	perception	91	diff_vonmises	-0.0302822413250416	-1.7350446221215363	0.5599598480111578	209.4420919347977	0.5466649814459908	209.67551876557076	0.464667586304941	-0.3194008586779766	0.7840684449829176	121.92594901223124
17	6.0	wm	91	diff_vonmises	-0.1015711839337674	-5.819600159551871	0.9503819206575962	1.6927049851856235	6.135953521420048e-16	1.9452664002715785	0.2528933730323381	-0.2255310373679139	0.4784244104002521	130.59820398476154
18	7.0	ltm	91	diff_vonmises	0.2100097966377652	12.032675003744655	0.9731268817951064	108.35962557480607	0.956238104464157	108.86593829253545	0.1783654294942991	-0.1771202737252597	0.3554857032195588	89.35364132543867
19	7.0	perception	91	diff_vonmises	0.0124289535593546	0.7121265827151254	2.2912732323426988	1.4175047803784144	2.546316019719701e-14	1.8450426337123211	0.4997687932503349	-0.2855314752439734	0.7853002684943082	90.83972386528944
20	7.0	wm	91	diff_vonmises	0.1389282441068152	7.960002042483765	0.8948255974026016	3.4465709159738123	0.5124580694599352	3.916951967400341	0.1332984371755856	-0.1663502295301634	0.2996486667057491	104.76456985656344
0	1.0	ltm	189	diff_vonmises	-0.0563312496511773	-3.2275428597102547	3.9859088446988418	0.2607096544593415	4.096344651146849e-18	2.392698154040958	-0.1807533824728441	-0.3807407045131467	0.1999873220403025	68.58554208323781
1	1.0	perception	189	diff_vonmises	-0.0295479721379275	-1.6929740966733988	14.407806750110934	0.7012901428736278	0.0344905114495283	2.973298699693144	0.5625470956457643	-0.4805968122887925	1.0431439079345568	35.51396709879626
2	1.0	wm	189	diff_vonmises	0.0012325421139221	0.0706194611998703	6.22415063019324	0.2849217959529017	4.69933521375901e-15	2.613555552905274	-0.1385736475624908	-0.4159591967082754	0.2773855491457846	54.59872813615135
3	2.0	ltm	189	diff_vonmises	-0.0584372694998194	-3.348208908608224	4.4996446629085	0.4123073209064948	7.186418049513574e-15	1.8212833222087372	0.0479972338786351	-0.2898245112572226	0.3378217451358578	64.4516535271191
4	2.0	perception	189	diff_vonmises	-0.0326478490424829	-1.8705839603145016	8.117676700070062	1.1848594698389818	0.2132920347372283	2.7069178160939265	0.7974683067369873	-0.453933888580233	1.2514021953172203	46.25005064256263
5	2.0	wm	189	diff_vonmises	0.0071877128057016	0.4118256081188376	4.138311000444766	0.5174038723978515	0.0998486745672181	2.131436058064061	0.0312863885636157	-0.3321328313028205	0.3634192198664362	63.554110536866034
6	3.0	ltm	189	diff_vonmises	0.0349468148158457	2.0023049963732165	1.7797724680209364	2.108092761092404	0.7838062990613601	2.894543286078507	0.1432431922704777	-0.2264565655810531	0.3696997578515308	75.88621685023804
7	3.0	perception	189	diff_vonmises	-0.0222600716459831	-1.2754081569736666	4.221162400506968	2.1293681880896	0.3494707594981504	2.8981273656100397	1.0510744320690666	-0.4256486520119745	1.476723084081041	62.36584088065854
8	3.0	wm	189	diff_vonmises	-0.0837718894055331	-4.799775704773746	2.756628342033988	0.9452659599322092	0.4057910143162837	1.9583448349751644	0.1407495137301155	-0.2624310273364771	0.4031805410665927	70.45165063787303
9	4.0	ltm	189	diff_vonmises	-0.0790319259604078	-4.528195804321775	1.0193986942181974	143.7044943744135	1.000281444939249	145.24355800438732	-0.0067753738984066	-0.3481626301088241	0.3413872562104174	79.01299334335224
10	4.0	perception	189	diff_vonmises	-0.0904789583024351	-5.184062445469696	2.184152461674469	3.125954741891538	0.3876791156242349	4.716946301204954	0.6345941298030635	-0.5457738177035304	1.180367947506594	80.21987845330196
11	4.0	wm	189	diff_vonmises	-0.1497471651072377	-8.579880554693428	0.9967885899675086	271.8577042490556	0.9860843241082294	273.6141876874363	-0.0447037555610592	-0.3852117728271267	0.3405080172660675	78.54067162938878
12	5.0	ltm	189	diff_vonmises	0.0489389558713598	2.803995625205902	2.024188540661633	0.9503370810530078	0.0810910608500362	1.974020294007626	0.1536790196380495	-0.281092751254706	0.4347717708927556	91.3935174626536
13	5.0	perception	189	diff_vonmises	-0.0366518042306184	-2.0999936939541706	2.5369629048943656	2.071243738121804	0.0789767429101092	3.0123941206085734	0.7132364620800555	-0.4366398012335402	1.1498762633135955	83.55000180575462
14	5.0	wm	189	diff_vonmises	-0.0288824207574316	-1.6548408115218731	0.623478368093325	93.28602583915644	0.6002084078205555	94.46449539166764	0.0983080703937631	-0.3173688772052863	0.4156769475990494	107.47097239237984
15	6.0	ltm	189	diff_vonmises	-0.1627323806765347	-9.323878602881711	0.430356892026612	65.7784062819166	0.4087455137668019	66.70781675285453	0.0482739660760263	-0.2659277643967304	0.3142017304727567	127.71422369358596
16	6.0	perception	189	diff_vonmises	-0.0713251820446196	-4.086631904158984	0.8977617689506369	2.316600828632009	2.67109462455144e-10	3.2982857814345388	0.2216931003581648	-0.4009671485330121	0.6226602488911769	132.92211476498562
17	6.0	wm	189	diff_vonmises	-0.1342982150268394	-7.694720917178314	0.4584560919851328	158.62819837701718	0.4478920791147059	159.62469105769347	0.0745117941962121	-0.2931857998123348	0.3676975940085469	124.43722811154596
18	7.0	ltm	189	diff_vonmises	0.1004068878761982	5.752890909349434	0.8983706376398547	143.68235116008188	0.8815937922761009	144.7398826388823	0.1217289242186012	-0.2790372145855198	0.400766138804121	89.1650238483775
19	7.0	perception	189	diff_vonmises	-0.0263425830919048	-1.5093188326388305	0.7599918618612643	169.82619064685417	0.7394358200348566	170.7704198942935	0.3905818392371003	-0.3800202051096804	0.7706020443467807	102.3019106612782
20	7.0	wm	189	diff_vonmises	0.0934907442259666	5.356625067684962	1.0124982053423537	6.533199965927102	0.7131264995121437	7.608108038085894	0.0638977863185674	-0.2615824196789562	0.3254802059975237	89.08110718223406
0	1.0	ltm	310	diff_vonmises	0.0317571311552827	1.8195495846411185	4.9926696814056895	0.3791638028339074	0.0433782443635159	3.169730931417126	-0.1980738519607779	-0.5028274811975291	0.3047536292367511	58.66416198272074
1	1.0	perception	310	diff_vonmises	-0.0157580024803073	-0.9028670356782948	13.057718579251684	0.5834095908675636	0.0289369046045674	3.3825311080666207	0.2786434846708713	-0.5448614900056522	0.8235049746765235	37.26451408747681
2	1.0	wm	310	diff_vonmises	0.0331096337951307	1.897042277684712	3.223351390628889	0.7195178199688003	0.1596701571944012	3.698331916998773	-0.1953066782214715	-0.5674196412212769	0.3721129629998053	67.13455853011715
3	2.0	ltm	310	diff_vonmises	-0.0790049921242774	-4.526652609185408	2.517407865258204	1.1742667713097508	0.3491477358796789	2.8441116711384087	0.0721626272302163	-0.3833463729050186	0.455509000135235	72.60822171094881
4	2.0	perception	310	diff_vonmises	-0.0256529201240034	-1.4698040552916118	6.73765781300076	1.0977057121335927	0.1551348976109355	2.894032904271829	0.5790370378339273	-0.4697423552197681	1.0487793930536955	50.76122266914763
5	2.0	wm	310	diff_vonmises	0.0515786249363714	2.95523752194231	4.14954880851054	0.711582099852561	0.1842642678813101	2.5158226755480104	0.0807917300130445	-0.3918426294408577	0.4726343594539022	61.83918015036025
6	3.0	ltm	310	diff_vonmises	-0.036832956755544	-2.1103729690805504	1.1317181896919042	106.96207941879103	1.096478030438097	108.50948154906766	0.1476194737970999	-0.4040821138935975	0.5517015876906974	78.71920332504925
7	3.0	perception	310	diff_vonmises	-0.0331240336752614	-1.8978673300416928	4.060904200021699	1.993112641703565	0.1901167401578781	3.5647329657900126	0.8651078296270067	-0.5356269683354957	1.4007347979625024	64.55109791859726
8	3.0	wm	310	diff_vonmises	0.0206966972458276	1.1858334020459582	1.85514855945712	2.054959999059792	0.5014029845594863	3.80690409726134	0.0725811309393988	-0.4111674717555598	0.4837486026949587	77.62432825376615
9	4.0	ltm	310	diff_vonmises	-0.085383030839766	-4.892087309153943	1.157991954030242	4.333626740259272	0.5338531453757734	6.421394549394644	-0.0158306280451514	-0.455473202176749	0.4396425741315976	87.83932026816677
10	4.0	perception	310	diff_vonmises	-0.1102936816887371	-6.319362467723968	1.552471180139133	5.039871673962227	0.4663924739348782	6.97977767049258	0.5505450995897903	-0.6202404380866864	1.1707855376764766	88.43419263082814
11	4.0	wm	310	diff_vonmises	-0.1363322492090429	-7.811262491203916	0.8783169473694423	277.1882276918917	0.8656288730737527	279.4353159424498	-0.0398379907360038	-0.4877143332824474	0.4478763425464436	84.47064761909263
12	5.0	ltm	310	diff_vonmises	-0.0016233083975928	-0.0930087200302177	1.2298401360858784	2.71310529375611	0.2660191183659973	4.179348992129758	0.1908321723430239	-0.414213612639666	0.60504578498269	102.1318750216389
13	5.0	perception	310	diff_vonmises	-0.0702587859434233	-4.025531908271231	1.8273039901776449	3.229093359343133	0.2990279317599812	4.660809690608379	0.5987200049993178	-0.5229978119255968	1.121717816924915	88.78154548402102
14	5.0	wm	310	diff_vonmises	-0.0340745149900703	-1.952325897886287	0.7111645567556308	250.68362826891112	0.6990803797527712	252.16080518504748	0.1574361143311051	-0.3982404019532559	0.5556765162843611	100.48182855025271
15	6.0	ltm	310	diff_vonmises	-0.0749963325228883	-4.296973332521213	1.1458468138692166	1.4134688053630893	1.25852782266948e-14	2.772856704736122	0.0803820398803215	-0.3885713295732341	0.4689533694535556	122.71232097495609
16	6.0	perception	310	diff_vonmises	-0.1018845026824057	-5.837552001491164	1.300900468864121	1.856524243329408	3.310561344445885e-17	3.220351694084602	0.2256687687776581	-0.4578039458309137	0.683472714608572	117.00016251691903
17	6.0	wm	310	diff_vonmises	-0.1393491192869269	-7.984116414005972	0.6015528759322528	216.792722175584	0.5904523358056534	218.0797632319908	0.1158482211996272	-0.3541069994576666	0.4699552206572939	109.21024376207322
18	7.0	ltm	310	diff_vonmises	-0.0888348288390706	-5.089860766245798	0.7498365635430926	254.90264026061752	0.7356897527513305	256.8844623007357	0.1108624461233063	-0.4855874508792794	0.5964498970025858	95.96927208734516
19	7.0	perception	310	diff_vonmises	-0.0754611601292413	-4.323605992566411	0.8482700217059961	243.7982406511218	0.8256916485933323	245.6167281682972	0.48956037041944	-0.5943007101439015	1.0838610805633415	95.1326476337693
20	7.0	wm	310	diff_vonmises	0.1374239332858019	7.873811381363841	2.590314923293708	1.2065253943826229	0.2135889206825838	3.022153545972351	0.1372273771138878	-0.4236548019492505	0.5608821790631384	75.9502007368879
0	1.0	ltm	68	diff_vonmises	-0.0681028443965087	-3.90200555675612	5.180257548526026	0.2887876377567726	1.385517231155967e-21	1.7712121391807132	-0.0267152439979413	-0.2818890885062397	0.2551738445082984	59.9614663919532
1	1.0	perception	68	diff_vonmises	-0.0403248013103677	-2.310440924787681	13.448759865251173	0.7511484824315463	0.0339697475336547	2.460602120804476	0.6831249454127022	-0.3969409499414492	1.080065895354151	36.79393768962646
2	1.0	wm	68	diff_vonmises	-0.0130639342190125	-0.7485082945859556	6.341182511798658	0.3445136483328498	2.071254546083344e-18	1.972659977904347	0.0247170514513299	-0.3139575346680422	0.3386745861193722	54.08484787338321
3	2.0	ltm	68	diff_vonmises	-0.0274979926293619	-1.575518922744282	2.8173921550549696	0.9368580762221542	0.5386230618478075	1.667761172165443	0.1682985974764881	-0.2140853806586827	0.3823839781351709	68.55898589248824
4	2.0	perception	68	diff_vonmises	-0.027533207426164	-1.5775365819774587	7.164854487297394	1.27474846827438	0.3904703925462172	1.957500656650504	0.8922071643123621	-0.3325824652149353	1.2247896295272975	48.60071588957598
5	2.0	wm	68	diff_vonmises	0.0106771891331377	0.6117578743917362	4.177948958786586	0.564377577179279	0.2359840095486919	1.3741392416033558	0.1711964106521994	-0.210712476572576	0.3819088872247755	62.08699847720894
6	3.0	ltm	68	diff_vonmises	0.0457310219625656	2.620194551275087	1.954683141340892	1.7298691690962036	0.9381065944676036	2.096390724005313	0.1883485365046443	-0.1463122597604456	0.3346607962650899	74.01719577534186
7	3.0	perception	68	diff_vonmises	-0.0174896586143646	-1.0020836237277175	4.731132496806277	1.7505356414511062	0.416843276965736	2.04571373140343	1.0005827993013108	-0.3057547242644872	1.306337523565798	59.15703117695168
8	3.0	wm	68	diff_vonmises	-0.0618728872618855	-3.545055306394794	2.5234685420303435	1.1455834843104673	0.7244471835055337	1.6283517396561122	0.207881042148172	-0.1753040916835578	0.3831851338317298	70.18297405427009
9	4.0	ltm	68	diff_vonmises	-0.1870554473086176	-10.717487665715543	1.2643674308301651	71.81804237970455	1.228195388324333	72.66869457795407	0.1494998727055581	-0.2487717493109578	0.3982716220165159	75.88496053591697
10	4.0	perception	68	diff_vonmises	-0.0807163372392996	-4.62470546156651	2.807322708339409	2.0380824923156013	0.147569497629593	3.058403096866138	0.7238400706712012	-0.4311675936801078	1.155007664351309	77.81583941369138
11	4.0	wm	68	diff_vonmises	-0.1464594848675602	-8.391510352571348	1.2257895881202103	249.9800533999306	1.2137716598727524	251.04826897642016	0.1455478697798184	-0.2979279834947377	0.4434758532745562	75.99110812441486
12	5.0	ltm	68	diff_vonmises	0.0027059814635706	0.1550413173032316	1.7617197766280404	1.0524109892080098	3.577541573224909e-18	1.316980285353316	0.2930799630585465	-0.1947756617568591	0.4878556248154057	102.92318896532646
13	5.0	perception	68	diff_vonmises	-0.0378576453112698	-2.16908329863899	2.346217024040053	2.014474609061026	0.1151219319561315	2.085948148608775	0.7723025098903333	-0.2851468390194365	1.0574493489097698	86.64995441187762
14	5.0	wm	68	diff_vonmises	0.0357795499587671	2.0500172055148367	1.2051397552695056	2.3350379935789163	0.4067225438584743	2.5540477999848807	0.301500857172858	-0.1807010720822616	0.4822019292551196	103.03793898514124
15	6.0	ltm	68	diff_vonmises	-0.0918793399579772	-5.264298404039797	0.4634603353887708	78.5638732093526	0.4478543161210968	78.6393322126161	0.2095573558495722	-0.1509511446083884	0.3605085004579607	130.97937868085344
16	6.0	perception	68	diff_vonmises	-0.0386997646167098	-2.2173331806871905	1.2310533195619964	1.8632000161164357	1.0842528372980233e-22	1.9789235525829345	0.4021090702441056	-0.2538209309769266	0.6559300012210323	119.54278801988184
17	6.0	wm	68	diff_vonmises	-0.0976859473026816	-5.596992498181028	0.5300698422189607	63.79845129848698	0.5061415214992149	63.79219460249105	0.2876353311074755	-0.1688796099084015	0.4565149410158771	126.07116160935924
18	7.0	ltm	68	diff_vonmises	0.0992948425137196	5.689175403452312	0.9452598279925114	111.03346451256748	0.9260586718599984	111.52421507255792	0.2444272576215027	-0.2000361369111001	0.4444633945326028	91.98639520869315
19	7.0	perception	68	diff_vonmises	-0.0418482235506135	-2.3977265895701336	1.2779538234080885	4.453189948392571	0.5639079649223315	4.8197959959190415	0.505008775444443	-0.2791757869593326	0.7841845624037755	96.04315743476008
20	7.0	wm	68	diff_vonmises	0.1534406910640028	8.791504003538089	1.438861542980093	1.361535319109687	0.3259410873861344	1.7795451362737904	0.1929526505421359	-0.1697512902562842	0.3627039407984201	96.99456327630764
0	1.0	ltm	143	diff_vonmises	0.0226295225924573	1.296576136943751	4.761503252958586	0.3369167757314231	0.0142917425841942	2.6155343093211982	-0.1376407592187222	-0.4141718488035148	0.2765310895847925	61.57854943741407
1	1.0	perception	143	diff_vonmises	-0.0018338893471786	-0.1050741196873359	11.171402227117742	0.6835658790831152	0.0372521565614216	3.0940070890432665	0.389875409550078	-0.4986631761036724	0.8885385856537504	40.2549520842563
2	1.0	wm	143	diff_vonmises	0.0824317389050452	4.722990737183442	3.856200992869253	0.5178902703713582	0.0454545922065171	2.868421039933694	-0.0872381179164685	-0.4486112553683143	0.3613731374518458	66.91788789872109
3	2.0	ltm	143	diff_vonmises	-0.0145794399531481	-0.8353403769797983	2.51358760038866	1.1825099285058025	0.5127989659368895	2.332377604376968	0.1180696422117337	-0.2934962488454651	0.4115658910571989	70.44316849205254
4	2.0	perception	143	diff_vonmises	-0.0040464532321456	-0.2318446921990192	6.333315094230326	1.2627589717497854	0.2744621647217368	2.3641328241408983	0.7546637037792918	-0.3864697857659506	1.1411334895452423	51.79699868410205
5	2.0	wm	143	diff_vonmises	0.0752729990079151	4.312825154445972	4.345499932765119	0.6355263346151759	0.2249179400263877	1.8214383946554995	0.1526280413799738	-0.2836300743040486	0.4362581156840224	60.63869105494413
6	3.0	ltm	143	diff_vonmises	0.0114503113327135	0.6560545134753015	2.4256092069251287	1.030059073077662	0.423522798008711	1.8944379419007649	0.1558227518730028	-0.2357610186471908	0.3915837705201936	74.36818033475677
7	3.0	perception	143	diff_vonmises	-0.0070292794107535	-0.4027480432543858	4.609671085587344	1.6030058765398518	0.1576511987399688	2.4471456397476663	0.8775548433792482	-0.3738113855326743	1.2513662289119225	61.574064075883285
8	3.0	wm	143	diff_vonmises	0.0058990793863572	0.3379923518508957	2.680334380966876	0.9714032448163582	0.3775463687129994	1.9312160269510688	0.1634702120915235	-0.2558372789607986	0.4193074910523221	72.21668536125935
9	4.0	ltm	143	diff_vonmises	-0.13822373660769	-7.919636736148575	1.8090038925860088	1.4664076150053988	0.4219486494195733	2.982083355820984	0.0192318221048386	-0.3382155799055237	0.3574474020103624	79.44783194024481
10	4.0	perception	143	diff_vonmises	-0.089387841893349	-5.121546080271592	2.0246832196710374	2.995824658319297	0.2805478290841849	4.457888494069526	0.6359351161965047	-0.530598871471643	1.1665339876681475	85.67629769470983
11	4.0	wm	143	diff_vonmises	-0.0838631457828308	-4.805004310046557	1.021264591940748	301.77984224542	1.0101112342113214	303.47113529845774	0.0546688214824371	-0.4017303820208013	0.4563992035032385	80.48725294271446
12	5.0	ltm	143	diff_vonmises	-0.0299263059695805	-1.714651028474125	1.2916032208344996	1.7213436281212204	0.1360924291198959	2.637490007312421	0.2027872197861109	-0.3131901724196663	0.5159773922057773	108.86146664405408
13	5.0	perception	143	diff_vonmises	-0.0556173103645455	-3.1866371517576693	1.68334470865776	3.5284875009233074	0.3937005909975306	4.314391978059545	0.6597141478849414	-0.4115778176616326	1.071291965546574	90.51653691592536
14	5.0	wm	143	diff_vonmises	0.0638014999511913	3.6555566738073937	0.7068395587433457	197.2748622884739	0.6941463001780181	198.12155537266187	0.237286674247187	-0.2972536888166246	0.5345403630638117	104.42671797561698
15	6.0	ltm	143	diff_vonmises	-0.0547230248824384	-3.1353983679531106	0.4805778220375967	175.40015435328888	0.4695813975100861	176.15145335561027	0.1779207550567889	-0.293084734526051	0.4710054895828399	125.11390988530124
16	6.0	perception	143	diff_vonmises	-0.0871782585765544	-4.994946281736739	0.6286232242976242	197.74105893337745	0.6122452432825586	198.490708036243	0.4133067711697507	-0.3860338284448392	0.7993405996145899	113.5535782202334
17	6.0	wm	143	diff_vonmises	-0.0683818709451536	-3.917992600365576	0.6063859047581522	131.36147510727167	0.5882971233578393	132.0337564026299	0.2725800510794443	-0.2998538033283324	0.5724338544077767	114.64787468457564
18	7.0	ltm	143	diff_vonmises	0.0026567721222765	0.1522218297344632	0.8806563816438061	9.533076607524093	0.5849813287140991	11.146036983028232	0.1131639737136427	-0.4060046987601167	0.5191686724737594	97.59918340183856
19	7.0	perception	143	diff_vonmises	-0.0374340340585118	-2.1448121617017115	1.9976167479598832	2.821754712197052	0.2415868892024455	4.264363617434381	0.6029569748998164	-0.5201118691197496	1.123068844019566	87.22616687921081
20	7.0	wm	143	diff_vonmises	0.1969326271031279	11.28340838143288	2.6718512294984094	0.8715761572162478	0.027247805735539	2.30990044255325	0.1562883082799938	-0.3553419797847102	0.511630288064704	82.38821123087462
0	1.0	ltm	22	diff_vonmises	-0.0258431664755502	-1.4807043683030088	2.561427647779777	0.394638273403921	1.5443714797025628e-20	2.726048828005713	-0.1979666219665092	-0.4324581830646503	0.234491561098141	85.94862316263334
1	1.0	perception	22	diff_vonmises	-0.0146576499753298	-0.8398214811664338	12.59397601308386	0.7207128367797839	0.0095904344065927	3.167120820874515	0.5008891805150322	-0.5054819123840227	1.0063710928990548	38.11999222741636
2	1.0	wm	22	diff_vonmises	0.0634531189529196	3.635595912943868	3.9805479237579178	0.4187553374477414	3.19529539784368e-16	2.8246157465790223	-0.1284702492197229	-0.4494395566152195	0.3209693073954965	68.6349591066313
3	2.0	ltm	22	diff_vonmises	-0.0230104055981619	-1.318399125658885	3.5625211074169347	0.5819572274606252	0.1200634920475402	2.008250010575207	0.0606950365673062	-0.3066271084878705	0.3673221450551767	67.86491565203661
4	2.0	perception	22	diff_vonmises	-0.0182960285466174	-1.0482852175720516	6.911096751206834	1.280962131018145	0.1807847355442278	2.6580418740406446	0.8145339193043823	-0.4326057967192085	1.2471397160235909	50.24081507375635
5	2.0	wm	22	diff_vonmises	0.0498119403660212	2.8540139523303587	4.346478477232494	0.5730670815396199	0.105275228319186	2.063403215715959	0.0970866181156558	-0.3218223622091447	0.4189089803248005	62.3671633960019
6	3.0	ltm	22	diff_vonmises	0.0121541266319316	0.69638015967724	2.7549741758306503	0.7034801610977925	0.1449765452191267	1.569342286712715	0.1515118226919218	-0.2256775524869712	0.377189375178893	76.94967821897225
7	3.0	perception	22	diff_vonmises	-0.0093146997474451	-0.5336929829601832	3.995748729018408	1.9727806538293449	0.1946975703390029	2.766936186295859	0.9857173228683106	-0.4092366354956618	1.3949539583639723	65.5784901857966
8	3.0	wm	22	diff_vonmises	-0.0752854717657601	-4.3135397908293776	2.8537284374591563	0.900831585197304	0.2678734528059251	1.8447483408457872	0.1963440832894578	-0.2559916685627034	0.4523357518521612	72.93684791413858
9	4.0	ltm	22	diff_vonmises	-0.0912814654734234	-5.230042719396305	2.464179376386052	0.7748029625405842	0.2283919869591088	2.49641636926129	-0.0400410011061707	-0.3537307346382668	0.3136897335320961	74.63310377847509
10	4.0	perception	22	diff_vonmises	-0.0961747594648474	-5.510407813021628	1.7531375936274571	4.460932336797979	0.4630723139883734	6.126957375496517	0.6547473104135846	-0.5875005444020681	1.2422478548156528	85.53269099602036
11	4.0	wm	22	diff_vonmises	-0.0843232645370018	-4.831367172735369	0.9371122372921938	262.8186402364546	0.9255648622461636	264.7129330053976	-0.0435212702748799	-0.4117756951988909	0.3682544249240109	81.28323801486209
12	5.0	ltm	22	diff_vonmises	-0.0242437478904141	-1.3890644336999216	1.521233459859045	1.0596515436487783	0.0079049505326663	2.141287585522515	0.1194065458019605	-0.3160180525791061	0.4354245983810667	109.21489016465736
13	5.0	perception	22	diff_vonmises	-0.0377963451929947	-2.1655710605781766	1.9457237475951643	2.858569720829811	0.2417051130433818	3.781090551686301	0.6950881769436293	-0.4485416303171767	1.143629807260806	89.25239749099816
14	5.0	wm	22	diff_vonmises	0.0290150300193508	1.6624387625541914	0.6060277022335478	178.42293420989705	0.5933422922276927	179.5520407090446	0.1299461987436601	-0.3249542572311252	0.4549004559747853	109.68832825297306
15	6.0	ltm	22	diff_vonmises	-0.0948914759007654	-5.436881080881221	0.4103067477085462	157.00459881656877	0.4006554834835946	158.04757824813424	0.0401656324571959	-0.2918985480196596	0.3320641804768556	129.07961525182054
16	6.0	perception	22	diff_vonmises	-0.087625461570518	-5.020569125876469	0.4467372019104638	222.75821682819733	0.4337065052069748	223.74311291748776	0.3060489659319643	-0.4414856098741069	0.7475345758060712	129.48887076459687
17	6.0	wm	22	diff_vonmises	-0.0642300153487127	-3.68010879754174	0.503266737955926	176.74852251355532	0.4917234079779694	177.81514804766985	0.1196472742376073	-0.3284257062458948	0.4480729804835022	120.4582350438648
18	7.0	ltm	22	diff_vonmises	0.1089947129689512	6.244937042360724	0.7659488324572388	66.99334655151053	0.7279956890825795	68.49831057594868	0.0490540049721026	-0.3540485966652449	0.4031026016373475	94.63744031065464
19	7.0	perception	22	diff_vonmises	0.0298208217740495	1.7086072292648664	0.8490128800153084	203.2820680660141	0.8259603488316389	204.63172905559892	0.477934420936684	-0.4880918208957006	0.9660262418323846	96.12512708268486
20	7.0	wm	22	diff_vonmises	0.0872922706771952	5.001478693916882	1.3811469155610585	1.8327716500868567	0.3413476619841985	3.317515850534257	0.033665498780399	-0.3382559950325233	0.3719214938129224	91.14170014845246
0	1.0	ltm	431	diff_vonmises	-0.1717160970041244	-9.838607632795371	2.055132168998908	0.4894739849480875	7.622917709582747e-21	1.7866264645787149	-0.0276604444048875	-0.2801397663432602	0.2524793219383727	95.73156405865224
1	1.0	perception	431	diff_vonmises	-0.0880793041648048	-5.046572391092375	18.723172439795697	0.6154988979734476	1.9274757992210893e-18	2.1579251941627957	0.711774995932798	-0.3434444614735468	1.055219457406345	31.283859669243867
2	1.0	wm	431	diff_vonmises	-0.0694007198953063	-3.976368345170657	4.140795352428489	0.3864207287550049	1.5585091920694774e-22	1.8687432932131287	0.0053343269665116	-0.2973430950186942	0.3026774219852059	67.25581183658116
3	2.0	ltm	431	diff_vonmises	-0.0296875370517664	-1.7009705772044728	3.366137334184325	0.6431647582415887	0.1672544138348201	1.58571614286888	0.1532823268175939	-0.2354389492942194	0.3887212761118134	69.54456270646614
4	2.0	perception	431	diff_vonmises	-0.0489597488725511	-2.8051869764175685	7.124298125479683	1.149568808064279	0.1826980795389942	2.176135742681005	0.7886710802239069	-0.3546926150359491	1.143363695259856	49.61362199213923
5	2.0	wm	431	diff_vonmises	-0.083620966972185	-4.791128486309052	3.4347602759038613	0.6193655060803581	0.1799273821769151	1.6990656560122213	0.116693547429716	-0.2541267017161609	0.3708202491458769	68.18522923007939
6	3.0	ltm	431	diff_vonmises	-0.0033164841789582	-0.1900205462762197	1.238870409853495	126.35262626067032	1.2150034322164325	127.1881313427846	0.2356876925441895	-0.2716864311269713	0.5073741236711609	78.0604956430698
7	3.0	perception	431	diff_vonmises	-0.0540290877873008	-3.095638701154156	4.005439994457583	2.497269331214751	0.3438860174308615	3.4099433220342674	1.1781498805617772	-0.4935227620369282	1.6716726425987054	63.873744357183
8	3.0	wm	431	diff_vonmises	-0.1400787598020953	-8.025921736086875	1.2167923830110938	64.80152260820793	1.1677251521961185	65.87808735973181	0.1862728629340253	-0.3109999154668665	0.4972727784008919	77.63799611280274
9	4.0	ltm	431	diff_vonmises	-0.1840830405831924	-10.547181305352378	2.3424622313679238	1.3839406675672687	0.4829345720858916	2.5889126351685947	0.1543044520893854	-0.3137838553875393	0.4680883074769247	73.42475071568242
10	4.0	perception	431	diff_vonmises	-0.0928873167950463	-5.322051222650804	2.2478530557362437	2.791253813057513	0.1954895499400612	4.222039233281589	0.7353345989481523	-0.5505817909936874	1.2859163899418398	84.48783831795572
11	4.0	wm	431	diff_vonmises	-0.1852455055667119	-10.613785642739792	1.1329695365879078	318.224963249147	1.121664871408026	319.7528660903889	0.1141635659443522	-0.3902494946208534	0.5044130605652057	77.6468978005743
12	5.0	ltm	431	diff_vonmises	0.0242586909220473	1.3899206063456366	1.555065152450217	1.510400155816209	0.2139434215863906	1.9056463691799868	0.2972949420464037	-0.2125069959191394	0.5098019379655432	99.21353015828856
13	5.0	perception	431	diff_vonmises	-0.0158835795643126	-0.9100620725953582	1.7859534181152523	2.5540553483475272	0.2267776396660732	2.9001093187075737	0.6584496286458651	-0.3306867186292631	0.9891363472751282	94.18471136927576
14	5.0	wm	431	diff_vonmises	-0.053459668719115	-3.0630133917728424	1.1417404791790342	2.218800030692485	0.3175476323504513	2.757341980091911	0.2293011250796898	-0.2283365998972415	0.4576377249769313	106.03412769417716
15	6.0	ltm	431	diff_vonmises	-0.2132054939263374	-12.21577497098124	0.6496868896444566	1.6205179873045623	1.385138579084854e-15	1.992490121522715	0.1284948535146027	-0.1955947008996743	0.324089554414277	143.98515814075506
16	6.0	perception	431	diff_vonmises	0.0212352774931097	1.2166917771443375	0.674142373198609	40.82317457086679	0.6157827010390248	41.30926627289558	0.3220711492885986	-0.2730153646990638	0.5950865139876624	111.99604865529663
17	6.0	wm	431	diff_vonmises	-0.0533349925729614	-3.055869974792281	0.4020854381993753	115.0136988318688	0.3899681744517405	115.45610590449078	0.1553042551299377	-0.2173885947134621	0.3726928498433999	134.51103038940812
18	7.0	ltm	431	diff_vonmises	-0.0260553450221496	-1.4928613035263751	1.116606361054147	169.33922663375168	1.0992686823548117	170.15245177668749	0.2560181156932586	-0.2710553622869405	0.5270734779801991	82.7595161596889
19	7.0	perception	431	diff_vonmises	0.0677342441665282	3.880886319250688	1.34567581182049	2.164593868059228	5.1749442405745925e-18	3.072937829402471	0.3891747193188951	-0.4295371266279209	0.818711845946816	115.4658781348082
20	7.0	wm	431	diff_vonmises	-0.0325981388354999	-1.8677357752556527	0.7159663466330561	52.93279891801436	0.6836424720884671	53.805288018149376	0.0805551638082686	-0.2300219557342986	0.3105771195425673	100.423814109492
0	1.0	ltm	362	diff_vonmises	-0.0128422065810789	-0.7358042367309525	6.672936587680184	0.3562651121702506	0.0284400719152063	3.781315245225612	-0.2593545477917641	-0.6035795964991454	0.3442250487073812	51.41443666170184
1	1.0	perception	362	diff_vonmises	-0.0124528867422001	-0.713497853082488	13.843459558644302	0.7189538139807407	0.0591032584412484	4.133331089186025	0.3597366074155407	-0.6770386560855923	1.036775263501133	36.019069058352045
2	1.0	wm	362	diff_vonmises	0.0006799733098399	0.0389596008353697	3.955379154451213	0.543912214532303	0.0747836178873542	4.263763599633907	-0.3146359817569625	-0.6709653192535064	0.3563293374965439	63.657737196138896
3	2.0	ltm	362	diff_vonmises	-0.0634527205689435	-3.635573087223413	3.0609239874249887	0.7042092743571676	0.1135503792776168	2.391778747375294	0.0414404045414545	-0.3592229261890881	0.4006633307305426	72.77337832827226
4	2.0	perception	362	diff_vonmises	-0.0403861010103657	-2.3139531388829853	7.468087646702356	1.1694430181044737	0.2176314643497343	2.9446139885872125	0.676237020109543	-0.4911019192202229	1.167338939329766	47.93971498064687
5	2.0	wm	362	diff_vonmises	0.0005234175212494	0.0299896148907897	3.561939472566228	0.8782422469876475	0.1991690775863852	2.8284334046829125	0.0895375703211991	-0.4290134557188664	0.5185510260400655	65.92371169643414
6	3.0	ltm	362	diff_vonmises	-0.0413703754271334	-2.370347908846479	2.441897050090548	1.1543738226610591	0.3129782565814024	2.398463436005082	0.1615043721260306	-0.3153462733526026	0.4768506454786332	76.006996608663
7	3.0	perception	362	diff_vonmises	-0.0267668162615398	-1.5336256027883763	3.878127122577025	2.214136142745064	0.3041073676332567	3.387366531084852	0.959457134327286	-0.4928890109932741	1.4523461453205602	64.85183381762627
8	3.0	wm	362	diff_vonmises	-0.0641236556144555	-3.674014833658671	2.728444314217979	1.1304089539958766	0.2890509395011429	2.6074632975316754	0.1583735245149841	-0.3607532146280304	0.5191267391430145	72.79371470171483
9	4.0	ltm	362	diff_vonmises	-0.1065420196530432	-6.104408066919247	1.5655195110819224	1.8722771712878064	0.271403638890537	3.869892661854697	0.0390111235852796	-0.4495336412181754	0.4885447648034551	89.68587192703859
10	4.0	perception	362	diff_vonmises	-0.0797449096610911	-4.5690467612325465	1.9499848063789331	3.8043800120525577	0.391609286259243	5.547318126377252	0.6752567927134112	-0.602572081657665	1.2778288743710762	83.79988703304755
11	4.0	wm	362	diff_vonmises	-0.136118501819779	-7.799015667917157	0.8195202600401029	355.3727615610325	0.8096639914452163	357.55644667547887	0.0017198387018027	-0.4855769585928229	0.4872967972946256	88.72179136646547
12	5.0	ltm	362	diff_vonmises	-0.0217414935631915	-1.245695821481722	0.7023067817709056	20.856024628272028	0.5642957201884204	22.344257605353437	0.1609802509000921	-0.4152038462103351	0.5761840971104273	106.47976223300776
13	5.0	perception	362	diff_vonmises	-0.0205823602471237	-1.179282374578032	1.870182489368668	3.0824266649717647	0.2402214353609073	4.501738622973879	0.6287756586884311	-0.5348750923975769	1.163650751086008	89.87890584404275
14	5.0	wm	362	diff_vonmises	-0.0640131988311759	-3.6676861261581535	0.6361802770388948	288.6652777163619	0.6256721373135864	290.22214139563266	0.1546754767217351	-0.4276714374776169	0.582346914199352	106.29507684873684
15	6.0	ltm	362	diff_vonmises	-0.087275894035626	-5.000540381472367	0.9701353084665486	1.70622347454764	5.244265907049706e-18	3.0126120035230324	0.0939108929200583	-0.397096987421023	0.4910078803410814	129.77982442425036
16	6.0	perception	362	diff_vonmises	-0.0161604224601791	-0.925924002116688	1.0161478167353934	2.6469142573465554	7.600158871518585e-12	3.969803490470748	0.2807436427790849	-0.512237250690782	0.7929808934698669	127.91290060845633
17	6.0	wm	362	diff_vonmises	-0.144681300572255	-8.289627897253915	0.4609385939721711	237.72458155492677	0.4503314196795781	239.0725664232309	0.1476328024514046	-0.4255100127789468	0.5731428152303515	125.07066676296252
18	7.0	ltm	362	diff_vonmises	0.0327424113106317	1.8760019791806115	0.6832785604801827	230.5869837470844	0.6712676965682581	232.14167609175496	0.0933945067789778	-0.3899830650316502	0.4833775718106281	100.94357691013032
19	7.0	perception	362	diff_vonmises	0.0143070916942398	0.8197359711866173	0.7596008738115099	247.60381344464847	0.7428094720330513	248.9753737287895	0.3922142674783515	-0.4726515799203596	0.8648658473987112	100.81693248093356
20	7.0	wm	362	diff_vonmises	0.1267498398250582	7.26223087593504	0.8655577421280941	162.72123555833997	0.8470181078396036	164.2631633668065	0.0935012384945324	-0.3764037581594799	0.4699049966540123	89.22210842853096
0	1.0	ltm	408	diff_vonmises	-8.515729224026813e-05	-0.0048791534401295	6.404572086904338	0.4328038336718334	0.0529712337440765	3.807608041534265	-0.2107987544514324	-0.6104497225637541	0.3996509681123216	51.85446940199219
1	1.0	perception	408	diff_vonmises	0.0045641959144312	0.2615091627677613	10.977277664977388	0.8379859733657924	0.0721463058495299	4.232459213183932	0.3712608712041109	-0.6929264350326761	1.064187306236787	40.29986721446792
2	1.0	wm	408	diff_vonmises	0.0024620392546175	0.1410644582851233	4.502919105529681	0.6275598825077402	0.1062582268432215	4.220101092687488	-0.2303552811432037	-0.6702717215182953	0.4399164403750916	59.50765852606207
3	2.0	ltm	408	diff_vonmises	-0.0783844273611846	-4.491096867345653	2.257751601062383	1.560847680131252	0.4714031738697785	3.133270582848928	0.1095888697130776	-0.3819413700294062	0.4915302397424839	73.57424797845172
4	2.0	perception	408	diff_vonmises	-0.0376587316189953	-2.1576863835843	6.803108124810183	1.2410361123305118	0.2032403782479863	2.862154810568273	0.7132874573821658	-0.4689131227098035	1.1822005800919693	50.30375173575422
5	2.0	wm	408	diff_vonmises	0.0145426118115585	0.8332302798994032	3.746387057711313	0.8358356739997376	0.1959250921411919	2.4815350848740345	0.1441078445599379	-0.377643926382811	0.5217517709427489	65.01807569540031
6	3.0	ltm	408	diff_vonmises	-0.0373656620321035	-2.140894733151755	2.3737504505036235	0.9928264528393485	0.1805346746273011	2.026761021600316	0.1842524286582142	-0.2773374468089979	0.4615898754672122	81.21873995743115
7	3.0	perception	408	diff_vonmises	-0.0146065722700662	-0.8368949442276188	4.204693934759435	1.8232847089899733	0.2165746317452012	2.790538849332064	0.895304462707568	-0.4174954954401259	1.312799958147694	63.58024413676876
8	3.0	wm	408	diff_vonmises	-0.0396022304714107	-2.2690406653162216	2.481287708688153	1.2008029527874065	0.3402740403620938	2.2821357160146767	0.2085963718138078	-0.2951445124169247	0.5037408842307325	75.61847636550783
9	4.0	ltm	408	diff_vonmises	-0.144916366480632	-8.303096181711329	2.071800473019324	1.146772522054646	0.0812203926304171	3.0754866700041887	0.0742942895423828	-0.4438151455928764	0.5181094351352592	89.14563490154917
10	4.0	perception	408	diff_vonmises	-0.0794596935991165	-4.552705084632061	2.006093700511779	3.228165996248246	0.2766865403283856	5.066566491395217	0.6249977737639341	-0.6077188909545329	1.2327166647184669	85.61081145268051
11	4.0	wm	408	diff_vonmises	-0.1293797976635442	-7.412916360377635	0.8510899659302246	316.2434874752868	0.8401019422713645	318.2528027075136	0.0376139975979015	-0.4600491756658726	0.4976631732637742	87.97212399910185
12	5.0	ltm	408	diff_vonmises	-0.0606143257171973	-3.472945041626695	1.37948856758889	1.683028884355101	2.1529190801737013e-19	2.64580656820422	0.2719661512265601	-0.3771792240237278	0.649145375250288	114.34280281918952
13	5.0	perception	408	diff_vonmises	-0.0532500777451461	-3.0510047135403826	2.039705128816508	2.8291339827674773	0.1992058438909779	3.6024617781865587	0.784093896137639	-0.4477915890030826	1.2318854851407215	89.04220750685087
14	5.0	wm	408	diff_vonmises	-0.0234775807945094	-1.345166292702791	0.7398294733164685	247.29326222569028	0.7285370927693638	248.12887009447303	0.2905604928284617	-0.3139402246385394	0.6045007174670012	102.75416190251968
15	6.0	ltm	408	diff_vonmises	-0.001810061918927	-0.1037089086118698	0.9620513618297176	1.5285277471110377	5.804718538668615e-15	2.0492368228905544	0.1851767653796555	-0.2514893568889582	0.4366661222686138	130.18180582887527
16	6.0	perception	408	diff_vonmises	-0.0734685830469668	-4.209439735397587	0.8017152981320618	2.815749752525457	1.792561929639985e-17	3.316936698993474	0.3279978185035878	-0.3556926557240217	0.6836904742276095	137.24351468346154
17	6.0	wm	408	diff_vonmises	-0.1200705078176181	-6.879533341942079	0.5517956249255188	169.99040082857064	0.5403365161788815	170.41051598765364	0.259622001006683	-0.2471046360167665	0.5067266370234496	120.5823060940741
18	7.0	ltm	408	diff_vonmises	0.0502508376235606	2.879160912827232	1.190506630994098	2.093679688717208	0.1786013256858363	3.1659087454624197	0.192492106549461	-0.3450639353874419	0.537556041936903	109.41731749359994
19	7.0	perception	408	diff_vonmises	-0.0065590238386243	-0.3758043836788726	0.9352082780146804	350.55329422743546	0.9229781247249996	351.3205529494116	0.5642669432274516	-0.3845103909745972	0.9487773342020488	93.5375077198189
20	7.0	wm	408	diff_vonmises	0.1174803138375363	6.731126158763195	0.8797662591559932	46.351964124138014	0.8236988285646422	47.2841203469591	0.2085787244624963	-0.2864248598247902	0.4950035842872866	93.59014895544502
0	1.0	ltm	218	diff_vonmises	-0.0042581632855149	-0.2439747847375664	5.747091993652886	0.3145272028196256	0.0128776106229219	2.501599132428261	-0.1096676732263661	-0.3971888991288265	0.2875212259024603	56.17324781251838
1	1.0	perception	218	diff_vonmises	-0.028401359510226	-1.627278032369694	13.183898211430712	0.6719020141148389	0.0265443650798507	3.0343190276809477	0.4676194265123893	-0.4880182079796988	0.9556376344920882	37.15176476955901
2	1.0	wm	218	diff_vonmises	0.0009604384421964	0.0550290692199761	5.073948621357411	0.4179482275778197	0.0310553565844473	2.793002552311941	-0.0931678699383059	-0.4421664277397834	0.3489985578014775	59.07208573789575
3	2.0	ltm	218	diff_vonmises	-0.0199780991484239	-1.144660763898597	2.466231946094021	1.2214944829857244	0.5065106990370339	2.35323559667252	0.1306635330411831	-0.2923075944825188	0.422971127523702	71.30549694038436
4	2.0	perception	218	diff_vonmises	-0.0218291625897975	-1.250718886700263	6.767146367864443	1.2436757571593329	0.2938173218717292	2.4073667820654245	0.7618062523271344	-0.4002692570949356	1.16207550942207	50.05231976335563
5	2.0	wm	218	diff_vonmises	0.0286772373021876	1.6430846655104856	3.993995632062898	0.6767123026039165	0.2193003117917533	1.9359818281180572	0.1407277560751798	-0.2971927426063509	0.4379204986815307	62.95618510273573
6	3.0	ltm	218	diff_vonmises	0.02267975540208	1.2994542649282164	2.221785594608101	1.4097264633099404	0.5650648253787032	2.2945282044423414	0.1805249084701918	-0.2537231538274346	0.4342480622976265	74.38060766590431
7	3.0	perception	218	diff_vonmises	-0.0185603114171532	-1.063427510651355	4.705812502064949	1.8167516313261736	0.2593372388494128	2.695736933624181	0.9782875493204746	-0.4109941705829095	1.389281719903384	60.00615079016919
8	3.0	wm	218	diff_vonmises	-0.0172712961971298	-0.9895723788158908	2.8094233824679584	1.0042470773539305	0.3757078463138082	2.0772407656534764	0.1686373256128072	-0.2813741208215124	0.4500114464343196	70.70789040171394
9	4.0	ltm	218	diff_vonmises	-0.1658345249260846	-9.5016183758217	1.862224483164627	1.5772129739725422	0.3997809508918402	3.0664510063862997	0.0794938873560915	-0.3503418198346255	0.429835707190717	80.58513596844114
10	4.0	perception	218	diff_vonmises	-0.0701189518817069	-4.017520006702712	2.3599640272487785	2.40986959777263	0.1573950136541211	3.966250918097236	0.6384877710826897	-0.5400651292365897	1.1785529003192794	83.41882642053855
11	4.0	wm	218	diff_vonmises	-0.1242363592096381	-7.11821904478352	1.0207321138319945	350.96777619364576	1.0106272519201498	352.68507661467726	0.0796908742945134	-0.4154582512814286	0.4951491255759421	81.04305156249296
12	5.0	ltm	218	diff_vonmises	-0.0168778937317723	-0.9670320779008612	1.761363405076232	1.231151991924213	0.0073832435660204	1.8670852818404295	0.2886368344025588	-0.2776091282764454	0.5662459626790042	102.55680732766312
13	5.0	perception	218	diff_vonmises	-0.0466820368816821	-2.674683692394436	1.9034909913118951	2.734045915102028	0.2646208662903658	3.2556580560851667	0.7053374877327392	-0.3695345250883879	1.074872012821127	90.23975546350805
14	5.0	wm	218	diff_vonmises	0.018496702629744	1.0597829955928646	0.8960030599699816	7.786300057728222	0.5928446494136443	8.409317454356078	0.2851282399180483	-0.2646933552705519	0.5498215951886003	103.2729954563653
15	6.0	ltm	218	diff_vonmises	-0.0774176032928544	-4.4357019286986645	0.4643163596663141	45.32460342662819	0.4291947351519716	45.69332464888029	0.208673623332281	-0.2244088167831712	0.4330824401154522	130.0752252985244
16	6.0	perception	218	diff_vonmises	-0.0396691188657421	-2.272873088009818	1.3389788621001324	1.8536422770265295	0.0120334741930355	2.292891225336389	0.3805062903296217	-0.3090292026686743	0.689535492998296	115.1325678174031
17	6.0	wm	218	diff_vonmises	-0.063689686974497	-3.649150262148016	0.5338236395435985	130.99447459242802	0.5195811562698693	131.3185284973402	0.2689215517231247	-0.2342054934534214	0.5031270451765462	123.04287968935424
18	7.0	ltm	218	diff_vonmises	-0.0032113635947008	-0.1839975804583214	0.8523515685381177	170.00282243456812	0.8354078103250219	171.07849558700036	0.2158311594793502	-0.3211526259855919	0.5369837854649422	93.62758369698496
19	7.0	perception	218	diff_vonmises	-0.0291373910533866	-1.6694495333812998	0.8254445420755216	185.7575995956588	0.803050265816653	186.7095906822285	0.5046692627367122	-0.4185046644885304	0.9231739272252426	98.94255078002402
20	7.0	wm	218	diff_vonmises	0.132126052824395	7.570265190560407	1.3109163115502385	2.375562218483121	0.4292838072491645	3.3661511005101694	0.1625536331168712	-0.2802230356520861	0.4427766687689574	93.48669486991272
0	1.0	ltm	316	diff_vonmises	-0.3403075879614206	-19.49818852646642	0.5545629368997016	38.515449637143504	0.532514101845773	38.53317906854986	0.1552136382779281	-0.0936767883024738	0.2488904265804019	123.13220954873628
1	1.0	perception	316	diff_vonmises	-0.1050662418413616	-6.0198522268108405	17.704442168506514	0.6997093634763186	3.246417693644073e-23	0.9187599335114678	1.0198053673458505	-0.1462251849331307	1.1660305522789811	32.17331743766778
2	1.0	wm	316	diff_vonmises	-0.2397176273546244	-13.734808322309792	0.0002705889527494	3237.284576912052	1.5938098440727855e-31	3237.354815621254	0.1282446022635213	-0.1505834164562429	0.2788280187197642	178.34708093731288
3	2.0	ltm	316	diff_vonmises	-0.0174876599875119	-1.001969110844237	4.703167771090359	0.399805727579446	0.357819189262864	0.3294328024829001	0.2628842560456385	-0.04786110542841	0.3107453614740486	60.54466681136958
4	2.0	perception	316	diff_vonmises	-0.0466266580283804	-2.671510717825975	7.190815350452098	1.154388892186999	0.206240608784073	1.0766529239447018	1.0034024785317857	-0.1730198988826816	1.176422377414467	49.89631712251756
5	2.0	wm	316	diff_vonmises	-0.1389816892329152	-7.963064222644839	4.4375796455684	0.284050249645455	2.976088233487602e-13	0.1946220065394794	0.2000719427134559	-0.0309427494735674	0.2310146921870233	64.90919905317307
6	3.0	ltm	316	diff_vonmises	0.0282001232920962	1.6157480463856857	1.705557539012608	80.81182638822428	1.6873091059887753	80.69224601341915	0.3026849700319971	-0.0707045203408345	0.3733894903728316	74.19415537820103
7	3.0	perception	316	diff_vonmises	-0.0531448763153272	-3.04497711561302	4.0178205428830935	2.334867865517248	0.5131005226520848	2.2099955864226204	1.2488311725161632	-0.2988380253982381	1.5476691979144013	63.582004007985205
8	3.0	wm	316	diff_vonmises	-0.1948912017160683	-11.166443322563502	1.8715348922639827	90.36288501639451	1.8509293993666656	90.28028828537548	0.3407907978245248	-0.0911174905165026	0.4319082883410274	69.96360863738349
9	4.0	ltm	316	diff_vonmises	-0.1864775337304852	-10.684375656765257	2.1202743455952096	102.05915838758833	2.095452342899569	102.3131257498936	0.2500529606532353	-0.1595446504400275	0.4095976110932628	61.39788988809849
10	4.0	perception	316	diff_vonmises	-0.1267083637906714	-7.259854474213733	2.687743972076131	2.333255604262398	0.1919635632169201	2.854801519701916	0.8890291692022819	-0.3838249171175607	1.2728540863198423	79.16616721957087
11	4.0	wm	316	diff_vonmises	-0.1873434701494559	-10.733990158898946	1.5801442799870222	165.99870480400196	1.5642904063405385	166.5323970328988	0.2162077080802618	-0.205821099930116	0.4220288080103778	69.46896792584451
12	5.0	ltm	316	diff_vonmises	0.0698258002481626	4.000723655343258	1.8496135065491093	0.7912137490546763	8.767145544513953e-16	0.595929317840248	0.2944391877749809	-0.0852131738805966	0.3796523616555775	100.6340808683494
13	5.0	perception	316	diff_vonmises	-0.01106965153332	-0.63424431353976	2.1905255370507746	1.7391459287493	0.0581756852322317	1.3741049716764904	0.7160520434268837	-0.1943033466007922	0.9103553900276758	91.5626870131515
14	5.0	wm	316	diff_vonmises	0.0088806878566362	0.5088259333583385	1.185280918784757	1.3942356074475433	0.379503096484047	1.2515289581730162	0.2438751045025178	-0.0824737590497713	0.3263488635522892	108.50346204906845
15	6.0	ltm	316	diff_vonmises	-0.2939901144462264	-16.844392776336825	0.2923808280184605	46.080906347107685	0.2768327438766252	46.08752183004172	0.1262575320200607	-0.0967018480484824	0.2229593800685432	147.20555233668412
16	6.0	perception	316	diff_vonmises	-0.0014994233905022	-0.0859106319789756	0.6982640796252062	173.5087391541768	0.686364229837741	173.54061766615712	0.3844152814951869	-0.1965055219417966	0.5809208034369835	111.84674180930372
17	6.0	wm	316	diff_vonmises	-0.0710743128772144	-4.0722581596567045	0.4196507735690312	18.09971764982622	0.3648036756142041	18.11939987239821	0.1774315909547388	-0.1246188818107634	0.3020504727655022	137.41449015500962
18	7.0	ltm	316	diff_vonmises	0.075011090829391	4.297818921196579	1.329001619102937	105.05972307759882	1.3092983564393064	105.2600263675694	0.2950494007770672	-0.1450061788565158	0.440055579633583	79.73589096956414
19	7.0	perception	316	diff_vonmises	0.0305769141275082	1.7519281300401652	1.7612675201311774	1.6765174342192346	6.4589798422722585e-15	1.9322182987681544	0.4931329155617188	-0.283882378530192	0.7770152940919108	102.931647770066
20	7.0	wm	316	diff_vonmises	-0.3020846407523487	-17.308174970835257	0.1032008060275768	40.69262447241954	0.0816823141977523	40.87793477721066	0.1135376379296575	-0.1597723055491222	0.2733099434787798	167.22111668095104
0	1.0	ltm	483	diff_vonmises	-0.1667782526554972	-9.555689991726508	2.0912547040069667	0.4667785578598861	0.0064072781630215	1.0923833316010425	0.0723834730969151	-0.168970881166681	0.2413543542635961	94.50098041666436
1	1.0	perception	483	diff_vonmises	-0.0835146388172712	-4.785036331789078	15.19285368350777	0.6131433699901842	1.5081149281215217e-17	1.483841810215691	0.709086746588882	-0.2361607588621931	0.9452475054510752	34.75484948547293
2	1.0	wm	483	diff_vonmises	0.0406172177492607	2.3271951525964982	4.07319519795986	0.411703145695362	1.702639018170209e-21	1.0946758413146511	0.145442131508583	-0.1741304265122848	0.3195725580208678	67.82959537825272
3	2.0	ltm	483	diff_vonmises	-0.0747499404443573	-4.282856106315934	2.1772036953985663	1.9842940860027676	1.0952950917852753	2.366795818358892	0.226090949425862	-0.1662270361060335	0.3923179855318955	69.63360627522923
4	2.0	perception	483	diff_vonmises	-0.028708147040087	-1.6448556630379716	6.70458640856875	1.0989555569059386	0.1952699598273454	1.5096923503525184	0.8229003382807201	-0.2426221999956186	1.0655225382763387	51.34200344915956
5	2.0	wm	483	diff_vonmises	0.0299577063398168	1.7164501371638132	5.319543347017238	0.405439016859619	0.2914238250223022	0.7951839122391517	0.1974847237436696	-0.1265780364062215	0.3240627601498911	55.80784161641509
6	3.0	ltm	483	diff_vonmises	-0.009862302778678	-0.5650683254983979	1.5314858885081797	181.8960162208637	1.51907557193674	182.1921186432267	0.2635238899664358	-0.1587606736942888	0.4222845636607246	72.82748977600247
7	3.0	perception	483	diff_vonmises	-0.0463399063526153	-2.655081057036332	4.273879526897933	1.8753784382444143	0.3117361629751835	2.275923360953678	1.0117308507526743	-0.333357364022929	1.3450882147756034	62.72096710671048
8	3.0	wm	483	diff_vonmises	-0.0665774733449308	-3.814608233309275	1.5811206465154497	149.0115067070491	1.5653890317840211	149.3951478702515	0.2331922739410288	-0.1723511611514503	0.4055434350924791	70.62811884292313
9	4.0	ltm	483	diff_vonmises	-0.1853388341187307	-10.619132974878536	1.6774380338496355	149.60864272160555	1.6598647009121272	150.14539287662095	0.196010054536174	-0.20509467204268	0.4011047265788541	66.97327730704248
10	4.0	perception	483	diff_vonmises	-0.1412615589624828	-8.093691135988692	2.313338341888146	2.591893397120768	0.2957725095582005	3.31266570022489	0.765653936798761	-0.4011206410361292	1.1667745778348904	82.01044728655907
11	4.0	wm	483	diff_vonmises	-0.1731729784949542	-9.922080793470649	1.4518292812618885	220.88172379528663	1.4388733127498017	221.64109553976627	0.1854846834529411	-0.2478009411057051	0.4332856245586463	71.09668867880978
12	5.0	ltm	483	diff_vonmises	0.0491199257545253	2.81436443573026	1.0367853830256777	3.279582941885811	0.516711056257185	3.4290189351587963	0.2866538491611254	-0.1615238742611796	0.4481777234223051	104.87949983491936
13	5.0	perception	483	diff_vonmises	-0.0523544946314269	-2.999691580921092	2.14730663455867	1.988324811045019	0.2035777917746761	2.1181344056849194	0.6616357925280802	-0.2615203549459037	0.923156147473984	87.95542039765814
14	5.0	wm	483	diff_vonmises	0.031083136052642	1.7809325098473168	0.844488172637276	92.55769334585854	0.8274924794316738	92.72917446127272	0.2472963150965341	-0.1409605244844076	0.3882568395809418	100.26884572400274
15	6.0	ltm	483	diff_vonmises	-0.1955181667843654	-11.202365774879055	0.4082278734619992	97.5799747705548	0.3962291622038155	97.81124960074406	0.1622803818130442	-0.1671689823563209	0.3294493641693652	134.6893236214384
16	6.0	perception	483	diff_vonmises	-0.0648354636041256	-3.714798427290456	0.7270185952777404	194.6284595480853	0.7138532768471482	194.9879616604896	0.3855149526677834	-0.2595244190846006	0.6450393717523841	107.25519173165225
17	6.0	wm	483	diff_vonmises	-0.1566323597907471	-8.974373151184427	0.6600118235136077	52.09037396684168	0.6313824563782604	52.2988577320106	0.2267478716401942	-0.1629533113521026	0.3897011829922969	113.1546065795946
18	7.0	ltm	483	diff_vonmises	0.0270466493821822	1.5496588595691585	1.0605953522234746	131.78028345866537	1.0395157059324935	132.34924262037444	0.3242963347311942	-0.2417354544940178	0.566031789225212	87.12807934645338
19	7.0	perception	483	diff_vonmises	-0.0785369360987386	-4.499834974346365	2.6766588166986267	1.700542904844846	1.4129159526906471e-14	2.309491386908171	0.6753537144889239	-0.3626304213892379	1.037984135878162	84.06529662472144
20	7.0	wm	483	diff_vonmises	0.2122749981184916	12.16246148833706	3.134093185307987	0.6596407519267137	1.753197812935686e-24	1.1044097206134678	0.2671234285865603	-0.1749326638759866	0.4420560924625469	77.57421238042144
0	1.0	ltm	51	diff_vonmises	0.0206169744500888	1.1812656223191451	5.928379338965852	0.3462128146784471	0.0111412515050627	3.8591695604078544	-0.2925324510975615	-0.6133524804863342	0.3208200293887727	55.20401009184377
1	1.0	perception	51	diff_vonmises	0.0148394704571779	0.8502390274053666	11.442897088183322	0.7747386539528485	0.0569118666791174	4.290123762347899	0.3113814328740905	-0.6985510874388394	1.00993252031293	39.563077213474
2	1.0	wm	51	diff_vonmises	0.042033805926144	2.408359676440041	3.635527435237436	0.5571089664269655	0.0458977525096311	4.236168632848162	-0.2991036334054149	-0.6633827635804416	0.3642791301750266	67.8838711718075
3	2.0	ltm	51	diff_vonmises	-0.0039550604418033	-0.2266082710344786	2.7955875264827053	0.8690963644203836	0.2332816048810348	2.494708188125408	0.0520238350139465	-0.3583152113709786	0.4103390463849252	72.14780582714965
4	2.0	perception	51	diff_vonmises	-0.0185553175852636	-1.0631413851604847	6.614240636295974	1.3305284755867552	0.2498792178443153	2.9430607914454776	0.7451539597194832	-0.4851879568958468	1.23034191661533	50.66300611621384
5	2.0	wm	51	diff_vonmises	0.0367952462727456	2.1082123175728	3.739309343251634	0.8306341000832208	0.1834681860172689	2.6144014327596263	0.1197593152656155	-0.3990012327172258	0.5187605479828413	65.11435104757646
6	3.0	ltm	51	diff_vonmises	0.0041080724937269	0.2353752158243397	3.406855088701648	0.6153127521443476	0.0057075538625156	1.7855453085471922	0.1471650471069184	-0.2820830413699231	0.4292480884768416	74.00826101988233
7	3.0	perception	51	diff_vonmises	-0.0033306353571627	-0.1908313490624742	4.194915936291896	1.907388845911624	0.1790596964886365	2.9893261168580447	0.9404243376124022	-0.4494452149946253	1.3898695526070275	64.05153798619412
8	3.0	wm	51	diff_vonmises	-0.0396088074468567	-2.2694174982512347	3.3204541361572324	0.8227669204697416	0.1147191621147859	2.13978728476208	0.1899758698202301	-0.3211588666185497	0.5111347364387799	71.15882764040282
9	4.0	ltm	51	diff_vonmises	-0.0774730084769826	-4.438876411912357	2.2090691906775897	0.8010438153816828	3.820110794970269e-16	3.0374536258605587	-0.0447429010896966	-0.4781360249546547	0.4333931238649581	92.47898344160032
10	4.0	perception	51	diff_vonmises	-0.056106690581719	-3.214676572778908	1.7741146671360055	4.125647940929007	0.3587399244281309	6.092671888268174	0.6345211856727824	-0.6485572648614604	1.2830784505342427	87.4316416186198
11	4.0	wm	51	diff_vonmises	-0.0502734318477728	-2.8804554665159667	0.7595476426032978	307.98232485862167	0.7480978279521301	310.40365719723854	-0.0379986268798688	-0.5235366012631388	0.4855379743832699	91.33193723267964
12	5.0	ltm	51	diff_vonmises	-0.0656854914889576	-3.7635014375597655	1.35544552570108	1.5823582625735468	0.047885606515739	2.881522328591871	0.1639671870225549	-0.3940495903628692	0.5580167773854241	111.69417632815554
13	5.0	perception	51	diff_vonmises	-0.0262807509574326	-1.5057761122952869	1.4855300839623953	4.69432830543196	0.4124239924375379	5.856173825430782	0.6715605741515673	-0.5101886246212763	1.1817491987728437	93.5268820560575
14	5.0	wm	51	diff_vonmises	0.0136817168103111	0.7839046297240223	0.6232317294577169	240.3977517936143	0.611080194231565	241.7033182657996	0.2043294940252309	-0.3998817414661921	0.6042112354914231	109.1700589140419
15	6.0	ltm	51	diff_vonmises	-0.0397452275355483	-2.2772337935740667	0.4222221381665402	92.15603338271434	0.4001774286329975	93.21603815693132	0.1316492868200711	-0.3556023284173211	0.4872516152373922	130.60350582408728
16	6.0	perception	51	diff_vonmises	-0.0401690431947224	-2.3015166421362947	0.819245878682223	4.751356135486376	0.1717044673328405	5.756929385716308	0.3802642941124006	-0.4823540263284284	0.8626183204408291	126.2815641581242
17	6.0	wm	51	diff_vonmises	-0.0416842632217117	-2.3883323547164825	0.4856473587202778	273.68578872762345	0.4760547673304441	274.76369895464046	0.228014358648636	-0.4018391076055003	0.6298534662541364	124.18339875866356
18	7.0	ltm	51	diff_vonmises	0.0236067978784195	1.352569886251825	0.6420990702559697	165.90565105553063	0.6255674230929036	167.74336037851467	0.0237237182160612	-0.4266913015745786	0.4504150197906398	102.1413189964132
19	7.0	perception	51	diff_vonmises	0.064432296561825	3.6916986573278607	0.8058588957772289	358.56765728667807	0.7922630808523891	360.18031449082264	0.4436624876032624	-0.5374533542738575	0.98111584187712	97.51832427692912
20	7.0	wm	51	diff_vonmises	0.1097220612952849	6.286611031695553	0.7483104943999663	200.3108232174073	0.7334896324794175	202.1303921343172	0.0372276476260609	-0.4194335120218184	0.4566611596478793	94.41948091331088
0	1.0	ltm	28	diff_vonmises	-0.0441448069225225	-2.5293111240804413	3.97966044009361	0.3613882576323632	3.4396518832574773e-20	2.7871634255549127	-0.1665444747542918	-0.4434940130656367	0.2769495383113448	68.6458962281684
1	1.0	perception	28	diff_vonmises	-0.0246201686357878	-1.4106317537310058	13.134675065460806	0.7486640859788968	0.0174486259917736	3.298727333520201	0.5372007257196735	-0.5283294481586744	1.065530173878348	37.28107674532123
2	1.0	wm	28	diff_vonmises	0.020094184931454	1.1513119893276942	4.731919007730807	0.4100125899815152	4.2642879820565415e-18	2.9741998850807003	-0.128145313874571	-0.4733318212016784	0.3451865073271074	62.80781903830496
3	2.0	ltm	28	diff_vonmises	-0.0515764031223749	-2.9551102213774465	3.1065691524430736	0.7318712824297177	0.192429489671663	2.0950570055057245	0.0884742485974665	-0.3085385675176534	0.39701281611512	70.51694773240547
4	2.0	perception	28	diff_vonmises	-0.0322673235460633	-1.848781455372536	7.047722646188411	1.2557654795272055	0.1957685592380068	2.592021129229905	0.8076261282984877	-0.4242770017903313	1.231903130088819	49.67968866730908
5	2.0	wm	28	diff_vonmises	0.0119712339799035	0.6859011826120752	3.993133193640116	0.664324688464347	0.1408101943894096	2.1120611363765387	0.1252011037412234	-0.3253644854479895	0.4505655891892129	64.27566602841821
6	3.0	ltm	28	diff_vonmises	-0.0138849659152721	-0.7955499456280987	2.5850731190430207	0.8082899170489772	0.1667387912401691	1.6428733500623902	0.1790216404171781	-0.2301576033080141	0.4091792437251923	78.84840998063788
7	3.0	perception	28	diff_vonmises	-0.0176182314302423	-1.009450303437623	3.9822778525400513	2.032123339932406	0.2501196379023837	2.772237774827416	1.0007882659074443	-0.4053959917091323	1.4061842576165768	65.08873510860977
8	3.0	wm	28	diff_vonmises	-0.0883001144847981	-5.05922389050092	2.718414894798319	1.0494672644334084	0.3324151877724247	1.9607128876074111	0.2261619274479945	-0.2612067733485838	0.4873687007965783	73.42476535870833
9	4.0	ltm	28	diff_vonmises	-0.1370042578444584	-7.849765749809571	2.3820677618368764	0.9302218835843068	0.2091556969382808	2.521865806936064	0.0434574412690626	-0.3503311641278606	0.3937886053969232	77.91989336699598
10	4.0	perception	28	diff_vonmises	-0.0920470870326167	-5.273909603442308	1.982238595794818	3.582812805290591	0.3662424993351026	5.133661579722572	0.6984550844394022	-0.5687073244199299	1.267162408859332	84.23407663176212
11	4.0	wm	28	diff_vonmises	-0.1233155452120343	-7.065460289004253	0.9549126004118756	321.9825964553187	0.9449728455721658	323.7420955774763	0.0249002603762562	-0.4038191492353959	0.4287194096116522	82.53161968363557
12	5.0	ltm	28	diff_vonmises	-0.0334262766625666	-1.9151845776017085	1.3567186842128194	1.3997095445900465	0.0503576365755906	2.3198607055651137	0.1826535801012208	-0.3130203649205474	0.4956739450217683	111.81967262134695
13	5.0	perception	28	diff_vonmises	-0.0307288398925001	-1.760632835173497	1.9932477185529984	2.7045347720113533	0.2061797465590214	3.450435264228881	0.7245773374080381	-0.4233656305390916	1.1479429679471296	89.70163162830718
14	5.0	wm	28	diff_vonmises	-0.0076440910945552	-0.4379741579315538	0.6509203643659544	198.1525159280096	0.6390552338297477	199.07716199243376	0.1942827231729822	-0.303433983548274	0.4977167067212562	107.82444949488618
15	6.0	ltm	28	diff_vonmises	-0.0808382392589035	-4.631689932803933	0.3860714947163082	98.16574963178849	0.3711023939359045	98.91945350926244	0.1002598766288791	-0.2633076000363665	0.3635674766652457	134.53495180252017
16	6.0	perception	28	diff_vonmises	-0.0556775466663144	-3.190088437622506	0.6491745125321575	6.111475174192012	0.2243223599207432	6.838485169103481	0.334836492879442	-0.4002436094044412	0.7350801022838833	131.50178837766128
17	6.0	wm	28	diff_vonmises	-0.0955285483469059	-5.473382643289146	0.4851928911069494	166.95706187988102	0.4735363729067342	167.70632176748765	0.1813380784536349	-0.2937259271981052	0.4750640056517401	124.6992032828064
18	7.0	ltm	28	diff_vonmises	0.1044490422404364	5.98448929456067	0.7611124414522782	95.6519837798906	0.7357919163276367	96.80025495537576	0.1277481952476655	-0.3078571381038166	0.4356053333514822	97.52817138504156
19	7.0	perception	28	diff_vonmises	0.0300063651684153	1.7192380826785587	0.8506527352215159	238.4253514497452	0.8332687385670202	239.40595237306292	0.487050803158084	-0.4119908758096358	0.8990416789677198	97.05945701254949
20	7.0	wm	28	diff_vonmises	0.0947791155196824	5.430443305260682	0.7960445060357731	78.9420913464732	0.7669273839938293	80.05701594999508	0.1074307147336988	-0.2897817619350507	0.3972124766687495	94.89372679602552
0	1.0	ltm	126	diff_vonmises	-0.0488890539081312	-2.8011364533234837	4.8548717549249725	0.3039431342505309	1.4802406487803797e-15	2.730238584611586	-0.1750898392513393	-0.4345152203454907	0.2594253810941513	61.98769726374727
1	1.0	perception	126	diff_vonmises	-0.0299201340142855	-1.7142974014843777	14.656929057048671	0.6946243586701686	0.0329701946233181	3.24230139547206	0.5182055957824289	-0.5239149144150511	1.04212051019748	35.20420031201962
2	1.0	wm	126	diff_vonmises	0.0156734206482867	0.8980208536800305	4.579704890302796	0.3750073770563505	9.941785802009485e-24	2.9983334135656463	-0.1669481539780312	-0.4771669371307048	0.3102187831526736	63.86671316578492
3	2.0	ltm	126	diff_vonmises	-0.0315145481657142	-1.8056506031571784	3.945643672117324	0.4707704308916846	0.0236001228423553	1.8021270237127207	0.0656253903982816	-0.282672840997159	0.3482982313954406	67.73844865232422
4	2.0	perception	126	diff_vonmises	-0.0325696408982189	-1.866102963724619	7.55920193582697	1.1934347934385858	0.2476028727323018	2.548243099464738	0.7742300541450947	-0.4272327625905247	1.2014628167356194	47.69530876578759
5	2.0	wm	126	diff_vonmises	0.0078320393213747	0.4487427980952796	3.9017495512754223	0.6716372587798755	0.1752024603053587	2.182995107663102	0.0985548095043467	-0.3356807391510543	0.4342355486554011	64.0283352896607
6	3.0	ltm	126	diff_vonmises	-0.010157233611165	-0.5819666174481801	2.3985167644424705	1.0803063852504122	0.4409735959566891	1.9454787433123373	0.1626272683721704	-0.2387114640007598	0.4013387323729303	74.43491767085231
7	3.0	perception	126	diff_vonmises	-0.02442273946436	-1.3993198954554276	4.015638564249475	2.1364594891822075	0.3370957033842418	2.9309904662724	1.01067411048079	-0.4250134361871988	1.435687546667989	63.86509639085344
8	3.0	wm	126	diff_vonmises	-0.0835513421170002	-4.787139275957753	2.731337558905448	1.051516310372722	0.3897649184109399	2.114814203526429	0.1738882002416889	-0.2818402089859931	0.4557284092276821	71.33617216751452
9	4.0	ltm	126	diff_vonmises	-0.1165008546453594	-6.675007280846168	1.5173699239082186	2.431348493006497	0.5567177674817408	3.926647666334964	0.049852819057975	-0.3480143737498061	0.3978671928077811	81.53865017570308
10	4.0	perception	126	diff_vonmises	-0.0886874198402806	-5.081414852752881	2.1489710428835904	3.271172798615165	0.375876697434604	4.656212981645592	0.7201281751640507	-0.5315021378263088	1.2516303129903594	81.59547987217061
11	4.0	wm	126	diff_vonmises	-0.1319507728046168	-7.5602223851941455	0.9808426162922372	334.53093636184923	0.9711624816500026	336.2465296284964	0.0369122347455572	-0.3992272662927334	0.4361395010382907	81.71953572896905
12	5.0	ltm	126	diff_vonmises	0.0071433383512156	0.4092831391585965	0.8247716922049135	7.732109883877911	0.5304247464748052	8.867095486796174	0.1459766812576788	-0.3217681700831944	0.4677448513408733	103.67516534426072
13	5.0	perception	126	diff_vonmises	-0.0147686248887442	-0.8461798753369126	2.00247618045216	2.621182694590941	0.2105765030027874	3.68395586661653	0.6374423633203111	-0.4561201081918183	1.0935624715121297	88.7147492083729
14	5.0	wm	126	diff_vonmises	-0.0266040860394102	-1.52430184786112	0.6075830994071828	198.67772544655955	0.5954013860870274	199.91569214635092	0.1304493161623554	-0.3495366222693405	0.479985938431696	109.20937711823127
15	6.0	ltm	126	diff_vonmises	-0.1473737075012866	-8.443891451019207	0.4051529778722262	166.74479435828795	0.3944890424506098	167.8392189554917	0.0775361711081572	-0.3310875118935534	0.4086236830017107	130.6869947132219
16	6.0	perception	126	diff_vonmises	-0.0209558374614194	-1.200681042701481	0.509189958931265	145.8706791703935	0.487599322008482	147.00952119719244	0.3101258026651621	-0.4606722798771887	0.7707980825423508	123.07871786560126
17	6.0	wm	126	diff_vonmises	-0.1271175745226483	-7.283300522087469	0.4511245391772486	189.45033096953537	0.439389442453108	190.61660603824876	0.1370072927616092	-0.3768056712567329	0.5138129640183422	126.45586592016603
18	7.0	ltm	126	diff_vonmises	0.0783940470464897	4.49164803471388	0.8050365611510942	188.40332852518227	0.7911471949172025	189.70817351704025	0.1056963878232579	-0.3301787216353951	0.435875109458653	93.34417151829012
19	7.0	perception	126	diff_vonmises	0.0129967794816451	0.744660611560493	1.5495535115096888	2.532798466577156	0.1879184279406586	3.74634129081714	0.4057111992232716	-0.4401749518600791	0.8458861510833506	98.91066361045752
20	7.0	wm	126	diff_vonmises	0.1459681815318416	8.36336074497397	0.8321674321777467	91.83011018731015	0.8053546044230168	93.1416872684427	0.0705142121497246	-0.317320578479503	0.3878347906292276	91.08184974587196
0	1.0	ltm	224	diff_vonmises	0.0474443509816365	2.7183610729851364	5.707282559429411	0.2850967897042548	0.0101377155562809	3.37191783939984	-0.276946240287215	-0.5357656197960422	0.2588193795088271	56.27161301161115
1	1.0	perception	224	diff_vonmises	0.0219148597264827	1.255628970948684	10.7627660514323	0.7713637809776612	0.0632043113119066	3.929222223159614	0.3317031075368575	-0.6402749480565948	0.9719780555934524	40.75442564998264
2	1.0	wm	224	diff_vonmises	0.0323363242500252	1.852734904492984	4.501675897317585	0.4387076110035171	0.0397787804802818	3.680148647354351	-0.2496323294713965	-0.5816558037015483	0.3320234742301517	61.70804893477347
3	2.0	ltm	224	diff_vonmises	0.0147128171304484	0.8429823263224727	2.7965198112277645	0.9277545433873324	0.307361173401754	2.5001691925099885	0.0551082406884818	-0.3538177911472731	0.4089260318357549	70.32962802218844
4	2.0	perception	224	diff_vonmises	-0.006927059319895	-0.3968912634667484	6.6725154537019	1.376957992229536	0.2689123858905605	3.010958541933526	0.7741745953555677	-0.4991252502848518	1.2732998456404194	50.3391512987732
5	2.0	wm	224	diff_vonmises	0.0578959886958116	3.317195803007128	3.945687538087072	0.702623858211426	0.1538535085615855	2.4410655865822197	0.085711256418799	-0.3768221839668936	0.4625334403856926	63.98454055741411
6	3.0	ltm	224	diff_vonmises	0.0643587395801258	3.687484152722776	3.4558672147102016	0.5968638042992154	0.0993302902025519	1.6911364081649738	0.1268077998085464	-0.2565710391195708	0.3833788389281172	70.06642135234299
7	3.0	perception	224	diff_vonmises	0.00529904422662	0.3036128696384957	4.811879223103012	1.7522057133457387	0.1576163574582907	2.8419881494598718	0.9622417318312128	-0.4376877884346703	1.3999295202658832	60.23502705890684
8	3.0	wm	224	diff_vonmises	0.0005361888969093	0.030721360814683	3.704999716705684	0.6520401443453405	0.0800594586607494	1.9421180497520116	0.1463639265170894	-0.2981386355854267	0.4445025621025161	68.27929517690609
9	4.0	ltm	224	diff_vonmises	-0.0429367412858892	-2.4600940617265707	1.8776922039478845	0.8271436623527934	0.0687800427337581	3.1447255291371894	-0.1248208114995881	-0.4595437858412698	0.3347229743416817	91.72230956653549
10	4.0	perception	224	diff_vonmises	-0.0383836773526234	-2.1992227144972056	1.935217085292266	3.201416347765352	0.2562427581455597	5.422172621186673	0.5220284554064392	-0.6586877989854019	1.180716254391841	86.73641494537858
11	4.0	wm	224	diff_vonmises	-0.0148914898640774	-0.8532195198734825	0.7559365846120267	279.57391195993443	0.7441497682020323	282.1042912839597	-0.1122777718384782	-0.5206394460632211	0.4083616742247429	89.23105925083831
12	5.0	ltm	224	diff_vonmises	-0.0466904192782323	-2.675163968338971	1.762405474309028	1.1092698359974438	2.321833326870661e-21	2.144130726669863	0.1887074198818893	-0.3256369938843404	0.5143444137662299	102.90217015447335
13	5.0	perception	224	diff_vonmises	-0.0508008519892159	-2.9106744146508468	1.801527443528252	3.373257492351071	0.3009875914307852	4.27866093904824	0.7336693990561978	-0.4643490493495945	1.1980184484057923	90.57396785287769
14	5.0	wm	224	diff_vonmises	0.0448110804538807	2.5674857854285422	1.3688344789370863	1.8571571423407145	0.1492309543071351	2.9366759670177403	0.2216240178941234	-0.351091490378604	0.5727155082727274	105.36101284347129
15	6.0	ltm	224	diff_vonmises	-0.0403952767296862	-2.31447886887405	0.962117753350726	1.6661276287596412	0.0772614572381019	2.382211912097628	0.148382571623325	-0.2690572899267799	0.417439861550105	125.0331651736386
16	6.0	perception	224	diff_vonmises	-0.0764528602239065	-4.380426222533449	1.0670511030839689	2.325860934102602	1.815097104111923e-21	3.0401943632615334	0.3402987041669877	-0.386317300535653	0.7266160047026408	125.80431507467873
17	6.0	wm	224	diff_vonmises	-0.0003471702846738	-0.0198913920841668	0.5191800966278584	194.99327129501788	0.5083842961173412	195.72525645477103	0.2125166179449635	-0.3003072234254347	0.5128238413703983	121.687297754728
18	7.0	ltm	224	diff_vonmises	0.0123932307577742	0.7100798169521814	0.7587914166534583	105.6682666477439	0.7319962414529463	107.34193308928675	0.0539822077820737	-0.3935856351311582	0.4475678429132319	94.7243490835771
19	7.0	perception	224	diff_vonmises	0.0249778553927213	1.4311256952910187	0.7909135035998947	371.5467759040992	0.7784084694559319	372.9951233822899	0.4534354056262515	-0.5090157074675616	0.9624511130938131	98.92746503914142
20	7.0	wm	224	diff_vonmises	0.0780160443251935	4.469990074139147	0.74865669179222	145.6659573034272	0.7303952791513162	147.30639934918645	0.0313565666897375	-0.3773144865123541	0.4086710532020916	94.44359365589096
0	1.0	ltm	345	diff_vonmises	-0.0279277239412222	-1.6001407132385026	6.844884500859991	0.5134505879157354	0.0588988010860946	4.0943377622257	-0.1652883716848892	-0.6585023115510727	0.4932139398661835	50.26435822971652
1	1.0	perception	345	diff_vonmises	-0.0345619796690426	-1.9802555666531017	14.08684172955508	0.7859761944501169	0.0525227708102734	4.3653157046807465	0.4343452925205673	-0.7126471864538697	1.146992478974437	35.753678840106744
2	1.0	wm	345	diff_vonmises	-0.0477007529366774	-2.733051822867884	4.680848152745533	0.6666744690679792	0.1137037643340333	4.620411458720048	-0.2632192379419484	-0.7375319169264172	0.4743126789844687	58.18522919549548
3	2.0	ltm	345	diff_vonmises	-0.1334035553128818	-7.643460691468159	2.318270586728291	1.4052367995631172	0.3390804090918283	3.089716973850331	0.1212213436244533	-0.4004359583853118	0.5216573020097652	75.97165330470685
4	2.0	perception	345	diff_vonmises	-0.0720434516425826	-4.127785720674821	7.327923600205904	1.1213954744501746	0.1628959323634734	2.884649094529101	0.6521328889439736	-0.4726980160817108	1.1248309050256844	48.75048601767796
5	2.0	wm	345	diff_vonmises	-0.0505567274509838	-2.8966871089345694	3.2053148131036853	1.1105189781683291	0.249251773808014	2.962725187456756	0.159436437790658	-0.4341798470417325	0.5936162848323907	68.50254267487148
6	3.0	ltm	345	diff_vonmises	-0.1101436267618789	-6.310764953719847	1.7389374297695916	2.154824392665578	0.3902986630634792	3.40397267346216	0.2503405809062876	-0.3575984583593949	0.6079390392656826	85.92322559518442
7	3.0	perception	345	diff_vonmises	-0.045718373797573	-2.6194698648024275	3.5924219385042107	2.381447555759896	0.3397674537258679	3.5058966609527804	0.9641906532208456	-0.4948619954870852	1.459052648707931	66.72669434151871
8	3.0	wm	345	diff_vonmises	-0.092579885155818	-5.304436687234235	2.0864499021684715	2.092821592977509	0.4971512552874756	3.42925204051292	0.2632433384397558	-0.3771950869068882	0.640438425346644	77.48301677524705
9	4.0	ltm	345	diff_vonmises	-0.1739185995689636	-9.964801734127397	1.9630100123090848	1.613508308256698	0.1099067292126936	3.417108604544666	0.2178361118922864	-0.4728340322287006	0.690670144120987	90.88993306080356
10	4.0	perception	345	diff_vonmises	-0.0958806133837343	-5.49355448401353	2.02433046995402	3.566583289815071	0.3210362179116726	5.213725612290904	0.7383152353379576	-0.6024903584746243	1.3408055938125818	84.65915682576849
11	4.0	wm	345	diff_vonmises	-0.1982235156968373	-11.357370849674004	0.8636995315239326	286.4489440801959	0.8505176838608574	288.3567660416595	0.1226406105816124	-0.4682765577763845	0.590917168357997	89.31463804609189
12	5.0	ltm	345	diff_vonmises	-0.0530566514613733	-3.0399222038333056	0.5804873346916036	125.03717331879722	0.5554648462538029	126.0872271595048	0.3201445088159289	-0.420835346185207	0.740979855001136	116.4556173994979
13	5.0	perception	345	diff_vonmises	-0.0275786285716919	-1.5801390219168554	2.007352377325621	2.752471348379498	0.1613059867665152	3.6942397891091057	0.7366357463089713	-0.4751718343119764	1.2118075806209478	90.55332603462053
14	5.0	wm	345	diff_vonmises	-0.1059690809998136	-6.071581100169286	0.7486455229538266	277.6858273711872	0.7375090969367568	278.6594422793262	0.3062483407593959	-0.3493800452138167	0.6556283859732126	101.7439761343147
15	6.0	ltm	345	diff_vonmises	-0.0415176625516748	-2.378786839459318	0.735841100313563	2.107339800174308	1.7023600216040674e-14	2.737131468813699	0.1784287472975841	-0.2946734794402212	0.4731022267378054	140.37114764550603
16	6.0	perception	345	diff_vonmises	-0.0131407184212229	-0.7529077053058871	0.7650202659725591	2.9603623918538085	1.4499475423221315e-14	3.6151336809110433	0.3037499668046144	-0.385011354292716	0.6887613210973305	139.00700889291434
17	6.0	wm	345	diff_vonmises	-0.1964184875962473	-11.253950357607684	0.4906608882745255	161.25475617967655	0.477873493920606	161.80903737174893	0.2499511778027496	-0.2874708729334667	0.5374220507362164	125.6788495175877
18	7.0	ltm	345	diff_vonmises	0.0389446544002577	2.231364331730362	0.6194796103348778	162.66387831538947	0.6042487693656321	163.49521284046517	0.2480010379430268	-0.3183553313964822	0.5663563693395091	112.18825251808656
19	7.0	perception	345	diff_vonmises	0.0130953958962193	0.7503109159063078	0.8649300668928991	246.82517445151265	0.8505806438080133	247.43450033246447	0.4847682656815664	-0.3296986088702169	0.8144668745517833	97.60337179419832
20	7.0	wm	345	diff_vonmises	0.1079598565098889	6.185644134854603	0.9287711098432456	116.42147732897956	0.9064737683050024	117.17424657763225	0.2500872094650077	-0.2598233270573971	0.5099105365224048	91.47916691133892
0	1.0	ltm	201	diff_vonmises	-0.0621904802760651	-3.5632520457101227	4.34776577664138	0.3699288131863594	1.1759671701367157e-18	2.546404563474059	-0.1077129470592265	-0.4052230695535673	0.2975101224943408	65.59932103934463
1	1.0	perception	201	diff_vonmises	-0.0647488374460682	-3.7098351140383343	17.003356409273504	0.6545683349218443	3.484945108097005e-17	3.004461788734331	0.5902517725574867	-0.4781749450077847	1.0684267175652713	32.84128172397325
2	1.0	wm	201	diff_vonmises	-0.0651749758061242	-3.7342510435581713	5.725069543578573	0.3653404157711787	3.4348261345958203e-19	2.808037207294844	-0.1065532384752435	-0.4469093773320001	0.3403561388567566	56.97833970445339
3	2.0	ltm	201	diff_vonmises	-0.0782784084390072	-4.485022430556362	2.9162959189698543	0.8271901480572044	0.1896409174350623	2.2137522885134637	0.1109340536757484	-0.3210729811920546	0.4320070348678031	72.82041639114814
4	2.0	perception	201	diff_vonmises	-0.0562712888137762	-3.224107356791099	7.369669091299169	1.147018654958422	0.162976291332738	2.6502715963497847	0.7264254981358584	-0.4334828014118052	1.1599082995476635	48.74050732429714
5	2.0	wm	201	diff_vonmises	-0.065743644337676	-3.766833350357992	3.3091917719905077	0.7971324540082612	0.1850029903556551	2.377994797786783	0.1003388865061568	-0.3551005895798738	0.4554394760860307	68.72001896622075
6	3.0	ltm	201	diff_vonmises	-0.0384643411249827	-2.203844408212996	1.661032826495205	2.767521319669382	0.6287758480283011	3.893129151069152	0.2203034018435417	-0.3232556238722311	0.5435590257157729	81.12636036560625
7	3.0	perception	201	diff_vonmises	-0.0477915452163868	-2.738253837307606	3.869173456007301	2.4889605896882325	0.328868938995969	3.6054325166957177	1.1029448757077578	-0.5202779493478114	1.6232228250555691	64.81154956653026
8	3.0	wm	201	diff_vonmises	-0.1120242907402333	-6.418519062361842	2.1448078098130954	1.8205044221927087	0.4969928257285502	3.170754168945237	0.1989540201392055	-0.3602892037656995	0.559243223904905	75.97149979050667
9	4.0	ltm	201	diff_vonmises	-0.1677784874620222	-9.612999224662474	2.2540636397963114	1.260921973301434	0.2317352928620198	2.888244754248404	0.1270555487296252	-0.386339117957526	0.5133946666871512	80.10331954624456
10	4.0	perception	201	diff_vonmises	-0.0893593931324382	-5.119916086339024	2.0904061941687715	3.199355572937373	0.2677841036447965	4.910757351611575	0.6916082598827418	-0.5989696215275203	1.290577881410262	84.73156462988797
11	4.0	wm	201	diff_vonmises	-0.1906278642729402	-10.922172080432167	0.9638763031324808	385.1397872483528	0.9544522631361012	387.0247331364334	0.0610040312195963	-0.4441423026050941	0.5051463338246904	82.94370639773935
12	5.0	ltm	201	diff_vonmises	-0.0007450722686466	-0.0426894964256924	1.547520023521309	1.574196975777228	0.1130808134481117	2.3048017470045985	0.2854614656613047	-0.2950949515138408	0.5805564171751456	102.98834543842092
13	5.0	perception	201	diff_vonmises	-0.0247864286986312	-1.4201577536335133	1.9680392512042837	2.517810023087847	0.1622366881432495	3.1790472557244382	0.6950571250374757	-0.4042483151473406	1.0993054401848164	91.66711776740296
14	5.0	wm	201	diff_vonmises	-0.0805969164840389	-4.617863156303808	0.7006103212495041	159.2103917892646	0.6853080931729103	160.04816349566835	0.2281424085638761	-0.2922333851513929	0.5203757937152691	104.89775670996202
15	6.0	ltm	201	diff_vonmises	-0.1449349416710834	-8.304160461727845	0.6884091733467559	1.6923342489093156	3.955362384760945e-12	2.235839616626893	0.121980131811738	-0.2352489731470566	0.3572291049587947	142.4170385333054
16	6.0	perception	201	diff_vonmises	-0.0004486300100582	-0.0257046061392483	1.1174035158594884	1.8676934743113145	2.9690490034733358e-18	2.49311072011232	0.2826581041298704	-0.3240811535919217	0.606739257721792	123.84394488334252
17	6.0	wm	201	diff_vonmises	-0.1077363491677665	-6.172838107460801	0.4234123893615173	156.18433955544108	0.4133908700331113	156.7666467916355	0.1539461488783757	-0.2478964062841377	0.4018425551625135	131.44612348208125
18	7.0	ltm	201	diff_vonmises	0.004723845474123	0.2706564087392248	0.916388198176059	161.5192019621152	0.8995317345952825	162.43347957906548	0.223355406160735	-0.2852506008426836	0.5086060070034186	90.84774673350492
19	7.0	perception	201	diff_vonmises	0.0351271843640784	2.0126394102396303	0.6811608508827566	173.9643946044427	0.661748636918695	174.82651974587384	0.4036845332234335	-0.3886115399409995	0.7922960731644331	108.63061002079787
20	7.0	wm	201	diff_vonmises	0.0362708862205972	2.078168699639434	0.85459355222808	102.05980837942066	0.8331498347480394	103.00115004505216	0.1258823182126107	-0.2561575964993032	0.382039914711914	92.18170263160764
0	1.0	ltm	80	diff_vonmises	-0.0728244588183799	-4.172534135617441	4.591690485909616	0.2344189528289754	2.2501694587969628e-17	1.65937015998313	-0.0698872764609505	-0.2640770108818823	0.1941897344209317	63.78242811180274
1	1.0	perception	80	diff_vonmises	-0.0366688475591807	-2.100970204749644	14.26508901721098	0.6705984522001448	0.0431721367873213	2.3139408782987174	0.6169244611166833	-0.3753981477542304	0.9923226088709138	35.68060479115027
2	1.0	wm	80	diff_vonmises	0.0279943500291557	1.6039581068825568	5.167748744010459	0.3153960736040359	1.768038004286419e-19	1.8791535809385411	-0.0207727588064058	-0.2990675452216096	0.2782947864152038	60.04305468048088
3	2.0	ltm	80	diff_vonmises	0.0136345875116868	0.7812043198214341	4.38638480937575	0.4263408180094888	0.1592738500509642	1.1983394613911316	0.1223714193769379	-0.185918088921328	0.3082895082982659	61.63206715547565
4	2.0	perception	80	diff_vonmises	-0.0153861643651753	-0.8815622810191307	7.454324206392805	1.2483495067819053	0.4425507850402679	1.9923054320092377	0.8650261632032283	-0.3465455370832949	1.2115717002865232	47.39260685631382
5	2.0	wm	80	diff_vonmises	0.0454584108971005	2.6045750877753724	4.506895920120379	0.4817247226575096	0.2364373499662798	1.3755065992311577	0.1216065623263091	-0.2156665415698964	0.3372731038962057	59.52548083930324
6	3.0	ltm	80	diff_vonmises	0.0700837775539119	4.015504666172849	1.6028322386323546	77.78099465025748	1.5771585029834392	78.20772214426832	0.1521177532498114	-0.1588323011751384	0.3109500544249499	68.66596926839895
7	3.0	perception	80	diff_vonmises	-0.0162637030149627	-0.931841542011557	4.823008106494741	1.7785168715451192	0.4414308894021998	2.16553084259486	1.0020886839757543	-0.3268662412062903	1.3289549251820447	58.34737251668244
8	3.0	wm	80	diff_vonmises	-0.0342723682675012	-1.963662055645909	2.842412002688639	0.8968458741257515	0.67620691521193	1.5292211203418804	0.1413022834171519	-0.1907012362717512	0.3320035196889031	66.21646126576098
9	4.0	ltm	80	diff_vonmises	-0.143171246508889	-8.203108172586465	1.319292481637301	147.814337533807	1.3027444555344223	148.71422327150552	0.0856446735414238	-0.2452411682930595	0.3308858418344833	72.22450433175118
10	4.0	perception	80	diff_vonmises	-0.0806810602237652	-4.622684237462567	2.8010293363883787	2.057927827504164	0.2226013597787626	3.0385565740586795	0.6990187227996612	-0.4128721365781967	1.1118908593778578	76.3278828043666
11	4.0	wm	80	diff_vonmises	-0.1243743042550405	-7.126122713689818	1.244739322896931	257.9741733965174	1.233364308260116	259.1190646503948	0.0977071622814094	-0.3032394485716665	0.4009466108530759	74.1590048618198
12	5.0	ltm	80	diff_vonmises	0.0543951417761901	3.116612049791445	1.5109944083282107	1.5863330089888248	0.368171189769305	2.160441560198621	0.209704086119712	-0.2051870481042785	0.4148911342239906	93.10778609721385
13	5.0	perception	80	diff_vonmises	-0.03076660196628	-1.7627964426267453	2.3492300949790885	2.003718730015523	0.1620520309516238	2.506545414547021	0.6722713466274588	-0.3331263838191669	1.0053977304466255	84.74070214540694
14	5.0	wm	80	diff_vonmises	0.0751231241073802	4.304237955190376	1.496607207702194	1.2370274686411231	0.1293066627622509	1.856222837600604	0.2002703870592115	-0.2316894127126323	0.4319597997718438	103.34687356171524
15	6.0	ltm	80	diff_vonmises	-0.1616678601206115	-9.262886067822397	0.5099909714759628	141.41034283221305	0.4986024552134334	141.88590284503746	0.1839793254881243	-0.2241878872500518	0.4081672127381761	123.36887461311268
16	6.0	perception	80	diff_vonmises	-0.0389095491061332	-2.229352946538459	0.6696611422885477	144.86629261495477	0.6494927956765769	145.48289448771217	0.3861241195162748	-0.3302327576685417	0.7163568771848166	110.5771039183538
17	6.0	wm	80	diff_vonmises	-0.098681774560975	-5.654049197205325	0.5212692224958433	55.39603534164196	0.4872146988095542	55.88859372235397	0.2324451155364943	-0.2573945159623028	0.4898396314987971	123.94557416460368
18	7.0	ltm	80	diff_vonmises	0.0788057134760347	4.515234783694029	0.9959390716691277	191.92957760621013	0.9826366398939532	192.8042578477013	0.1873729838400777	-0.2611399513486994	0.4485129351887771	86.4111954198732
19	7.0	perception	80	diff_vonmises	-0.0655822785834965	-3.757587773685561	2.1689571262659704	1.5778260548071468	8.3371882995872125e-22	2.4178036201878963	0.4698843965333409	-0.3736395124199405	0.8435239089532813	93.30601858460584
20	7.0	wm	80	diff_vonmises	0.2312214515378889	13.248013306009735	2.318445676029536	0.7536795343917994	0.133044985777662	1.5745931165084617	0.1398234697142664	-0.2203260280998398	0.3601494978141063	83.67291329737563
0	1.0	ltm	391	diff_vonmises	-0.0432213099697035	-2.4763986462907237	4.017064941434491	0.3338365327630884	6.209801493168812e-17	1.826415546637201	-0.033449074711607	-0.2905996422910393	0.2571505675794323	68.3183194578549
1	1.0	perception	391	diff_vonmises	-0.0330327324265168	-1.892636153824352	12.686223824360338	0.6753544679757139	0.0006347701928616	2.3940189544546238	0.5685434825524551	-0.3810364398130326	0.9495799223654876	38.05188550273962
2	1.0	wm	391	diff_vonmises	0.0623900948881548	3.5746891205120046	4.212462651290572	0.4394864527111277	3.66368011388299e-17	2.0060458738880107	0.0282413006809353	-0.3191958784912209	0.3474371791721563	66.67040182182379
3	2.0	ltm	391	diff_vonmises	-0.0064761891248107	-0.371058304180179	2.5562545440446325	1.1758054275195884	0.6698195695156041	1.9184364690344888	0.1671679955137784	-0.2227526516478891	0.3899206471616676	69.05110516897986
4	2.0	perception	391	diff_vonmises	-0.009622794719746	-0.5513455245622231	6.501941090752548	1.2678253493455314	0.3507328958081218	1.9054617625773376	0.8448976893324283	-0.3141215897972744	1.1590192791297027	51.078866154804274
5	2.0	wm	391	diff_vonmises	0.0596386103087424	3.417040666716345	4.524122110145644	0.5589913846177934	0.268172643916205	1.3243762767992275	0.1886656763953527	-0.2061517516854403	0.394817428080793	59.61108739089596
6	3.0	ltm	391	diff_vonmises	0.0258157913055209	1.4791358865968782	2.1103622894314444	1.3575465809441578	0.7341748880597657	1.8582279843662255	0.1824640631589169	-0.171959184900814	0.3544232480597309	74.33479029632818
7	3.0	perception	391	diff_vonmises	-0.0131145412245803	-0.7514078624187865	4.728320608545785	1.599295750143209	0.2422485473407582	2.0619176388244105	0.9339036681330624	-0.3123661218112534	1.246269789944316	60.33215142976417
8	3.0	wm	391	diff_vonmises	-0.0281455700085141	-1.6126223734778469	2.433743178388463	1.197175049133642	0.6670618645335551	1.7763116676375923	0.2001466538821742	-0.1935963220506926	0.3937429759328668	71.45988949762486
9	4.0	ltm	391	diff_vonmises	-0.1812156994087595	-10.382894757633288	1.5143740374666474	4.323476495949527	0.971755301141194	5.282564976800796	0.1067075239066053	-0.2591106578384206	0.3658181817450259	75.01924094651696
10	4.0	perception	391	diff_vonmises	-0.094407710391364	-5.409163358918526	2.441868024722296	2.337438012895591	0.1903443885522533	3.3611244109705414	0.7172922828346134	-0.4472465342492377	1.164538817083851	81.93739332093799
11	4.0	wm	391	diff_vonmises	-0.110837134958826	-6.3505000464626455	1.212325784852225	265.0298142867227	1.2004417535463854	266.1891821255916	0.1415705812706846	-0.3175142561401429	0.4590848374108276	76.12657009277302
12	5.0	ltm	391	diff_vonmises	-0.0124298169389613	-0.7121760507227034	1.2192405326688185	1.7867734173184744	0.2112130996271831	2.2443959087586003	0.2474308788396574	-0.2263075246922911	0.4737384035319486	109.06424574650376
13	5.0	perception	391	diff_vonmises	-0.0436863079204529	-2.5030410663508924	1.86185276167574	2.715951131694661	0.3304029313006502	3.025561225113127	0.6894047690307281	-0.3161588317937178	1.005563600824446	89.8815122304118
14	5.0	wm	391	diff_vonmises	0.077091376410819	4.417010505194325	0.750273077849941	123.10945151872303	0.7336728692743973	123.4943506537884	0.2780484173178692	-0.2103739016019759	0.4884223189198451	104.66975225799058
15	6.0	ltm	391	diff_vonmises	-0.0874239531741404	-5.009023545227587	0.4711301552243446	151.18080086033012	0.4607618952059325	151.48931449982695	0.2174540622361007	-0.2114481637114753	0.4289022259475761	128.53436611411448
16	6.0	perception	391	diff_vonmises	-0.0608374429305526	-3.4857287162886754	0.6844119094262536	228.78976834736503	0.6714702967989951	229.1215596609219	0.4710894359083042	-0.3067616488828619	0.7778510847911662	111.10687883892044
17	6.0	wm	391	diff_vonmises	-0.0751238556351011	-4.30427986864138	0.5978185665103984	54.35652971560794	0.5613062572185404	54.57648012450397	0.3180315616042684	-0.2267905616682135	0.5448221232724819	119.24384397837667
18	7.0	ltm	391	diff_vonmises	0.0512510257378135	2.9364674704930747	0.8666838185379167	108.76420391032684	0.8416492477714783	109.7525933335446	0.2115253376057211	-0.2997034414444304	0.5112287790501515	93.27852163060837
19	7.0	perception	391	diff_vonmises	-0.039063621580344	-2.238180649049878	2.4785619921572186	1.8560255813224769	0.0449242672082848	2.74481145639747	0.6316297038810124	-0.4097943052255076	1.04142400910652	85.64478353355824
20	7.0	wm	391	diff_vonmises	0.2061173743001154	11.809655631714872	2.468060472916015	0.8012646827448141	2.9910962046190834e-16	1.6491453553393685	0.2062009376678098	-0.2591033614596154	0.4653042991274252	87.52380754974357
0	1.0	ltm	57	diff_vonmises	0.0378902453227236	2.170951141707375	3.916459137984431	0.3158075876405622	1.7773491522493317e-18	3.478050854106597	-0.3135275946447095	-0.5534538219275213	0.2399262272828118	69.20728672036063
1	1.0	perception	57	diff_vonmises	-0.0051644228132264	-0.2958996308189565	13.484173402033395	0.6934566927010335	0.0171359628729312	3.929995207014648	0.3697051779924925	-0.6296967004672251	0.9994018784597176	36.76479710967274
2	1.0	wm	57	diff_vonmises	-0.0148717937489787	-0.8520910156055217	3.8100854762299217	0.3930473896752001	1.9846527826137927e-20	3.755848663107391	-0.3035120924269112	-0.5976175594180011	0.2941054669910899	70.19134169568568
3	2.0	ltm	57	diff_vonmises	0.0466502106148377	2.672860181626599	3.462028180344779	0.5995565545646353	0.0793054069965202	2.393574893901655	0.0139233433820655	-0.3679372613163673	0.3818606046984328	69.66682008632387
4	2.0	perception	57	diff_vonmises	-0.0162704613899132	-0.9322287683725878	6.840793273055374	1.3817968621494543	0.2329429815720698	3.2254864025945804	0.7741100697161659	-0.5330427820965151	1.3071528518126811	49.921445719247714
5	2.0	wm	57	diff_vonmises	0.0192692184594157	1.104044892240098	3.5705240146064523	0.7620610975826666	0.1225142881279746	2.8334514608493	0.04259950175319	-0.4337808575741384	0.4763803593273285	67.44059890909378
6	3.0	ltm	57	diff_vonmises	0.0559773232521633	3.2072643707884856	3.785702247702047	0.5960233106262949	1.2629405923554645e-17	2.004616601200536	0.1255832191066576	-0.3188156603243604	0.4443988794310181	70.42355117762011
7	3.0	perception	57	diff_vonmises	-0.004737007207374	-0.271410520505586	4.304465237761386	2.1661657390387736	0.1734359124204032	3.5049847666908214	1.0746108056649402	-0.5302791745332809	1.604889980198221	63.29052815703838
8	3.0	wm	57	diff_vonmises	-0.0524993994909437	-3.007994017802337	3.9817979325948825	0.6899614755692891	7.270655516383874e-13	2.379742033083009	0.1504146507088692	-0.3785636123213142	0.5289782630301835	68.62113697756527
9	4.0	ltm	57	diff_vonmises	-0.0087337870529532	-0.5004091373002213	1.9392762789851212	0.7116325513619705	2.297696437014741e-18	3.3687760946038754	-0.1758501048141516	-0.5287048489016171	0.3528547440874654	98.45163212995575
10	4.0	perception	57	diff_vonmises	-0.0290845741589864	-1.666423348245181	1.644147240471152	4.599527326735149	0.3597922350885653	7.070341433103601	0.5448470492038928	-0.7329009873571657	1.2777480365610585	89.0154354175524
11	4.0	wm	57	diff_vonmises	0.0053903125964276	0.3088421620315106	0.6459881537691989	199.22433147128265	0.6297831329711449	202.17845547584187	-0.1881126736825891	-0.58566693339111	0.3975542597085209	94.99416267900035
12	5.0	ltm	57	diff_vonmises	-0.0437665652002816	-2.507639469760281	1.814384219815556	1.0398333859819715	2.601644148499459e-16	2.241148849621596	0.1489373868363041	-0.3432642900177172	0.4922016768540213	101.54701616322404
13	5.0	perception	57	diff_vonmises	-0.0206075766915662	-1.1807271704189135	1.5095390889108835	4.340168279965988	0.3635745319741082	5.472961396353308	0.6746127509220929	-0.509252446593085	1.183865197515178	94.5583375036673
14	5.0	wm	57	diff_vonmises	0.0102901634933394	0.5895829386679462	1.49393049483518	1.3832615387576668	5.077600287877082e-10	2.8036868589590465	0.1514506134491691	-0.4160986013878052	0.5675492148369743	110.65007037651256
15	6.0	ltm	57	diff_vonmises	-0.0955297919890469	-5.473453898735054	0.9452734073596356	1.3997791395370345	3.8805337951674924e-20	2.4057107273143474	0.0809000809806419	-0.3128503259461791	0.393750406926821	130.8288972654305
16	6.0	perception	57	diff_vonmises	-0.0262248188775386	-1.5025714401779713	0.8104640200925509	4.273209229293467	0.1733910257154275	5.309275399832325	0.3085715243432548	-0.4469369938892721	0.755508518232527	126.20895279105804
17	6.0	wm	57	diff_vonmises	0.0417556131412481	2.3924204039745187	0.4428850839840632	247.3245874928722	0.4339976376229928	248.50587620252057	0.1294605367189802	-0.3775399268210364	0.5070004635400167	127.12709033917372
18	7.0	ltm	57	diff_vonmises	-0.0125540666147372	-0.7192950327505354	0.8308840799821275	176.57545661692612	0.8139276499329322	178.5036579327117	-0.0189748938500784	-0.4216898049228597	0.4027149110727812	87.62439968601254
19	7.0	perception	57	diff_vonmises	0.1365999807688193	7.826602379621558	0.6266478225312383	208.03882087038195	0.606459222278386	209.8607984300621	0.3100843446157739	-0.5713265917557315	0.8814109363715055	109.54822662117564
20	7.0	wm	57	diff_vonmises	-0.0388388946953256	-2.225304746995202	0.6874931733476184	135.3227147109729	0.6689381082149894	137.42252991995477	-0.107030004273426	-0.4263247696983185	0.3192947654248925	93.42232295647152
0	1.0	ltm	276	diff_vonmises	-0.101891230347002	-5.837937468278515	2.9660694652082	0.4254103340724613	4.0316348719817694e-20	1.8875174840800029	-0.0235877509897545	-0.2996733717897833	0.2760856208000288	79.79336047408307
1	1.0	perception	276	diff_vonmises	-0.0654079531479377	-3.7475996619662624	15.036872934711582	0.6566994158192726	1.2368198841524008e-18	2.357025611008086	0.6319210787095724	-0.3751322769860442	1.0070533556956165	34.936866847907055
2	1.0	wm	276	diff_vonmises	0.0065343038337829	0.3743880317319157	3.875730654680428	0.4519192547925427	1.0179340268964317e-18	2.0403118513788434	0.0167603415050843	-0.3245788145068221	0.3413391560119064	69.58301624633992
3	2.0	ltm	276	diff_vonmises	-0.0208633067791368	-1.1953794251312184	2.767240418084325	0.9374838382918604	0.4377384288025502	1.7763265321233497	0.1684685553308018	-0.2333274270598474	0.4017959823906493	70.46393100855943
4	2.0	perception	276	diff_vonmises	-0.0302188866807485	-1.731414668390989	6.619767525200899	1.2179988820905137	0.2568048880555319	2.016402794968119	0.8164706823687926	-0.3291478809730006	1.1456185633417932	51.06207012288928
5	2.0	wm	276	diff_vonmises	0.0035184769650314	0.2015938804103025	4.141427791054365	0.6039607139661323	0.2172181531410376	1.5013673346886716	0.1797694669991322	-0.2300292842446698	0.409798751243802	62.56029787040637
6	3.0	ltm	276	diff_vonmises	-0.0087567637591219	-0.5017256055908003	1.928203616766977	1.845194055277321	0.6732751013223078	2.5263601971397684	0.2249881801757522	-0.2252501719967148	0.4502383521724671	77.59750133050775
7	3.0	perception	276	diff_vonmises	-0.0335973717075964	-1.9249876015775185	4.223600799881353	2.029281465749359	0.2765393019608103	2.692016247876127	1.0528009000443856	-0.3971761325760153	1.4499770326204011	63.159440363475255
8	3.0	wm	276	diff_vonmises	-0.0839101206205951	-4.807695769993764	1.988897841272885	2.1137692949323577	0.7505724820632187	2.9077610273083145	0.2313094837225704	-0.2552180420059341	0.4865275257285045	74.98313625805247
9	4.0	ltm	276	diff_vonmises	-0.1881888208748665	-10.782425187673295	2.268476179677525	1.361161842829718	0.5104087757725665	2.438303113498898	0.1509975953774764	-0.2857072105979276	0.436704805975404	73.96963950119837
10	4.0	perception	276	diff_vonmises	-0.0960611275837166	-5.5038971858147	2.28487587112742	2.690625971521705	0.2010622541720799	3.856809526400282	0.7604306115838376	-0.5007285339539724	1.26115914553781	84.06127095211664
11	4.0	wm	276	diff_vonmises	-0.1424569365286183	-8.162181225452876	1.1589757712859543	325.0128964800654	1.148328246535562	326.33706332818144	0.1541137829573244	-0.3567871740431485	0.510900957000473	77.80935829958077
12	5.0	ltm	276	diff_vonmises	-0.0095844495547092	-0.5491485084408791	1.0654151965448626	2.699663319720351	0.3413983802164039	3.135254338501288	0.2737648611048805	-0.2310661314943848	0.5048309925992653	108.70178343811136
13	5.0	perception	276	diff_vonmises	-0.0239530234791488	-1.3724071519329974	1.6505482734706405	3.092399789363509	0.3533485709437363	3.428084564640953	0.6664363183458776	-0.3272806623536997	0.9937169806995771	93.62174871795024
14	5.0	wm	276	diff_vonmises	0.010587427532789	0.6066149135294197	0.7218524180419326	117.3543317688658	0.7042536544421201	117.80630055157972	0.2648611420882574	-0.2229747973410116	0.487835939429269	106.1301933026303
15	6.0	ltm	276	diff_vonmises	-0.1356654765066668	-7.773059229463231	0.3759801636171766	131.0399223933694	0.3652433549698958	131.40044523379902	0.1764098020170728	-0.2151491123151174	0.3915589143321902	137.65150619010137
16	6.0	perception	276	diff_vonmises	-0.0137172092747455	-0.7859381981406295	0.6642033909267205	198.3380192888781	0.6499992742264987	198.75273011994983	0.4216359257061768	-0.3055772167525461	0.7272131424587229	112.08869582403656
17	6.0	wm	276	diff_vonmises	-0.0650833619392078	-3.7290019556389873	0.4916403483462248	109.49426635434392	0.475207115698478	109.84144872673212	0.2513470680040477	-0.238373119435165	0.4897201874392127	126.89561006577836
18	7.0	ltm	276	diff_vonmises	0.0107311850387165	0.6148516118923895	0.9500151878953692	136.41797906542917	0.9293056865468472	137.34240235870584	0.2333621810060151	-0.2899844909413644	0.5233466719473796	89.36269014131409
19	7.0	perception	276	diff_vonmises	0.0215757963210805	1.236202068831806	2.0236419867248605	1.8507277674310856	2.933615633820536e-16	2.7756875145188182	0.5197851026020045	-0.4249657732082021	0.9447508758102068	96.47727495364924
20	7.0	wm	276	diff_vonmises	0.1003834245430077	5.751546559384309	0.8575585907218188	9.017195530519754	0.635867663734123	9.895264573452192	0.1420609863390098	-0.254961804676484	0.3970227910154938	99.13585059885318
0	1.0	ltm	443	diff_vonmises	0.0132009981071743	0.7563614769012801	6.489696263348845	0.3623227630223109	0.0293965217636035	3.624555082860862	-0.2334183277340246	-0.5782240672973445	0.3448057395633199	52.13106927179624
1	1.0	perception	443	diff_vonmises	-0.0125827064185258	-0.7209359726337013	13.302725095693711	0.6962518521960465	0.041484188467752	4.023638182395333	0.3358487813255409	-0.6524068325565716	0.9882556138821126	36.839968756675006
2	1.0	wm	443	diff_vonmises	-0.0185852081424278	-1.064853987933287	3.8735952273054055	0.5612663908095804	0.0757141598359913	4.116322171972286	-0.2816317700119913	-0.6461829639847059	0.3645511939727145	64.4308694515241
3	2.0	ltm	443	diff_vonmises	-0.0061048553663331	-0.3497824470286833	2.500982299115195	1.084679589779233	0.3241608266416126	2.628610589525202	0.0757611507184318	-0.3551444645621583	0.4309056152805901	73.54760374085208
4	2.0	perception	443	diff_vonmises	-0.0276686545493637	-1.5852971304839862	6.7723536593890765	1.279948538913881	0.2713714035154528	2.9008887014347517	0.7075330210088786	-0.4830039240070452	1.1905369450159238	49.91626579342969
5	2.0	wm	443	diff_vonmises	0.0068091662410203	0.3901364876134263	3.477147618854667	0.896222230042875	0.2135659080615685	2.692648320512838	0.1132417377212626	-0.4049773365516917	0.5182190742729544	66.55764769660334
6	3.0	ltm	443	diff_vonmises	0.0066965919213673	0.3836864542157517	3.014672826544602	0.8964270705179183	0.1753497658959699	2.25137496888755	0.164987983426678	-0.3280576802769815	0.4930456637036596	72.59279142247024
7	3.0	perception	443	diff_vonmises	-0.0165191693020983	-0.9464786820723052	4.425129547392582	2.044009541940728	0.2338171363618381	3.328300450548517	0.999886384287301	-0.5040825072083293	1.5039688914956302	61.75965320539302
8	3.0	wm	443	diff_vonmises	-0.0261989988153744	-1.5010920595891986	3.39012619713041	0.8783942141000871	0.1373192330209989	2.49848803742709	0.1622945434706768	-0.3756140857225792	0.537908629193256	69.56444600454535
9	4.0	ltm	443	diff_vonmises	-0.1140356292103814	-6.5337602678736255	2.1015090274751635	1.0212709450844168	0.0224261872730767	3.243703622907047	0.0148949678936506	-0.4966236582623323	0.511518626155983	92.62552054882784
10	4.0	perception	443	diff_vonmises	-0.0409582464615777	-2.346734658505042	2.0660429164483403	3.0354741511232635	0.2036502668734152	5.097149908186252	0.612670002312097	-0.6531530943312821	1.2658230966433792	86.50900877690376
11	4.0	wm	443	diff_vonmises	-0.0916469206271544	-5.250981757306395	0.7822413398123341	282.6745508986051	0.7686383180976842	285.14956057951787	-0.0024114388340876	-0.5486290531299289	0.5462176142958413	90.94907338067044
12	5.0	ltm	443	diff_vonmises	-0.0433135019052464	-2.4816808551024696	1.6798045408227824	1.4230362309004587	0.0141820101166437	2.4578033169874525	0.2635184535276998	-0.3626980147118853	0.6262164682395852	104.30864808416736
13	5.0	perception	443	diff_vonmises	-0.027051021644913	-1.549909371770557	1.529809358654516	4.1231995675039	0.3738316862142865	5.065294793085521	0.6756278684783015	-0.4660075523295388	1.1416354208078403	94.17892441424968
14	5.0	wm	443	diff_vonmises	-0.0131273891176664	-0.7521439924682511	1.0833516602740407	3.544241685619006	0.3327723938406459	4.625216506182107	0.2678331136831602	-0.3691034753090644	0.6369365889922247	105.66433221178607
15	6.0	ltm	443	diff_vonmises	-0.0661089353823058	-3.7877629855092025	0.9317097916415196	1.788450889227679	1.1717923275487445e-19	2.4666558691057614	0.1953819195095418	-0.3013621146153969	0.4967440341249388	131.44947182888484
16	6.0	perception	443	diff_vonmises	-0.0028620448821782	-0.1639830925258321	1.2541717818486868	2.139340914566826	1.2590766503836171e-14	2.872377625283105	0.3752653112157468	-0.3893910735542036	0.7646563847699506	118.71001229153632
17	6.0	wm	443	diff_vonmises	-0.0376355959850073	-2.156360809400425	0.4668819467024744	223.27620090022728	0.4566687231717825	223.978055763082	0.2559868195055657	-0.3329959481882802	0.5889827676938459	127.6365147928194
18	7.0	ltm	443	diff_vonmises	-0.0484107009436017	-2.773728847338373	0.7583891363930128	218.37494876980645	0.7445560588473151	219.9037700448702	0.1286497259466159	-0.3919960758899847	0.5206458018366007	96.45195162735206
19	7.0	perception	443	diff_vonmises	0.0494087386507669	2.830912195753854	0.7053252471255759	265.9363516839026	0.6897700466086094	267.30929965516583	0.4003648082379811	-0.490252958587444	0.8906177668254252	104.80474451984978
20	7.0	wm	443	diff_vonmises	0.0869626707639682	4.982594009961092	0.7784440962001041	165.93689999180643	0.7616256942759619	167.46915533902785	0.078883998567413	-0.3710560426487888	0.4499400412162018	93.97503740537408
0	1.0	ltm	253	diff_vonmises	-0.1433158009132318	-8.21139052986533	3.930352169888444	0.4078214412540942	4.010491519229329e-13	1.1108300252865613	0.1337584066457184	-0.1766743333326202	0.3104327399783386	69.0812899093462
1	1.0	perception	253	diff_vonmises	-0.0860721587320638	-4.931571428927355	16.137684176556014	0.7093718054077003	5.892277201318036e-14	1.6778733851475045	0.8607369236153095	-0.2670418431285303	1.1277787667438397	33.7104488960305
2	1.0	wm	253	diff_vonmises	-0.0349009209653062	-1.9996754724317	6.804277082683506	0.3854653036389429	4.140754970205405e-22	1.1973339120753834	0.2026263821776762	-0.190561127045064	0.3931875092227404	52.17448212947616
3	2.0	ltm	253	diff_vonmises	-0.1256745294527903	-7.200620129937445	1.6280065099336796	79.23878637620786	1.598073719190784	79.52761437920381	0.2749184276790544	-0.1624351088798761	0.4373535365589305	70.84822544231986
4	2.0	perception	253	diff_vonmises	-0.0575985624429488	-3.3001545340017038	7.263119712996389	1.0787427633787017	0.2648147284965842	1.439548008526356	0.8449013252160004	-0.2369399083579426	1.081841233573943	49.099366628000695
5	2.0	wm	253	diff_vonmises	-0.0387736701809991	-2.2215676576035017	4.27941500887828	0.5647222284834198	0.4264577181585334	0.8789412477713571	0.2455493396433456	-0.1309628896800931	0.3765122293234387	60.710397228182046
6	3.0	ltm	253	diff_vonmises	-0.0473104509176767	-2.7106891644437088	1.508392634813272	117.78539905327835	1.4913691932772373	117.88874685053578	0.3061486969559723	-0.1256189139942503	0.4317676109502226	75.63367455007867
7	3.0	perception	253	diff_vonmises	-0.0533981483831777	-3.059488536169405	4.078467086715062	2.000884091575154	0.5525310703850769	2.134947481800102	1.006958086096779	-0.2940197672073665	1.3009778533041456	62.38378418571554
8	3.0	wm	253	diff_vonmises	-0.1048803636227668	-6.009202189381948	1.7058908963419794	129.07906523037653	1.6880320571894514	129.2676988375942	0.2983882007609466	-0.1459062001370128	0.4442944008979594	69.99692679962976
9	4.0	ltm	253	diff_vonmises	-0.2100488027565849	-12.034909889728208	1.6442663732885443	121.84416421797545	1.623013807166113	122.12784055887369	0.3111742288146431	-0.1732810805451432	0.4844553093597863	70.6933448144799
10	4.0	perception	253	diff_vonmises	-0.1328153900577425	-7.609761304692441	2.7387114298711146	2.1690206664877905	0.2173533104877953	2.631135698408548	0.8337515434671463	-0.3502652727356249	1.184016816202771	78.05283084915706
11	4.0	wm	253	diff_vonmises	-0.2112247561916695	-12.102287058462467	1.4655799180624864	256.0885539925514	1.455202954186514	256.59861653833104	0.2517535280455263	-0.206484034386154	0.4582375624316803	72.87684612515147
12	5.0	ltm	253	diff_vonmises	0.0234517048783289	1.343683711914612	0.7567175808530784	38.76304360404386	0.7104797639611651	38.59634622271222	0.3897670380339075	-0.1500961859250544	0.539863223958962	110.878489820437
13	5.0	perception	253	diff_vonmises	-0.0402652784063023	-2.307030513600376	2.476652329484861	1.713349167016646	0.0463766199617699	1.566307324987366	0.7432125507517464	-0.2307706285276136	0.97398317927936	86.30733915144637
14	5.0	wm	253	diff_vonmises	-0.0336054828673635	-1.925452336799127	0.9483550103665956	95.59318168632906	0.932039267287096	95.45948825600018	0.3403432684098177	-0.1082231292252631	0.4485663976350809	98.65563911795144
15	6.0	ltm	253	diff_vonmises	-0.1357603641002324	-7.7784958881026975	0.3629971471545056	64.19642958327019	0.3459909537509216	64.06505614105033	0.2268640259888599	-0.1244119734358495	0.3512759994247094	141.8260545200206
16	6.0	perception	253	diff_vonmises	-0.0276318575801191	-1.5831888194473964	1.0994427419844128	2.25611963828185	0.168453775359121	2.27595408039486	0.3874904044393321	-0.2137090000936644	0.6011994045329965	117.40257539913964
17	6.0	wm	253	diff_vonmises	-0.2274656510115015	-13.032821787154726	0.6624204599907111	73.4408707645884	0.6447231474864848	73.24781852319462	0.2999889357597816	-0.1125052678601683	0.4124942036199499	117.18262255695636
18	7.0	ltm	253	diff_vonmises	0.0967889958661279	5.545600966438306	0.961103320073601	98.2834040506656	0.9404646743868924	98.32319401698946	0.3720107191441073	-0.1544160696283878	0.5264267887724952	95.98352405220125
19	7.0	perception	253	diff_vonmises	-0.0767141073069163	-4.395394577800017	1.93424020638243	2.0502694152625858	0.3256656997263606	2.0361441773182	0.5993279431516422	-0.2128106056326451	0.8121385487842873	89.61369945916795
20	7.0	wm	253	diff_vonmises	0.1889053220115834	10.8234776788235	2.418122094395548	0.7374390244714819	5.226407713148071e-17	0.6943148293969906	0.3156678504907582	-0.1071211185527307	0.4227889690434889	88.42154229171294
0	1.0	ltm	132	diff_vonmises	-0.0130555770739506	-0.7480294654451284	2.4463385708877823	0.3789415596490686	1.6348961911485555e-20	2.3386700806423635	-0.1517163290615025	-0.3705568264133009	0.2188404973517984	87.94186200821801
1	1.0	perception	132	diff_vonmises	-0.0428852683341949	-2.4571448788354067	14.407998060314055	0.5888029827616278	1.7279261497021628e-19	2.7224259856358937	0.4499417809461848	-0.4332875528155074	0.8832293337616923	35.70630383569252
2	1.0	wm	132	diff_vonmises	0.0165994214427737	0.9510767910298956	3.8440795584755656	0.3843989439196081	2.5996271221809296e-15	2.4730953245826157	-0.104419861040636	-0.3934728344325794	0.2890529733919433	69.87048608289399
3	2.0	ltm	132	diff_vonmises	0.0148824008838852	0.8526987596683931	3.423654148106896	0.6547731588547775	0.1737474624012756	2.046374577783715	0.0774251324352492	-0.3082463302016433	0.3856714626368925	67.84845287421396
4	2.0	perception	132	diff_vonmises	-0.0138057265923043	-0.7910098668505648	6.645419729322968	1.2456213141094967	0.1920540802688148	2.678760129811516	0.743061637730733	-0.4355472529501202	1.1786088906808532	51.04927813864947
5	2.0	wm	132	diff_vonmises	0.0451986375385002	2.589691170697639	4.2617454420197625	0.5535543528376089	0.1169930987388839	2.094709018500326	0.0670017005249905	-0.3266488549761194	0.3936505555011099	62.50308470720347
6	3.0	ltm	132	diff_vonmises	0.0371744158447356	2.1299371337676103	2.180379622675752	1.4741850940656305	0.4783952669853414	2.72526120894616	0.1396369970247759	-0.3194267671504738	0.4590637641752497	75.27814402158779
7	3.0	perception	132	diff_vonmises	-0.0238060156350412	-1.3639842229103154	4.3174911457991945	2.0958281530191494	0.1722184300088088	3.3790041152461967	1.0453889134792258	-0.5114525607429834	1.5568414742222092	63.22515109280371
8	3.0	wm	132	diff_vonmises	-0.0310346502515477	-1.7781544780783038	2.986311327215642	0.8769051566855911	0.2215551869269557	2.369891766706468	0.1078249695094326	-0.3437102367397087	0.4515352062491413	71.11710066069901
9	4.0	ltm	132	diff_vonmises	-0.1065108804638436	-6.102623922800656	2.3080448643134983	0.881596801767463	0.2464123362124527	2.8274162884529948	-0.071485419812406	-0.3939964138562216	0.3225109940438156	75.46174838367071
10	4.0	perception	132	diff_vonmises	-0.0789023545010395	-4.520771906554619	1.732381881208154	3.925295740429456	0.336790324352213	5.913754471862908	0.5742556983963971	-0.6358695992162435	1.2101252976126406	88.6419730242159
11	4.0	wm	132	diff_vonmises	-0.0949368273039411	-5.439479524878187	0.9247732016815896	315.2398524893563	0.9139649317726252	317.4712009072552	-0.0777935808980743	-0.476122765734452	0.3983291848363777	81.00865029629705
12	5.0	ltm	132	diff_vonmises	0.0028529087950612	0.163459633292763	1.8005572629890083	1.106495683116805	0.0705554557660355	2.0435953104654883	0.1869854223784384	-0.2880964757673734	0.4750818981458118	97.58455105333148
13	5.0	perception	132	diff_vonmises	-0.0431374098383692	-2.471591522864672	1.570356456869107	3.730615651736168	0.3776825618479219	4.601998593493843	0.6299961694795457	-0.4289604282237168	1.058956597703263	93.13639328528552
14	5.0	wm	132	diff_vonmises	0.0221138058341367	1.2670277432678143	1.15056743310259	2.1574166724537016	0.2396306308365726	3.25001399448917	0.1501955373830261	-0.3214258622416879	0.4716213996247141	106.4660891649846
15	6.0	ltm	132	diff_vonmises	-0.1563078848314405	-8.955782105458484	0.4146620304923649	119.11745801892528	0.4017242350799692	120.0129428018209	0.0785846901476681	-0.2794117151156037	0.3579964052632718	130.0755435491892
16	6.0	perception	132	diff_vonmises	-0.0550046020551635	-3.151531551557483	0.6021159996084041	231.3036218054989	0.589719117045057	232.2582451578737	0.2908534360840704	-0.3737444955053206	0.6645979315893911	113.76998292316271
17	6.0	wm	132	diff_vonmises	0.0158879535419774	0.9103126830552344	0.5015906699386208	168.4078909081896	0.4904365368977999	169.38894731399455	0.1105568757495234	-0.3027063988309688	0.4132632745804923	120.64287324115206
18	7.0	ltm	132	diff_vonmises	-0.0766106025934591	-4.38946419455921	0.989898947152066	176.95049975789098	0.9699127403571928	178.7178955984577	0.0762433590531799	-0.423668826713147	0.4999121857663269	82.4604258811579
19	7.0	perception	132	diff_vonmises	0.041079453171194	2.353679291414726	1.3790146035103428	3.0509106453719195	0.1431167658046467	4.828684036923741	0.3738808297881567	-0.5829723892971674	0.9568532190853242	105.4405601991568
20	7.0	wm	132	diff_vonmises	0.0164973955583537	0.9452311384515392	1.31460731463005	1.8392466911318208	0.3374167779164984	3.64931311233694	-0.0553027951998027	-0.3770503666089935	0.3217475714091907	90.05755884270496
0	1.0	ltm	109	diff_vonmises	0.0030864889301678	0.1768427892124655	6.352128655188303	0.4015737170734223	0.0642247206053923	3.52633279000586	-0.2027062488722016	-0.5670625537520692	0.3643563048798675	51.731403473195
1	1.0	perception	109	diff_vonmises	-0.003114211392483	-0.1784311693008386	11.870382450664824	0.7353907486438287	0.0715246228639152	3.8798113753365615	0.3372276419577831	-0.6367547833632919	0.973982425321075	38.77843779274926
2	1.0	wm	109	diff_vonmises	0.0085804754266298	0.4916250281616036	4.087137926868993	0.6502782289645137	0.1395290263918131	4.026047723250409	-0.2273284849713194	-0.6367209725795872	0.4093924876082677	61.05783588107565
3	2.0	ltm	109	diff_vonmises	-0.0813124301251423	-4.658859068123071	2.4821613139021754	1.2245866170413549	0.3855098338667465	2.774602829592816	0.0928337499140685	-0.3659257553542773	0.4587595052683458	72.55221302963224
4	2.0	perception	109	diff_vonmises	-0.0345764330281727	-1.9810836831310412	7.093544321378928	1.1535172429743636	0.2094122330733678	2.8224807334286277	0.6546177728741662	-0.4663497457832878	1.120967518657454	49.20103112934336
5	2.0	wm	109	diff_vonmises	0.0260979149645949	1.4953003815626051	3.871900452258595	0.7838094994652872	0.2055118675350856	2.477951928914767	0.1126369787421397	-0.3804395750946048	0.4930765538367446	63.64645909062861
6	3.0	ltm	109	diff_vonmises	-0.0293078477957933	-1.679215985310753	1.889093606274308	1.9162183850088932	0.5539100122064734	3.059312968985033	0.1691505404917568	-0.3079114845631767	0.4770620250549335	78.38145799762725
7	3.0	perception	109	diff_vonmises	-0.0227651356450705	-1.304346192505375	4.286286920224837	1.86230667502502	0.2509835837017393	2.9922600184984334	0.8840190476428493	-0.4495247288935283	1.3335437765363776	62.49917843547544
8	3.0	wm	109	diff_vonmises	-0.0136843557656106	-0.7840558307250057	2.186996779083957	1.4869185200582165	0.4578329852828717	2.7816360597307868	0.1449689170266882	-0.3295817399079845	0.4745506569346728	75.65343591471091
9	4.0	ltm	109	diff_vonmises	-0.1242515910032744	-7.119091762273294	1.3525194316390752	2.80249374963672	0.422321609831694	4.664604281986988	0.0568601427763277	-0.4292774871159622	0.48613762989229	89.00564582549771
10	4.0	perception	109	diff_vonmises	-0.0882479503601325	-5.056235106315588	2.041051411830018	3.109961724245548	0.302774386351507	4.870850857301645	0.5984868198364004	-0.5783177658054969	1.1768045856418974	84.25374457443883
11	4.0	wm	109	diff_vonmises	-0.1430254689328185	-8.194755732729975	0.8928045959922231	285.5599472405141	0.8807303953106228	287.5431780325482	0.0243190530187575	-0.4507338845039044	0.475052937522662	85.4695848939248
12	5.0	ltm	109	diff_vonmises	-0.0226419602628098	-1.2972887629619236	1.5112345676047303	1.7166751271076224	0.075841722405899	2.869303323681822	0.255000524911425	-0.3863397342480474	0.6413402591594725	105.40611339720915
13	5.0	perception	109	diff_vonmises	-0.0588962584029617	-3.374507035601621	2.116824776309628	2.6691270174018227	0.1992227796405331	3.7281005590129914	0.7078219843577305	-0.4731388187248199	1.1809608030825505	87.0600411923597
14	5.0	wm	109	diff_vonmises	-0.0317501365016527	-1.8191488205089643	0.7387335262917973	250.7306980343457	0.7269761238480122	251.81958047580508	0.247085891677429	-0.3493395596283832	0.5964254513058123	101.21473494246558
15	6.0	ltm	109	diff_vonmises	-0.0347265781964686	-1.989686367588677	1.098499167524448	1.5177214709188744	9.739513709329612e-15	2.3095679024048485	0.1791868579122357	-0.3068136212920489	0.4860004792042846	124.58126516194989
16	6.0	perception	109	diff_vonmises	-0.0759864574254532	-4.353703310628983	0.995764900353976	2.3133420895940247	8.307745795978254e-12	3.141062705363085	0.2887089133490909	-0.3922749889437269	0.6809839022928178	128.72007648387105
17	6.0	wm	109	diff_vonmises	-0.1497110523225594	-8.577811444544896	0.5763748969536869	170.0517505572197	0.5636186772805023	170.76024104013328	0.2259771503472336	-0.289071320063778	0.5150484704110116	116.38996462931745
18	7.0	ltm	109	diff_vonmises	0.012478436060107	0.7149617211679873	0.6710842644650062	189.2140510471224	0.6560027476425687	190.49819857919857	0.1881863523418374	-0.3766369546778314	0.5648233070196689	104.87171855396028
19	7.0	perception	109	diff_vonmises	-0.0559149028812388	-3.203687946978871	0.8937826323602445	311.57566789576674	0.8792714648721047	312.60425479486105	0.5337519921757234	-0.4341293024278378	0.9678812946035612	94.69027954835012
20	7.0	wm	109	diff_vonmises	0.1414776471499834	8.106072077135114	1.783183327485057	1.7523169100268183	0.3502074181190197	2.884958290720596	0.2110131124731795	-0.3180935963474974	0.529106708820677	86.08770428586507
0	1.0	ltm	207	diff_vonmises	-0.0633400563308357	-3.629117901877776	5.124722645212974	0.2211720678357795	1.546916814447489e-18	1.696525511502729	-0.0757120020273683	-0.270003546042622	0.1942915440152536	60.29920999818231
1	1.0	perception	207	diff_vonmises	-0.029214571046558	-1.6738716212528697	13.579490752670733	0.7167763519906286	0.0587104252756356	2.42202989449329	0.6350406379427825	-0.3955531667197823	1.030593804662565	36.511716290152606
2	1.0	wm	207	diff_vonmises	0.0173161357854149	0.99214149797973	5.210223897935322	0.3140821855794051	1.4017763077941454e-16	1.9345472704614195	-0.0295057591437948	-0.3078844602051281	0.2783787010613332	59.784589286351206
3	2.0	ltm	207	diff_vonmises	0.0447140982249601	2.5619291130236213	3.943481445346933	0.4851740170693659	0.2521630288203546	1.2119641504444496	0.1257865715861104	-0.1842216572560781	0.3100082288421886	63.24064080921647
4	2.0	perception	207	diff_vonmises	-0.0119576173169171	-0.6851210052919013	7.211413875526219	1.3505824604450736	0.5382321988277335	1.995143619922852	0.913285493694784	-0.3498997967630419	1.263185290457826	47.7873146458781
5	2.0	wm	207	diff_vonmises	0.0436619164279568	2.50164353677484	4.314775329349162	0.5084259982264828	0.2461949501879186	1.3612842660809874	0.1342875847003223	-0.21127284931037	0.3455604340106924	60.71769875810145
6	3.0	ltm	207	diff_vonmises	0.0971086592872321	5.5639163313322895	2.074424335919331	1.9947705762057	1.227181076681839	2.363820202607492	0.1439262517997178	-0.1400895865315108	0.2840158383312287	67.92967355943787
7	3.0	perception	207	diff_vonmises	-0.0078521023211453	-0.4498923233065082	5.030024168535359	1.7218870490166012	0.465760896511239	2.0166697000400458	1.0129375321569336	-0.3074935038729995	1.3204310360299332	57.211483500171454
8	3.0	wm	207	diff_vonmises	-0.0285825331777368	-1.63765851887697	3.6760784546333976	0.6055341720867078	0.4842240667867947	1.1726044811205456	0.1585755177855706	-0.1706839682536798	0.3292594860392504	62.58613999502987
9	4.0	ltm	207	diff_vonmises	-0.1572834678312633	-9.011678893913045	1.276835725145096	146.91522902264478	1.2605249894347634	147.82886118522896	0.0813360770910378	-0.2447151090631507	0.3260511861541886	73.33486734421797
10	4.0	perception	207	diff_vonmises	-0.0616263734000268	-3.530931102518819	2.971957473911885	1.9095565692194008	0.1548412683372695	2.92334051114895	0.7039328376098861	-0.4155812874990296	1.1195141251089158	75.59301711325924
11	4.0	wm	207	diff_vonmises	-0.106401877847336	-6.096378532918884	1.2232071785565242	252.96614472639325	1.2113459662994774	254.13818709905	0.1059930632937096	-0.310604957672286	0.4165980209659956	74.99307766547204
12	5.0	ltm	207	diff_vonmises	0.0316287608212529	1.812194506286526	1.8375591792470447	1.0441270957251187	0.1761432201899012	1.4947253005871892	0.2301524736622286	-0.1863268231349407	0.4164792967971693	93.06664450580152
13	5.0	perception	207	diff_vonmises	-0.0248369809797911	-1.4230541859887356	2.2847488584574167	2.056947570390547	0.1661557404998844	2.372147882431296	0.7066202263349721	-0.3101469072195718	1.0167671335545438	86.06963972560447
14	5.0	wm	207	diff_vonmises	0.092018752125812	5.2722861328695005	1.725579374962294	1.033167046865178	1.3900601439329952e-19	1.4911799317726964	0.2499689784263055	-0.2218763964428183	0.4718453748691238	103.86906174704112
15	6.0	ltm	207	diff_vonmises	-0.1347281884829435	-7.71935658151573	0.5182952774257804	116.81450134979356	0.5051243940894401	117.08682422018975	0.2206126427513766	-0.1963035475293129	0.4169161902806895	124.34103366453763
16	6.0	perception	207	diff_vonmises	-0.0258674121605197	-1.4820935437231657	0.6845092410708119	92.1933137869254	0.6538804238832258	92.5575641650027	0.436861914404588	-0.2990230769781519	0.7358849913827399	111.47418737568088
17	6.0	wm	207	diff_vonmises	-0.0519608951781501	-2.9771399934296747	0.4875821341327059	47.94221023116133	0.44872798487019	48.1910139146063	0.2873049923823032	-0.2399984578090439	0.5273034501913472	129.07668802811307
18	7.0	ltm	207	diff_vonmises	0.0932738457460062	5.344197700200425	1.012674085780061	179.48807164110605	0.9993010613432262	180.273282677178	0.1856065435457452	-0.2404838867728749	0.4260904303186201	86.00517489433525
19	7.0	perception	207	diff_vonmises	-0.0391298278672882	-2.241973989869011	2.039161401501781	1.5623242264916586	6.094670062013158e-18	2.291598974867387	0.4507404633962023	-0.350908300603758	0.8016487639999603	96.12656322889902
20	7.0	wm	207	diff_vonmises	0.2007241966202093	11.500649312492095	1.517080179646204	1.22340002090039	0.2850827446349234	1.9734870662960544	0.1242014460840692	-0.2123456966646957	0.336547142748765	93.83013205952838
0	1.0	ltm	305	diff_vonmises	-0.0015583282528272	-0.0892856319829945	6.264258835479105	0.4105277195553464	0.0303186322886588	3.4804927975093456	-0.1698397648069876	-0.5545061552888131	0.3846663904818254	53.1595373904525
1	1.0	perception	305	diff_vonmises	-0.0457900239358006	-2.6235751153243942	15.850367490390571	0.6305544362434918	0.0094711893454869	3.785375378339062	0.3848505384466458	-0.6049470120303175	0.9897975504769634	33.959937390477705
2	1.0	wm	305	diff_vonmises	-0.0568390213848453	-3.25663603700547	4.144515450009298	0.6051142095173542	0.102076859880595	4.041196181013684	-0.2361364234023744	-0.6375472789788524	0.401410855576478	61.803333823924135
3	2.0	ltm	305	diff_vonmises	-0.0576979823845773	-3.3058508770564496	2.17256781758922	1.5436285417263964	0.4121163853279642	3.17821403366388	0.1046162561929145	-0.3897625357488919	0.4943787919418065	75.90669961481026
4	2.0	perception	305	diff_vonmises	-0.0508368451364558	-2.912736670079088	6.8611930656874405	1.170080620780044	0.1943245222963592	2.935750501834359	0.6365755476616757	-0.4815645295407781	1.118140077202454	50.05113911018029
5	2.0	wm	305	diff_vonmises	-0.0342884917148647	-1.9645858611310405	3.224264466827289	1.0093807527359018	0.2311547802892915	2.897935708065145	0.1151904571052918	-0.4282263188350105	0.5434167759403024	68.37529441277547
6	3.0	ltm	305	diff_vonmises	-0.0449108597333734	-2.573202717026333	2.087353094728646	1.8795473022837093	0.378637357986935	3.5150130522418706	0.2064905139780217	-0.4199109529190125	0.6264014668970344	79.23119817963476
7	3.0	perception	305	diff_vonmises	-0.0419424972677315	-2.403128075680005	4.0774695906336405	2.339456413459879	0.2574854510932312	3.929361456119873	1.0216525199857136	-0.5853673423503415	1.6070198623360552	63.70575192520676
8	3.0	wm	305	diff_vonmises	-0.0497053479626622	-2.8479066574897303	2.512877304717654	1.4457943634611234	0.2841082545129991	3.3601597285327225	0.1582826258080405	-0.455746513319015	0.6140291391270556	75.0957915358128
9	4.0	ltm	305	diff_vonmises	-0.1493543493869661	-8.557373871795473	2.2140574845800924	1.2055846012708145	0.013173774793217	3.4106514435932933	0.1111191013663522	-0.527802128655403	0.6389212300217553	91.30620001570432
10	4.0	perception	305	diff_vonmises	-0.0622340568519133	-3.56574879959186	1.986151880052049	3.1788881621582603	0.1940898235215926	5.32030751392038	0.6144619165422187	-0.6787530066034247	1.2932149231456431	88.28298316654721
11	4.0	wm	305	diff_vonmises	-0.1588737196046939	-9.102793608893808	0.8111636308297376	234.62180550210007	0.7936609186649076	237.07600755754248	0.0419694537337846	-0.5602923438451519	0.6022617975789366	90.3463656961303
12	5.0	ltm	305	diff_vonmises	-0.0325947056962142	-1.8675390708641009	1.554208782162316	1.8233169281072688	0.0680878026045479	2.738264926677462	0.3409891520277682	-0.3706027825231467	0.711591934550915	105.08819059321291
13	5.0	perception	305	diff_vonmises	-0.0335352606331741	-1.921428899152096	1.589373476932756	3.6636387926895257	0.319006365411551	4.521998142520882	0.6782395118461362	-0.4510784662949581	1.1293179781410942	94.68760455108024
14	5.0	wm	305	diff_vonmises	-0.066640087577763	-3.818195764588006	0.7307155519870676	207.4611444487853	0.7162228717167264	208.42349318289132	0.2967626242608077	-0.3461595633398424	0.6429221876006501	103.07364411019022
15	6.0	ltm	305	diff_vonmises	-0.0797944672320631	-4.571886200892161	0.7954096427011804	1.8810567785236323	1.5663089419921564e-17	2.419624807758212	0.1844156658053032	-0.269047344714008	0.4534630105193112	137.52667738265205
16	6.0	perception	305	diff_vonmises	0.0094021293019256	0.5387023274366206	1.2300368776112545	1.8162462089469849	8.749354518747627e-19	2.4405864134663693	0.3102015737499443	-0.328743361849502	0.6389449355994463	119.58775396574651
17	6.0	wm	305	diff_vonmises	-0.0790443341059417	-4.528906738692452	0.4607052921637475	205.7968825628532	0.4515758302349184	206.341197157859	0.2191555256125639	-0.272476702049655	0.4916322276622189	128.42384517488702
18	7.0	ltm	305	diff_vonmises	-0.0791490973712442	-4.534909231642293	0.7951402359674283	222.61073564963084	0.780863591836902	223.85779264621763	0.2327957344401028	-0.3704019542048584	0.6031976886449613	96.75385636337204
19	7.0	perception	305	diff_vonmises	0.034673763229108	1.9866602928637955	0.6823329746515244	252.58538627720677	0.6671045756522104	253.71921598696167	0.4166777818896179	-0.4530649379223455	0.8697427198119634	107.48882676315546
20	7.0	wm	305	diff_vonmises	0.0526096840487081	3.014312857507707	0.8671349866741953	127.38221903924112	0.8449614139383451	128.62254390150125	0.1516062950843348	-0.331500645412671	0.4831069404970058	91.19621382702434
0	1.0	ltm	472	diff_vonmises	0.0281461629126198	1.6126563443807638	5.631681570343804	0.371310675687981	0.0105555185814855	3.7754159870681794	-0.2643261545066195	-0.5996347235802915	0.3353085690736719	56.71439798438723
1	1.0	perception	472	diff_vonmises	-0.0007993101699742	-0.0457970992614111	12.48093805257821	0.6877991126152372	0.0301862554383535	4.117165408003341	0.2841017499111817	-0.6632295989831642	0.947331348894346	38.08748900567542
2	1.0	wm	472	diff_vonmises	0.0269569236444073	1.5445179534809574	3.1054592919820863	0.6578817673131694	0.0699997495306943	4.25282678672741	-0.2856589751159833	-0.6568971465777825	0.3712381714617992	71.64107527826687
3	2.0	ltm	472	diff_vonmises	0.008229644122994	0.4715238751421995	2.591717679482531	1.015918903737342	0.2893837123532178	2.6238515889207785	0.0652165836205665	-0.3631878961613884	0.428404479781955	73.16738310690766
4	2.0	perception	472	diff_vonmises	-0.0181449035324344	-1.039626392080515	6.347390745191639	1.3185167197161654	0.2508679079797001	2.918628726377171	0.7092326813777043	-0.4783492462228903	1.1875819276005948	51.61710598859523
5	2.0	wm	472	diff_vonmises	0.0311740731187666	1.7861428199375606	3.651804274284754	0.8727164289988464	0.2000395952447544	2.6619124249048065	0.1259046043068581	-0.4040685376313732	0.5299731419382313	65.49457576335465
6	3.0	ltm	472	diff_vonmises	-0.0013349194840016	-0.0764852524230744	3.371394091604247	0.7372217278147731	0.0370286322255201	2.1723560364286243	0.1570775639029216	-0.3360287123730766	0.4931062762759982	72.92258974668735
7	3.0	perception	472	diff_vonmises	-0.0108438633423771	-0.6213076031348395	4.197846984339161	2.0025502831213053	0.1620847592552777	3.329092872896332	0.9615258967277548	-0.5028935849033291	1.4644194816310838	64.129111445105
8	3.0	wm	472	diff_vonmises	-0.0266601463337664	-1.5275138661259942	3.3692375678688014	0.8792004810136148	0.0919024234357692	2.501590850264648	0.1792302790572571	-0.3792788622912777	0.5585091413485348	71.09942126006652
9	4.0	ltm	472	diff_vonmises	-0.0759306030472268	-4.350503090489283	2.029642103442784	0.9284255719264376	7.671579410658678e-19	3.295079084106058	-0.0412097507462002	-0.5160864792871116	0.4748767285409114	96.33782798929656
10	4.0	perception	472	diff_vonmises	-0.0485187794492058	-2.7799212895655665	1.6902861252970682	4.263613806393019	0.3248138994551308	6.349370300181655	0.6236416004844467	-0.6795435835956398	1.3031851840800863	89.98266934132087
11	4.0	wm	472	diff_vonmises	-0.0512641480452674	-2.9372193233276533	0.7459183732704857	269.6385565094877	0.7317935511783356	272.2370167497716	-0.0282796081552589	-0.566831690515663	0.538552082360404	92.6456161582847
12	5.0	ltm	472	diff_vonmises	-0.0629625781299957	-3.607489994111455	1.331988693933691	1.8098987733731111	0.0868808517621125	3.057726751688433	0.2000207089868505	-0.3944645807662785	0.5944852897531291	110.0647477790871
13	5.0	perception	472	diff_vonmises	-0.0229525300609549	-1.3150831016398676	0.9137704248551298	40.680072829909385	0.788036992367097	41.81867497281248	0.6325387896091925	-0.5044506943615095	1.136989483970702	96.9394818784956
14	5.0	wm	472	diff_vonmises	0.0074515504133139	0.4269423895118526	0.6350793171437303	191.4756361280503	0.6193444138051226	192.7564319017297	0.2267939779309244	-0.4033946052397699	0.6301885831706944	108.7286707186554
15	6.0	ltm	472	diff_vonmises	-0.0561689766987183	-3.218245304405225	0.7075113044004714	3.180410109718626	0.127253707612848	4.193601332531522	0.1546147225550381	-0.3643567089683721	0.5189714315234103	132.95638860793383
16	6.0	perception	472	diff_vonmises	-0.0181716083806062	-1.0411564671732938	0.9239679705207374	4.642726764830751	0.2327813872078151	5.64033401624917	0.4017121485765389	-0.462308447606395	0.8640205961829339	118.51714166712416
17	6.0	wm	472	diff_vonmises	-0.0161234873608687	-0.9238077768103032	0.483438707094515	281.21870388772345	0.4739446045797176	282.2706754853868	0.2428517592764905	-0.405350589118072	0.6482023483945625	124.66788382230015
18	7.0	ltm	472	diff_vonmises	-0.0669470340394858	-3.8357825013812	0.6916117986531165	184.4958654114001	0.6746852090815193	186.52959545452464	0.0258353447698667	-0.4663317372486197	0.4921670820184864	98.1261395909945
19	7.0	perception	472	diff_vonmises	0.084806786681801	4.859070950933481	0.7427083954192439	253.28496854966423	0.7231607721013698	255.1616709768164	0.4024735091076081	-0.5915097298297809	0.993983238937389	100.99276432732805
20	7.0	wm	472	diff_vonmises	0.0897830879857539	5.144192013235429	0.7338376763867828	174.62273808632654	0.7161353790189183	176.6615258012719	0.0033180878180942	-0.4552476743090885	0.4585657621271828	94.410456546462
0	1.0	ltm	282	diff_vonmises	-0.0157122292334315	-0.9002444218177001	3.904455141895626	0.2991214180375495	2.8771940199676e-19	2.696347264915996	-0.202176649164647	-0.4290448257387949	0.2268681765741478	69.31601777023644
1	1.0	perception	282	diff_vonmises	-0.0191590022816139	-1.097729970417992	13.94885877239552	0.679116243513236	0.0162106832620534	3.241026436305496	0.4782494619661072	-0.5191193091508373	0.9973687711169444	36.16685137142403
2	1.0	wm	282	diff_vonmises	0.0094029730276738	0.5387506693610588	3.30617845508703	0.4224963766550271	2.174456034341186e-19	2.987007032602285	-0.1830782332757655	-0.4750040727300814	0.2919258394543158	75.49630518379445
3	2.0	ltm	282	diff_vonmises	0.0753380833549887	4.316554212845652	3.85294914045312	0.5064773964153707	0.1027971111397999	1.753993846245366	0.0729220659522318	-0.2703552271767179	0.3432772931289498	66.03838647551902
4	2.0	perception	282	diff_vonmises	-0.0106894815085682	-0.6124621756240969	6.8438169440458925	1.3723137089559172	0.3474800980771335	2.56306011112491	0.8434609704067377	-0.431792169414444	1.2752531398211815	49.51308823852136
5	2.0	wm	282	diff_vonmises	0.0331082566258701	1.896963371698405	3.832763429070736	0.6704380252102662	0.1742292606625226	2.1163050464731232	0.105655000710425	-0.3241688807147235	0.4298238814251485	64.64901636831243
6	3.0	ltm	282	diff_vonmises	0.0635511152313089	3.641210686103565	3.774445985854296	0.5659148129084368	0.1588673698352477	1.4861290600277877	0.1459473682932502	-0.2253689651627647	0.371316333456015	66.11323547519603
7	3.0	perception	282	diff_vonmises	-0.0052543449163187	-0.3010517878110833	4.599090647892826	1.9605593609197327	0.2463342777006325	2.7938614885830497	1.0652793839210664	-0.4230754879897199	1.4883548719107864	60.86449341767764
8	3.0	wm	282	diff_vonmises	-0.0434874956246259	-2.4916499608847023	4.0772852127176025	0.6316263972417503	0.1120123409080191	1.797347443696108	0.1716912820038509	-0.2768544255689975	0.4485457075728484	64.64727656622134
9	4.0	ltm	282	diff_vonmises	-0.1148420784516212	-6.579966405788196	2.3476932169879734	0.7938558123059714	0.173104039205805	2.569823476441247	-0.031875935560835	-0.3652688413661166	0.3333929058052816	78.44581645086345
10	4.0	perception	282	diff_vonmises	-0.0434934511827787	-2.491991189231499	2.208743911389813	2.874076936209617	0.2301059531182548	4.556695881146048	0.6729049525506349	-0.5814138361726795	1.2543187887233145	83.76470420472438
11	4.0	wm	282	diff_vonmises	-0.0506379872918356	-2.901342954859279	0.908184119732808	334.14178568240897	0.8977625787328346	336.2187835593053	-0.0062782272998447	-0.4623912704360009	0.4561130431361562	83.83492118586585
12	5.0	ltm	282	diff_vonmises	-0.0236377518304583	-1.3543434170628978	1.6488738587630487	1.1575513485117483	0.0841520912779531	2.0753789496693016	0.1723802590402209	-0.283479631429551	0.455859890469772	100.71608169989564
13	5.0	perception	282	diff_vonmises	-0.0073287604069355	-0.4199070403799893	1.5203636666985392	3.968001647984992	0.3951186975919893	4.774198700166585	0.6475453638746769	-0.4245917272023084	1.0721370910769852	93.99565634149432
14	5.0	wm	282	diff_vonmises	0.053357455343415	3.0571569967354444	1.4744476749358544	1.3252029707961412	2.1195469220905647e-21	2.3716648750211373	0.1906135573231545	-0.347696364444655	0.5383099217678096	111.24539422597188
15	6.0	ltm	282	diff_vonmises	-0.1250648398734268	-7.165687490226811	0.4357188633458767	166.85963234718366	0.4249786911116924	167.65637911763943	0.1453664523498332	-0.293726676014753	0.4390931283645862	129.24099371026097
16	6.0	perception	282	diff_vonmises	-0.0059155864992093	-0.3389381397492644	0.6184065370737954	174.86427878855451	0.5991621066803574	175.68922217178266	0.4184970230925771	-0.4096546919731967	0.8281517150657738	114.34038741155352
17	6.0	wm	282	diff_vonmises	0.019707101118432	1.1291337205236989	0.4335149283168569	194.7012442824063	0.4216510766785639	195.6070918147388	0.2158848691642205	-0.3675370133805167	0.5834218825447373	130.26917949709193
18	7.0	ltm	282	diff_vonmises	0.0202402619665795	1.1596815869241672	0.8966121479649534	188.05418710455243	0.8811639132905232	189.6395886047216	0.0476237533748999	-0.3699622450742801	0.4175859984491801	86.22339583300038
19	7.0	perception	282	diff_vonmises	0.0931374713310757	5.3363840217913445	1.6767480150449112	1.9844698183993976	7.670850746432247e-18	3.5312702856339486	0.3577380795204931	-0.529860792215401	0.8875988717358941	105.21251572249388
20	7.0	wm	282	diff_vonmises	0.0783559604253157	4.489465832064697	0.6367504476639945	121.79551301378292	0.6191173071848116	123.47633592415512	-0.0449588936772613	-0.360068857589642	0.3151099639123806	99.75068283443731
0	1.0	ltm	380	diff_vonmises	0.0584330299202917	3.3479659985943804	3.734355871129416	0.2718888267864842	1.5849915523829944e-14	2.3423888930127035	-0.1715039212975616	-0.3726878813410052	0.2011839600434436	70.92135631931845
1	1.0	perception	380	diff_vonmises	0.0023581102335113	0.1351097640068069	11.364097797710487	0.6683772008116594	0.0258610007361413	2.911928294787566	0.4130275551194464	-0.4672212757478968	0.8802488308673433	40.00848443732272
2	1.0	wm	380	diff_vonmises	0.0678623816517078	3.888228056348897	4.300073197161587	0.3728639132069161	3.3162845353720705e-18	2.513759439616644	-0.1019050727403068	-0.4000223524728618	0.298117279732555	65.96418132607457
3	2.0	ltm	380	diff_vonmises	0.0517025622117347	2.9623386047449776	3.104372880127783	0.7968452389186454	0.3670099928178796	1.980777902306838	0.09205274970116	-0.2841247605907962	0.3761775102919563	66.93055244792203
4	2.0	perception	380	diff_vonmises	0.00952005099279	0.545458742636198	6.459334757750475	1.382166052495243	0.3206392980731965	2.524046966460289	0.8321496828744724	-0.4174984627777029	1.2496481456521753	51.05616077334105
5	2.0	wm	380	diff_vonmises	0.095427839248413	5.467612436986939	4.450287520653475	0.5471713001273847	0.1651684066105469	1.8305915326433708	0.1043538126046435	-0.286519975728309	0.3908737883329525	60.61570793629042
6	3.0	ltm	380	diff_vonmises	0.0947813059029067	5.430568804974955	3.0457682124083134	0.7040891074589195	0.3402540715237645	1.565926262091392	0.1247885557950347	-0.2206243108730373	0.345412866668072	68.88953655537685
7	3.0	perception	380	diff_vonmises	0.0053762104971742	0.3080341712620148	5.166381158628086	1.6208855378574498	0.1411472413432513	2.492455568408509	0.9755750612765696	-0.3869524066576763	1.362527467934246	58.464212734685816
8	3.0	wm	380	diff_vonmises	0.0284616788998504	1.6307340788179778	4.040598512662247	0.5508681396603178	0.1335321380676344	1.5991919075997003	0.1362568489429691	-0.2459506065620206	0.3822074555049897	64.37994714114026
9	4.0	ltm	380	diff_vonmises	-0.1114974936338605	-6.388335811506972	1.934685086479424	0.9856852489718662	0.3352082759348034	2.7628946247558166	-0.0995612675717149	-0.355661522810599	0.2561002552388841	76.57910419004514
10	4.0	perception	380	diff_vonmises	-0.0535619876015334	-3.0688758318999096	2.1039431842597303	2.6843537213554094	0.2100083985394147	4.508330125787026	0.5522592559197337	-0.5781899842651104	1.130449240184844	85.64963421712955
11	4.0	wm	380	diff_vonmises	-0.0279241558487383	-1.5999362765982623	0.9628384077268028	267.094809945952	0.9505757791655212	269.1276614769612	-0.0539191091072126	-0.4419226329260226	0.38800352381881	79.93195097168564
12	5.0	ltm	380	diff_vonmises	-0.0214122184517445	-1.226829747297111	1.9465235648605088	0.8862764167159017	7.009048746019077e-19	1.681330866635021	0.1821807620511336	-0.258424054555833	0.4406048166069666	98.2732878716973
13	5.0	perception	380	diff_vonmises	-0.0560114165374258	-3.2092177721437616	1.735778160318346	3.333288760615061	0.369525589290907	3.983467429986577	0.6909484695398744	-0.3931115818924799	1.0840600514323544	90.50281049454875
14	5.0	wm	380	diff_vonmises	0.1070300247114279	6.132368697145729	1.4164733882662257	1.539280669904158	0.1352371382856002	2.3806022185082933	0.2122833674628496	-0.2915549856694657	0.5038383531323154	105.03807890340642
15	6.0	ltm	380	diff_vonmises	-0.0830432612516897	-4.758028386724107	0.5049643070327412	136.4717143696775	0.4928433925728834	137.10589585298692	0.1534829134814757	-0.2448160281314475	0.3982989416129232	122.65296315556834
16	6.0	perception	380	diff_vonmises	-0.0899667729922025	-5.1547163888647685	0.6356123299959267	233.21737698270505	0.6229947936054521	233.8595150552445	0.3850852382975205	-0.344456002092393	0.7295412403899135	113.03284804827187
17	6.0	wm	380	diff_vonmises	0.0321656531825054	1.842956172639108	0.5573462896247655	113.29628618918927	0.5393450594903433	113.94039180400792	0.2201098766483049	-0.2759556764312361	0.496065553079541	118.74363744293832
18	7.0	ltm	380	diff_vonmises	-0.0064584051952802	-0.3700393600749236	0.9058741693829716	93.39600031733208	0.8722327686482207	95.09510158778878	0.0593356534586462	-0.3993602494644239	0.4586959029230701	86.43920037725547
19	7.0	perception	380	diff_vonmises	-0.006284027686386	-0.3600482647732779	1.683826798885392	2.901649858203962	0.199807121984761	4.486096863457294	0.4850441140400167	-0.5377425459747851	1.022786660014802	94.74780820982524
20	7.0	wm	380	diff_vonmises	0.1128312103455895	6.464752150155113	1.6040270247217825	1.2009026053878773	0.1831637705214759	2.846247418351505	0.0022465175450659	-0.3610987831015434	0.3633453006466094	92.45278971596528
0	1.0	ltm	259	diff_vonmises	-0.15414297643379	-8.831741991240676	1.8404231352432037	0.3493900617413408	1.2676737345516813e-18	1.744169496838401	-0.106211106835492	-0.27327401899395	0.1670629121584579	100.8369835684662
1	1.0	perception	259	diff_vonmises	-0.0453081697842618	-2.595966906100365	15.652894129903354	0.6529851997427644	2.5224045599192023e-20	2.245117208171035	0.6644517674422252	-0.3573215015010701	1.0217732689432952	34.24428371532019
2	1.0	wm	259	diff_vonmises	0.0236461517705041	1.354824698175688	4.233870704886133	0.309906542860165	4.387363766232781e-22	1.8340186654541568	-0.0461587738730576	-0.2918414895747154	0.2456827157016578	66.49607865727091
3	2.0	ltm	259	diff_vonmises	0.0169182784339899	0.9693459508948222	5.2912207760659244	0.3138318161131873	1.0722820259146504e-22	1.2581233776343044	0.0802158023519593	-0.2002294430279462	0.2804452453799055	59.316831407101176
4	2.0	perception	259	diff_vonmises	-0.0207835670540118	-1.1908106754220231	7.981979625194495	1.212801257212074	0.3173243250003659	2.153673437537292	0.8849773066356292	-0.3689997817173431	1.2539770883529724	46.370843036513264
5	2.0	wm	259	diff_vonmises	0.0291818435393455	1.671996473215609	4.735707532617084	0.3808541775407412	0.1083108676523657	1.4615202625333965	0.0623229140793768	-0.23000730734906	0.2923302214284369	59.76791284701568
6	3.0	ltm	259	diff_vonmises	0.0711226795117086	4.075029363682477	1.4809316792401468	72.16130972803484	1.452789975107299	72.66049027345721	0.1456005595290577	-0.170885874224469	0.3164864337535267	71.08026542851923
7	3.0	perception	259	diff_vonmises	-0.0207222733977319	-1.1872988076062605	4.435154945619353	2.0348718054525	0.4125004505746631	2.467244820547541	1.0859257172069894	-0.3623810469069285	1.448306764113918	60.81032676244666
8	3.0	wm	259	diff_vonmises	-0.0848569393783015	-4.861944488774158	2.761058211326387	0.9242548770364764	0.6024025062256824	1.6332393159161624	0.1427197706043232	-0.2051681065089026	0.3478878771132259	67.80739500457707
9	4.0	ltm	259	diff_vonmises	-0.0898317735441482	-5.14698149025466	1.3039640210276229	143.97314018036948	1.2866976221305582	145.03742788286797	0.031788729205644	-0.2695880420834271	0.3013767712890711	70.77895038136802
10	4.0	perception	259	diff_vonmises	-0.0918588155968557	-5.263122444770334	2.4897829387890718	2.580653129833923	0.3447515791978901	3.72211533537418	0.7053043674887073	-0.4604150292970076	1.165719396785715	77.6973197103591
11	4.0	wm	259	diff_vonmises	-0.1245933092746521	-7.138670777005744	1.1947597861314294	250.8352605329948	1.183536792762395	252.1585119082572	0.0231778762154277	-0.3208885083599142	0.344066384575342	73.53751936531157
12	5.0	ltm	259	diff_vonmises	0.0869590505477101	4.982386586848579	1.763343108358191	1.103758960928869	0.28086924584178	1.881625550502892	0.1386342056435728	-0.2178765931337961	0.356510798777369	88.64292511969873
13	5.0	perception	259	diff_vonmises	-0.0206970411616381	-1.18585310697041	2.453051914230153	1.9385182230546767	0.1089021131084458	2.6392948432609526	0.6628004892738033	-0.3706205098457781	1.0334209991195813	84.17853528157696
14	5.0	wm	259	diff_vonmises	0.0472572723929583	2.707642259416614	1.4119426270825914	0.9806671101604664	0.0530677691903834	1.9235048921831863	0.0869356468232949	-0.2657922927958833	0.3527279396191782	109.22083633761876
15	6.0	ltm	259	diff_vonmises	-0.2523524510798403	-14.458730396656422	0.4419233001275034	112.51508331633949	0.4295160639464055	113.3609985925157	0.060346664167497	-0.2500208725726889	0.3103675367401859	126.20352683977583
16	6.0	perception	259	diff_vonmises	-0.0446873794216527	-2.56039823836047	0.5672166103702114	194.65791081508445	0.5526326553455797	195.60494268679213	0.2919384595495913	-0.3838900386076282	0.6758284981572196	117.27917345944364
17	6.0	wm	259	diff_vonmises	-0.0960103888304846	-5.500990069396751	0.4364144257847057	89.24692780708041	0.4175096264270853	90.21249478486408	0.0877990163947828	-0.2994044088715473	0.3872034252663301	128.01471364277342
18	7.0	ltm	259	diff_vonmises	0.0919364587933606	5.2675710722379705	1.0345128660119538	161.16798357059162	1.018990955852371	162.17761600237608	0.1234534280683448	-0.2695176602375788	0.3929710883059236	82.89159414888775
19	7.0	perception	259	diff_vonmises	-0.0234254284590905	-1.3421781839915348	1.878636863757133	1.6360450464769318	5.1708197000181814e-20	2.639381769789063	0.3924998617205783	-0.4010980526337106	0.793597914354289	99.92403181138228
20	7.0	wm	259	diff_vonmises	0.1625142511129217	9.311380699499658	1.4572030294673428	1.3376123267430953	0.3785083108392481	2.380537314010042	0.0354212947883623	-0.2407773981953981	0.2761986929837604	88.36237646758565
0	1.0	ltm	426	diff_vonmises	-0.0334318944719349	-1.9155064543686235	2.660938916903371	0.3750411882579051	1.2549807007278476e-18	2.524804755015284	-0.1725908701046908	-0.400715619054254	0.2281247489495632	84.30965179062179
1	1.0	perception	426	diff_vonmises	-0.0415339576343185	-2.379720478921619	15.113439484336403	0.61487148012495	1.247710959682708e-22	2.933877740872693	0.4782332784612482	-0.4669411448871013	0.9451744233483496	34.85022572042232
2	1.0	wm	426	diff_vonmises	-0.0008967191269813	-0.0513782213846891	3.4718347608893136	0.4102293063158018	2.6298404283915403e-19	2.7228703355667667	-0.1416333077521846	-0.4330768387277272	0.2914435309755426	73.621530603699
3	2.0	ltm	426	diff_vonmises	0.0359302390606147	2.05865105506932	3.7639543031177447	0.5422871150073213	0.0888389012550289	1.9142606205802637	0.070957541474831	-0.2949925970079949	0.365950138482826	67.10216555579589
4	2.0	perception	426	diff_vonmises	-0.0180587106335538	-1.034687902750656	6.832757362387542	1.27079577738699	0.233758929484307	2.655189065848948	0.7724321913024328	-0.4370966318626469	1.2095288231650798	50.11770944793992
5	2.0	wm	426	diff_vonmises	0.02315573944513	1.3267261417105551	3.944674924396676	0.6179061763849214	0.1363727894620786	2.176605919282249	0.0762578294853617	-0.3360882606431914	0.4123460901285531	64.3899042705909
6	3.0	ltm	426	diff_vonmises	0.0334478044092399	1.916418026628515	2.792500743381241	0.9502266610489118	0.3014892687810673	2.1311642173297027	0.1490036952951768	-0.2950153470159177	0.4440190423110945	72.04752629130044
7	3.0	perception	426	diff_vonmises	-0.0218965823427011	-1.2545817539974584	4.266396323318052	2.16480531640054	0.2158343805245662	3.317815360944963	1.0760561055488882	-0.4978652478499982	1.5739213533988865	63.16280685920299
8	3.0	wm	426	diff_vonmises	-0.0559694603173382	-3.206813857808421	3.290566787507711	0.8131272559177324	0.1805502810524516	2.2510949780382283	0.1354558231533469	-0.3345275967940351	0.4699834199473821	69.36830503436954
9	4.0	ltm	426	diff_vonmises	-0.1103777620620333	-6.324179918253725	2.429530409523636	0.8224463895571186	0.1891719417009641	2.723974470963539	-0.0425529715226333	-0.3887033948689762	0.3461504233463429	76.51428136844666
10	4.0	perception	426	diff_vonmises	-0.0663132224040783	-3.7994677696660624	1.9049784328736037	3.521066265434365	0.2999536480367065	5.393797565581586	0.6305802978127646	-0.622174101108933	1.2527543989216976	86.75771775730757
11	4.0	wm	426	diff_vonmises	-0.088011833380534	-5.042706599913215	0.9056062238764576	323.88145819569576	0.8948765216647686	326.0842345865813	-0.0468718245269315	-0.477492196180151	0.4306203716532195	82.84469343100255
12	5.0	ltm	426	diff_vonmises	-0.0041340145054002	-0.2368615836052991	1.61319114447812	1.2960001202995215	0.1279650948229417	2.260384492024221	0.1795203541924585	-0.2920212425337024	0.4715415967261609	99.0693779494099
13	5.0	perception	426	diff_vonmises	-0.0218082145850368	-1.2495186544382586	1.5003666620935503	4.003942118207246	0.3923375287589406	4.899213742077644	0.6233816188298875	-0.4358963328567866	1.0592779516866742	94.23561868628371
14	5.0	wm	426	diff_vonmises	0.0140298235959902	0.8038496793632947	1.2712206266074133	1.683601657065666	0.125658057851224	2.821503164800484	0.1531610838892185	-0.3425192246297729	0.4956803085189915	109.33953308231372
15	6.0	ltm	426	diff_vonmises	-0.1605052453733155	-9.196273149602664	0.400339565586138	157.56441500616342	0.389992994496638	158.4822813753289	0.0909787482754325	-0.2959769317518486	0.3869556800272811	131.8586550545147
16	6.0	perception	426	diff_vonmises	-0.0199064015215172	-1.14055279247574	0.6027292373135097	232.1697225995785	0.589385755654884	233.1499961575274	0.3277726534847147	-0.3996401534143601	0.7274128068990748	114.0979280343958
17	6.0	wm	426	diff_vonmises	0.0118271150328592	0.6776437751985622	0.452020089683598	183.2971371538923	0.4409245325927914	184.34192310243688	0.1303282136432386	-0.3421020561898764	0.4724302698331151	126.53675704757316
18	7.0	ltm	426	diff_vonmises	-0.0474427067120172	-2.718266863275571	0.9602660147634512	189.0378246541412	0.9428726929099756	190.73196510102773	0.0637732741531778	-0.4017562103192205	0.4655294844723983	83.51527384835882
19	7.0	perception	426	diff_vonmises	0.0835464830819941	4.786860873759399	1.5696773628584693	2.149264134769535	8.219789261301066e-10	3.858473904458249	0.3428600874008338	-0.5726478560986354	0.9155079434994692	108.30618719510278
20	7.0	wm	426	diff_vonmises	0.0207074710506434	1.1864506955912046	0.6922844093714788	70.39734059240674	0.6602962464532323	72.18424939146286	-0.0662740930185066	-0.3726339948066819	0.3063599017881753	94.95633856397788
0	1.0	ltm	236	diff_vonmises	-0.0537687020472667	-3.080719697204816	3.8109868788138814	0.3415904277019052	1.0745692155618449e-19	2.5951105233742355	-0.1572619442993641	-0.4128994517910048	0.2556375074916406	70.18168345929234
1	1.0	perception	236	diff_vonmises	-0.0440604308702294	-2.5244767323920705	15.647956929455002	0.6501996473534123	2.2755230869319046e-23	3.046219291274479	0.5322781316354348	-0.4848208579481973	1.0170989895836322	34.25360803509668
2	1.0	wm	236	diff_vonmises	-0.0093962218505468	-0.5383638554049399	4.6711408741474605	0.3718219215454967	1.0067917327863741e-13	2.825550649864652	-0.1388462262202371	-0.4496731016017174	0.3108268753814802	63.22989468034092
3	2.0	ltm	236	diff_vonmises	-0.0429024487121768	-2.458129241984208	3.603719266367228	0.5577389205437079	0.0685863946274421	1.94924049600314	0.0730089573471602	-0.300302261789756	0.3733112191369163	69.16227970817576
4	2.0	perception	236	diff_vonmises	-0.0369306969893521	-2.115973071966372	7.404759489041045	1.179686690398504	0.1964704873922463	2.6294074430888585	0.7530448083366272	-0.433878087859597	1.1869228961962242	48.437388548998086
5	2.0	wm	236	diff_vonmises	-0.0071080714939797	-0.4072624970822913	3.8457914640585065	0.6541274622191592	0.1489927164339768	2.222811702610052	0.0838377341083316	-0.3417322166595383	0.4255699507678699	64.90183857850332
6	3.0	ltm	236	diff_vonmises	-0.0114742185338897	-0.6574242952026681	2.120416103494386	1.4591683398214406	0.4854586484343221	2.4789359363550134	0.174821527293768	-0.279209381033831	0.454030908327599	76.91543345001261
7	3.0	perception	236	diff_vonmises	-0.0319834365960265	-1.8325159312765824	3.9571138102809975	2.2690923341831977	0.3025217087380525	3.2476270915173635	1.0505990191539407	-0.4725526427443014	1.523151661898242	64.52218052346149
8	3.0	wm	236	diff_vonmises	-0.0901147163097094	-5.163192916565078	2.549922234711998	1.2089120560499995	0.3876478922817669	2.4360435631998265	0.1703716219278671	-0.3172597931349312	0.4876314150627984	73.09434680885605
9	4.0	ltm	236	diff_vonmises	-0.1240901244820656	-7.109840412075373	1.927676021492804	1.4417850973219877	0.3704817902827181	3.0757294843083733	0.0420788203546786	-0.3686595025549326	0.4107383229096113	79.52113479849459
10	4.0	perception	236	diff_vonmises	-0.0910699287780211	-5.217922559537612	2.017011866028533	3.493202368207577	0.3596600498577345	5.094705647559029	0.6861791102948929	-0.5735018400522415	1.2596809503471342	83.69377702161825
11	4.0	wm	236	diff_vonmises	-0.1468036964387652	-8.411232222860965	0.9617702219561356	358.9792963785517	0.952462314563313	360.8500807953756	0.0117908628978966	-0.4252027715339324	0.436993634431829	81.82063279230735
12	5.0	ltm	236	diff_vonmises	0.0084180645251356	0.4823195689590745	1.3585654055689809	1.7989195295084714	0.2163340348019933	2.8127951703103307	0.1846845527266319	-0.3087065410822074	0.4933910938088394	101.59286469524528
13	5.0	perception	236	diff_vonmises	-0.0233442976422144	-1.337529730596087	1.9607599372128135	2.64192298332226	0.204891169374218	3.585085393775308	0.6536086290958895	-0.441262952658341	1.0948715817542305	89.9397158844244
14	5.0	wm	236	diff_vonmises	-0.0422267761352642	-2.419416054994389	0.630624742605476	189.5117221967987	0.618005856580351	190.64905502564963	0.1476998316761495	-0.3311911844180386	0.4788910160941881	107.82226471091394
15	6.0	ltm	236	diff_vonmises	-0.1576707440203574	-9.03386818505404	0.3735147067705524	109.81224004919696	0.3592872255499301	110.75299562616966	0.0767354076361641	-0.2980161185639609	0.3747515262001251	134.96301923228486
16	6.0	perception	236	diff_vonmises	-0.0255471820193381	-1.4637457081605818	0.5565701873645139	22.910626626561896	0.4354940803502788	23.90464189140444	0.2845847966845252	-0.411602950294601	0.6961877469791262	123.5489115942257
17	6.0	wm	236	diff_vonmises	-0.1009209326397862	-5.782343504783824	0.4446422691117531	175.50916512561844	0.4336465837325536	176.52040013326456	0.1198557825104771	-0.3288274520165899	0.448683234527067	127.20626654025656
18	7.0	ltm	236	diff_vonmises	0.0310315639935228	1.7779776485189884	0.8717438803634073	183.29617345867675	0.8565438438519611	184.573228876294	0.1298477356468836	-0.3311141545503169	0.4609618901972006	90.16854098683032
19	7.0	perception	236	diff_vonmises	0.0229933038851235	1.3174192696793354	0.84412235421051	14.017064521328482	0.5781032350685028	15.229475646674857	0.3930306852520364	-0.4491546523641609	0.8421853376161974	104.41930711657476
20	7.0	wm	236	diff_vonmises	0.0850748126593036	4.874427708244244	0.826561433824773	86.2718007225755	0.7989952520827107	87.57326170526149	0.0591767642462741	-0.3108797181077936	0.3700564823540677	91.0859419178272
0	1.0	ltm	115	diff_vonmises	-0.0246273327081907	-1.411042224843818	5.852454705074947	0.2909726523993896	0.0107458417423209	2.78896671186378	-0.1744450959084618	-0.4430775646252288	0.268632468716767	55.672485816425535
1	1.0	perception	115	diff_vonmises	-0.0159781597791011	-0.9154811197281792	13.727828995354551	0.6786442317403413	0.0601104849247986	3.282415569644992	0.439377929804725	-0.5374436934981633	0.9768216233028884	36.2104673749013
2	1.0	wm	115	diff_vonmises	0.0669837735215398	3.8378875186443913	4.2122341958954	0.4092640866697627	0.0057802020531106	3.0812342430053525	-0.1695939271808498	-0.4883970958371992	0.3188031686563493	66.08099116760343
3	2.0	ltm	115	diff_vonmises	-0.0111107721736166	-0.6366003526796313	3.870249883309007	0.4742857909577214	0.0687129253263716	1.6886432911823843	0.0705785440266725	-0.2615407436462844	0.3321192876729569	66.85711787609233
4	2.0	perception	115	diff_vonmises	-0.0215225325953677	-1.2331502821473166	7.353600659598768	1.1766915741358317	0.3062491846806672	2.390100076150301	0.7449439812399837	-0.4050811344685601	1.150025115708544	48.01925313160157
5	2.0	wm	115	diff_vonmises	0.0414718868472427	2.3761640847911165	4.061203281173293	0.6864497094570958	0.2338240370111513	2.071072569780158	0.1213098569683718	-0.320100581063091	0.4414104380314628	62.00437097541368
6	3.0	ltm	115	diff_vonmises	-0.0136098572041243	-0.7797873775720423	2.359728324987027	1.1838363917314627	0.5915765172605004	1.9987152538818116	0.1467377769123852	-0.2292218414274882	0.3759596183398734	71.92316564035784
7	3.0	perception	115	diff_vonmises	-0.0194256927591677	-1.1130102092181575	4.187115650467151	1.9059859791527205	0.3298240092518302	2.6714659055515986	0.926803057020548	-0.3930473885019402	1.319850445522488	62.6942448333208
8	3.0	wm	115	diff_vonmises	-0.0443986007271302	-2.543852437951033	2.686800689754836	1.0275675287533632	0.4510991068648237	2.056189147302974	0.1429738513988178	-0.2693237600774132	0.412297611476231	70.33005481198376
9	4.0	ltm	115	diff_vonmises	-0.111268755102286	-6.3752300590357365	1.0014647192027568	141.30440879725927	0.9821550990778404	142.66389795542463	0.0565451702773742	-0.3257133529695863	0.3822585232469606	81.87827392385668
10	4.0	perception	115	diff_vonmises	-0.0906583767252564	-5.194342363864247	2.2138736576921665	3.0474950794533493	0.3800312145438992	4.223625455691609	0.722746125747758	-0.4848782409807217	1.2076243667284796	80.85089832057517
11	4.0	wm	115	diff_vonmises	-0.1129343221119435	-6.470660019185334	1.0242221550959203	302.4300598288538	1.013490382334541	304.00603381322685	0.0703597132715856	-0.3805891696201442	0.4509488828917298	80.8488083942444
12	5.0	ltm	115	diff_vonmises	0.0130217815879669	0.7460931267316702	0.6782578842675403	199.69414747814236	0.6656716368028713	200.997595898328	0.1159829723741694	-0.3450662898176695	0.4610492621918389	102.47376867037968
13	5.0	perception	115	diff_vonmises	-0.0152963736260526	-0.8764176506280399	1.824441777799448	3.024083687341949	0.3061336616741005	4.286086710711071	0.5703869955802306	-0.4762651260593426	1.0466521216395732	88.79893159176828
14	5.0	wm	115	diff_vonmises	0.0113901959983579	0.6526101585327098	0.6100425628334895	200.2593424188185	0.5974018770867943	201.63070068503896	0.1157830954391769	-0.3716485646713217	0.4874316601104986	108.26884127139122
15	6.0	ltm	115	diff_vonmises	-0.1372669055056467	-7.864814352294643	0.4635153015248046	221.2618613012038	0.4535765280954504	222.6048078272466	0.0884146547388482	-0.3860928035193005	0.4745074582581488	123.51285120891588
16	6.0	perception	115	diff_vonmises	-0.0273785453443672	-1.5686750974397938	0.596433020011791	267.489222764644	0.5823389649221706	268.9032129701175	0.3419888718000834	-0.5077544248349248	0.8497432966350082	113.53059026212055
17	6.0	wm	115	diff_vonmises	-0.1465717175068417	-8.397940809125794	0.5123543882250007	146.77044079393838	0.4938780082820453	148.16627472081868	0.1642568240428659	-0.4326712209762142	0.5969280450190801	119.94318162930382
18	7.0	ltm	115	diff_vonmises	0.0599313973394718	3.43381612787331	0.747473772889302	240.5344413245344	0.7358430778118071	242.1218916268636	0.0713697948631733	-0.3817992810630137	0.453169075926187	95.57362122397078
19	7.0	perception	115	diff_vonmises	-0.0265049956053029	-1.5186243841966522	2.314330146964436	1.6932745714832602	1.7908453746898545e-14	3.20184161266384	0.4437938779717687	-0.5002749110754128	0.9440687890471816	90.39717691854943
20	7.0	wm	115	diff_vonmises	0.2371247021011188	13.586244648691036	1.827833466958536	1.511555045773222	0.3141989579260752	3.038585831900813	0.0922428358441883	-0.3610777072195247	0.453320543063713	84.03682036215244
0	1.0	ltm	213	diff_vonmises	-0.0890079397341357	-5.099779289920759	3.6529775767502257	0.3816734932130448	4.113503155449974e-20	1.9627605872913652	-0.0331996727630475	-0.3121955680995045	0.2789958953364569	71.72422583293894
1	1.0	perception	213	diff_vonmises	-0.0527150462032314	-3.0203496642822985	14.661117880734542	0.6733070604809934	5.356377863034591e-21	2.4886753281653498	0.6233680745889187	-0.3960849802281723	1.019453054817091	35.381892306472906
2	1.0	wm	213	diff_vonmises	0.0311934812859401	1.787254826004686	3.748216710248832	0.4650905794634353	6.618479683123621e-19	2.169110717102336	-0.0001664736852871	-0.3450331546510067	0.3448666809657196	70.78540619145133
3	2.0	ltm	213	diff_vonmises	-0.0102565026493662	-0.5876543143734312	3.040284251136182	0.7567426214642403	0.3544594641251966	1.559796016177888	0.1563786366712227	-0.2171419580900636	0.3735205947612864	69.18066892309173
4	2.0	perception	213	diff_vonmises	-0.0259185821956605	-1.4850253707742658	6.767064031350213	1.231297155477452	0.3252054200150263	1.9535151115730356	0.8328345909317934	-0.3239715051972275	1.156806096129021	50.20452040661783
5	2.0	wm	213	diff_vonmises	0.0167054861323554	0.9571538500982892	4.164240859651725	0.6246543638538481	0.2574604577619528	1.4818858778741466	0.1907989779957846	-0.2268886735540829	0.4176876515498675	61.91458816571907
6	3.0	ltm	213	diff_vonmises	-0.0070973026656947	-0.406645488671259	2.262743413737148	1.2308531917210457	0.5888203201000339	1.808088947904718	0.2074824705874131	-0.1932396923479218	0.400722162935335	74.88446024525746
7	3.0	perception	213	diff_vonmises	-0.0260188667369266	-1.4907712517392218	4.27284760303621	1.9123285072365477	0.3174854404839213	2.418670564860571	1.0080754483158323	-0.3551907879905442	1.3632662363063768	62.56472449805338
8	3.0	wm	213	diff_vonmises	-0.0760898379881253	-4.359626580553785	2.26483679796692	1.5536335589027035	0.6981640222751586	2.233791996259717	0.2287544623233762	-0.2266160450699173	0.4553705073932936	72.82044032998391
9	4.0	ltm	213	diff_vonmises	-0.1788575038532976	-10.247780105038812	1.908737457282364	1.896019936158183	0.6704391731325491	2.874388807753595	0.1490928218728334	-0.2691482619076717	0.4182410837805052	75.73422860416639
10	4.0	perception	213	diff_vonmises	-0.0938173578679049	-5.375338650899421	2.4178402844184537	2.569422705168264	0.2216728621423014	3.542354990316005	0.7896018311372931	-0.4595050156136081	1.2491068467509012	81.73155888284933
11	4.0	wm	213	diff_vonmises	-0.1300477754662867	-7.4511886692832	1.1722815573991678	301.71718675412234	1.161281376591468	302.921823059212	0.1678959243944007	-0.3339376138771541	0.5018335382715549	77.86897699192474
12	5.0	ltm	213	diff_vonmises	-0.0100885845377338	-0.578033315273088	0.6653204410420229	118.57576313738603	0.6480190771349812	119.10187704336188	0.2455692778213105	-0.2396125116832106	0.4851817895045212	109.85350533510322
13	5.0	perception	213	diff_vonmises	-0.0147809226248911	-0.846884483715696	1.6775077204264623	3.09523315506727	0.3618553398513717	3.528765661014748	0.6542850562655059	-0.3396629709776629	0.9939480272431688	92.46380963139
14	5.0	wm	213	diff_vonmises	0.0276620071800702	1.584916264278607	0.6969482624349974	136.46016385974053	0.6814789512085314	136.97412911259045	0.2576895243281853	-0.2368977271472978	0.4945872514754832	107.44346103386565
15	6.0	ltm	213	diff_vonmises	-0.1288462151003569	-7.3823443314852275	0.4063762158833913	160.27548693719882	0.3963562307312405	160.71424902103715	0.194865524175519	-0.241942327605745	0.4368078517812641	134.25706295779503
16	6.0	perception	213	diff_vonmises	-0.0115370032800503	-0.6610215961754722	0.6657840698287703	264.59433454987555	0.6538103460250926	265.08510326118466	0.4671921727015728	-0.3444703438130645	0.8116625165146374	111.71525897407976
17	6.0	wm	213	diff_vonmises	-0.0871370696026707	-4.992586327370733	0.4991582403354779	105.01586777480485	0.4792246866202644	105.42429153251966	0.2913902369880894	-0.2763628847816388	0.5677531217697283	126.29425782802252
18	7.0	ltm	213	diff_vonmises	0.0489431751750613	2.8042373735004777	0.8821152399066601	157.61433811816548	0.8651698878515799	158.57059044779186	0.2069906514048298	-0.2897802609229849	0.4967709123278148	92.23323757369164
19	7.0	perception	213	diff_vonmises	0.0082975000757494	0.4754117348499219	2.2149935964579925	1.7373292827595253	5.713372530997452e-17	2.6699680185636487	0.5280046499137254	-0.4135828984430501	0.9415875483567756	92.36430116156096
20	7.0	wm	213	diff_vonmises	0.1689170209967142	9.678232391034436	1.4736177714353862	1.591481674865053	0.298452153377908	2.478143195880377	0.1620463999687704	-0.2579912033947921	0.4200376033635626	94.629269022185
0	1.0	ltm	334	diff_vonmises	-0.0865856712766725	-4.960993530460457	3.5998933496032093	0.3220289343379864	2.820999031936947e-20	1.7657637456639963	-0.0473737930517762	-0.2808555465212736	0.2334817534694973	72.26501491525084
1	1.0	perception	334	diff_vonmises	-0.0514501295792131	-2.947875280290112	14.970363611076063	0.6499501739006917	4.803938616221299e-22	2.3217134944980606	0.6250839399858489	-0.3695121790924255	0.9945961190782744	35.01284831440887
2	1.0	wm	334	diff_vonmises	0.015347504007388	0.8793472056834516	4.444339966163855	0.3797771429313565	4.461186615430015e-19	1.9558944366316104	-0.002127909256115	-0.3112476205556798	0.3091197112995648	64.85902960504822
3	2.0	ltm	334	diff_vonmises	-0.0022519385175244	-0.1290265727770979	3.4711931872956407	0.6152696315322075	0.2808573932512524	1.4212955854853853	0.1437507728279111	-0.2089057399211587	0.3526565127490698	66.46926860500315
4	2.0	perception	334	diff_vonmises	-0.0220085636764871	-1.260997811807641	7.086248061574863	1.2242992415170864	0.342179580706953	1.9954912356763577	0.8410950852451906	-0.3356111505515958	1.1767062357967863	49.00152342300714
5	2.0	wm	334	diff_vonmises	0.0240583032660152	1.3784392393884797	4.332237782313647	0.5384780619622928	0.2242969487649826	1.434333175004887	0.1501928070599642	-0.2223356469619711	0.3725284540219353	60.99633130363415
6	3.0	ltm	334	diff_vonmises	0.0320349280427014	1.835466173852078	1.4127442080846135	39.80947243866553	1.3554243964836654	40.3568610522257	0.1854409257813536	-0.1921992653738682	0.3776401911552218	73.80314508028974
7	3.0	perception	334	diff_vonmises	-0.0243159330555993	-1.3932003390084902	4.540804566516814	1.8946391772589612	0.3505334971615667	2.41163934350648	1.0315489303144574	-0.3596285497873641	1.3911774801018215	60.5561509732494
8	3.0	wm	334	diff_vonmises	-0.058346415139651	-3.343003337220213	2.4209956552878675	1.29968800644766	0.6871874177720514	2.0152911115287604	0.1830619197366052	-0.2212840072857857	0.4043459270223909	70.51620421182949
9	4.0	ltm	334	diff_vonmises	-0.1644878311305226	-9.42445850503954	1.2441543599357003	106.01998106902032	1.2190078230322858	107.0078203405381	0.1120836669175915	-0.2693831339907753	0.3814668009083668	75.10318359081276
10	4.0	perception	334	diff_vonmises	-0.0885904538767028	-5.075859112283453	2.549103302676526	2.331223791482502	0.2052999916913261	3.4040677706335485	0.7314103446759836	-0.4546713981696609	1.1860817428456447	79.96798999110172
11	4.0	wm	334	diff_vonmises	-0.1335886292165609	-7.65406464504698	1.2011244594900772	295.59560761348644	1.1903165817885557	296.83078894024703	0.1243997179023068	-0.3295810817132434	0.4539807996155502	75.97326909987086
12	5.0	ltm	334	diff_vonmises	0.0216083371287608	1.2380665197738336	1.3455993475087549	1.782946867106865	0.3020566180961594	2.28741639063551	0.2419817715033601	-0.2153232331352164	0.4573050046385766	100.58402980468182
13	5.0	perception	334	diff_vonmises	-0.0270429218375061	-1.5494452869912738	2.010291720172184	2.353039811122536	0.2318264795793452	2.77075713684256	0.6689627108631333	-0.3301062070023675	0.9990689178655008	89.18527170275001
14	5.0	wm	334	diff_vonmises	0.0384853470385378	2.20504795840452	0.7293000006616156	34.61692582428042	0.6716487084345786	35.14960610013975	0.2316639113910579	-0.2264361409651711	0.4581000523562291	106.07962071572754
15	6.0	ltm	334	diff_vonmises	-0.1508586152011628	-8.643561954214757	0.4439670360686731	129.6113828726186	0.4323423812978165	130.02742801382365	0.1811568425134311	-0.2201622272464938	0.4013190697599249	130.34424475311886
16	6.0	perception	334	diff_vonmises	-0.0255592438432821	-1.4644367997658034	0.6652023695895014	189.04341634458012	0.6500031249468561	189.55531126146093	0.4055640162000742	-0.3181894173103554	0.7237534335104296	111.42974454990517
17	6.0	wm	334	diff_vonmises	-0.0801771480192201	-4.593812194897001	0.502010252055809	88.66727264772533	0.4811450800986063	89.08399967119936	0.2439504412831681	-0.2489098467740262	0.4928602880571944	125.68275529889092
18	7.0	ltm	334	diff_vonmises	0.0449111425669635	2.573218922197348	0.9726230558884644	163.69057356654005	0.95620488490488	164.59194865175178	0.2092938378252782	-0.2753358570587103	0.4846296948839885	87.85939760201302
19	7.0	perception	334	diff_vonmises	-0.0227975767299119	-1.3062049297496134	2.0841261782350786	1.7149327115037305	8.98315993926858e-18	2.598520399500264	0.4933814708662506	-0.3995276076515416	0.8929090785177923	95.12811914710426
20	7.0	wm	334	diff_vonmises	0.1666595576438776	9.548889268511449	1.7248152103926129	1.1265133437978565	0.2306961010908596	1.976840001875	0.1401251588177557	-0.2368225195989488	0.3769476784167046	91.17032146134136
0	1.0	ltm	92	diff_vonmises	-0.0127987391540453	-0.7333137366156384	6.910509355347664	0.3848431079061583	0.0310066310297361	3.952642232062594	-0.2530276925965768	-0.6316851105734136	0.3786574179768368	50.506076353289984
1	1.0	perception	92	diff_vonmises	-0.025382402740089	-1.454304550908399	15.706821653680723	0.67310922670416	0.0459928033832953	4.243073852338136	0.3482803304920532	-0.6918531215647994	1.0401334520568526	33.90514890573516
2	1.0	wm	92	diff_vonmises	-0.0294015023625657	-1.6845819967189353	3.456568171062783	0.5921262287298917	0.0730951194495263	4.523514309566933	-0.3534774198293466	-0.7058726822882694	0.3523952624589228	67.56423305265369
3	2.0	ltm	92	diff_vonmises	-0.0328418592888962	-1.881699928616272	2.8906973558691376	0.720115017270736	0.1061947852961895	2.362785100701777	0.0447335326142522	-0.3527555194683018	0.3974890520825541	75.03989166969882
4	2.0	perception	92	diff_vonmises	-0.043691364621742	-2.503330793993016	7.318414561007571	1.1810873903644237	0.253284165221176	2.8932008241200458	0.6672224638790473	-0.4860972133754186	1.1533196772544658	48.179386170692766
5	2.0	wm	92	diff_vonmises	-0.0215136383111072	-1.2326406771973992	3.242935607746852	1.0383784621451448	0.2433198105257497	3.0199689424133265	0.1066666194574063	-0.4469420334389541	0.5536086528963604	67.81688451038178
6	3.0	ltm	92	diff_vonmises	-0.0480007272999427	-2.7502390878451086	2.7492953054063904	1.0907500235972938	0.2482392503290605	2.5114475277418657	0.1749290917014339	-0.3509954289417587	0.5259245206431926	73.74454769701174
7	3.0	perception	92	diff_vonmises	-0.0327820827597991	-1.878274985785071	3.8378224150125457	2.3949532288628887	0.3269382955850443	3.696537006239673	1.0056505340545812	-0.5354520357247581	1.5411025697793392	64.82147255954533
8	3.0	wm	92	diff_vonmises	-0.0740712759248385	-4.243971493642234	2.969465759913341	1.1098111307810197	0.2272084287877069	2.8436259623799605	0.1618656919851253	-0.4098245154748909	0.5716902074600163	71.44633299300872
9	4.0	ltm	92	diff_vonmises	-0.119372394776137	-6.83953441104217	1.7947782978289988	1.5202800111343149	0.1418863333361954	3.593498839339634	0.0786178488079897	-0.4810435916757609	0.5596614404837507	91.47634554509392
10	4.0	perception	92	diff_vonmises	-0.0632157143082915	-3.621993628769873	2.0335792745039845	3.5756493973832493	0.3234838962544139	5.318563032300606	0.723434429772601	-0.6168303004487563	1.3402647302213573	84.26891748813739
11	4.0	wm	92	diff_vonmises	-0.1342775468648431	-7.693536718725631	0.7940297041988807	315.20764226344363	0.7817023551804961	317.5357386404503	0.0432640346855919	-0.5330334122004956	0.5762974468860875	91.30232714248407
12	5.0	ltm	92	diff_vonmises	-0.029237613249955	-1.6751918422582002	0.6535684922974703	200.6670319564154	0.6379883225723336	202.12924121614577	0.1951913856996654	-0.4234049424788502	0.6185963281785156	106.02687086379086
13	5.0	perception	92	diff_vonmises	0.0043218820615036	0.2476256016774561	1.4704067598853343	4.37763482683054	0.3693070882168422	5.795971834168771	0.5832508032741492	-0.536353979397145	1.1196047826712945	94.3701605033194
14	5.0	wm	92	diff_vonmises	-0.0751710339888007	-4.306982989192743	0.6204021738496306	268.0262437661858	0.6084998396967262	269.6114265087688	0.1810944925576905	-0.4514604409511236	0.6325549335088141	108.2662988380249
15	6.0	ltm	92	diff_vonmises	-0.1112117611621201	-6.37196454680641	0.8527821154841647	2.180403917426334	2.6817838189684014e-13	3.4564987008572947	0.1339071870727471	-0.4258474769570776	0.5597546640298248	134.85309721153186
16	6.0	perception	92	diff_vonmises	0.0433456150579561	2.483520803219596	1.273210947587938	2.405680407459232	1.2390390094220086e-21	3.752848692077228	0.3471054782629189	-0.5232738524836099	0.8703793307465288	118.01436358184118
17	6.0	wm	92	diff_vonmises	-0.1129390748078503	-6.470932328602102	0.4041200105723372	274.41499363996274	0.3942090902391446	275.79998477147745	0.1842363684164567	-0.4767997426174339	0.6610361110338907	132.08599025124067
18	7.0	ltm	92	diff_vonmises	-0.0291445066615813	-1.6698572276995252	0.7200517335704101	223.2270408385496	0.7067725323078085	224.8805250017744	0.0926435463954931	-0.4076967204334671	0.5003402668289603	98.04121547020046
19	7.0	perception	92	diff_vonmises	0.0659285664077491	3.7774286045120022	0.6597365002213703	146.13493800162752	0.6330249278033891	147.68026766574584	0.3216533056372483	-0.5051278790490539	0.8267811846863022	107.6662367435746
20	7.0	wm	92	diff_vonmises	0.1255677967750832	7.1945047979686985	0.821085038233227	209.5788146785219	0.8065973161034393	211.29428045155632	0.0567210728043363	-0.4017374755116272	0.4584585483159635	90.46542185652638
0	1.0	ltm	190	diff_vonmises	0.0790091322630189	4.526889821661893	3.360477640669131	0.3360713117253934	3.994861536067617e-13	3.014133154473168	-0.2450612222992412	-0.4794312784103562	0.234370056111115	74.86659092057405
1	1.0	perception	190	diff_vonmises	-0.015467884649291	-0.8862445083995707	13.472528513789472	0.5630696194656274	1.614957448595393e-19	3.30761196102815	0.2901464912441975	-0.526422793425886	0.8165692846700836	36.92375283252855
2	1.0	wm	190	diff_vonmises	0.0363390247692122	2.0820727508972245	3.5302413277888363	0.459904403006848	0.0385470967260462	3.2670108502010544	-0.2100966097512823	-0.5110760686891413	0.300979458937859	69.49052996699501
3	2.0	ltm	190	diff_vonmises	0.0049355302241514	0.2827850515031366	3.084613705814759	0.7756529077217977	0.1775582700108449	2.6038291775703346	0.0250479078618043	-0.3875521670282312	0.4126000748900356	70.28293901762322
4	2.0	perception	190	diff_vonmises	-0.0079669045390323	-0.4564700058701718	6.4099499536299485	1.2567311080003642	0.1643905200093227	3.183176631749791	0.6491382565701674	-0.5146678639988121	1.1638061205689796	51.93288629662735
5	2.0	wm	190	diff_vonmises	0.0666960982234738	3.8214049381950383	4.1116371327494585	0.6518217723746071	0.1204529987290155	2.6696861094431563	0.0311731156291978	-0.4159149955438624	0.4470881111730602	63.15980374921753
6	3.0	ltm	190	diff_vonmises	0.0216154948865069	1.238476629083463	2.4233250837446434	1.2729407216113418	0.3034152300978226	3.0413608597374218	0.0957726575785838	-0.4081436507726834	0.5039163083512673	75.15741208531401
7	3.0	perception	190	diff_vonmises	-0.0183836813405833	-1.0533073527288292	4.151435633180011	2.118403758835788	0.1200547649854817	3.90968879334785	0.9629496475964864	-0.5953377310308325	1.5582873786273188	64.8607420140591
8	3.0	wm	190	diff_vonmises	0.0148557995906677	0.8511746178374355	3.102401485676133	0.8356044373037764	0.1083588973750497	2.8804578970071617	0.0484121961142822	-0.4339848463569214	0.4823970424712037	72.4887973167086
9	4.0	ltm	190	diff_vonmises	0.0309944046947001	1.7758485775267858	1.9176964723378696	0.7832955321040397	0.075552873998113	3.4589828138868035	-0.1989387709280857	-0.5072023862660326	0.3082636153379469	89.08908880023927
10	4.0	perception	190	diff_vonmises	-0.0716415038281308	-4.104755807322227	1.1499377890730873	10.462277560053348	0.5802181305956926	12.981116207650386	0.4708736429433626	-0.735096850423463	1.2059704933668256	92.97148565144349
11	4.0	wm	190	diff_vonmises	-0.0267111760202237	-1.5304376517898737	0.7091397009951256	145.12560187090617	0.6867992010603619	148.07365866640936	-0.2135960040910944	-0.5757358249140694	0.3621398208229749	89.46432029464069
12	5.0	ltm	190	diff_vonmises	-0.0165184484070506	-0.9464373778286024	1.8191401590040157	1.1714012314983182	0.0468713117908919	2.578030874849788	0.1407887950118427	-0.3762995286453836	0.5170883236572263	98.01576622093104
13	5.0	perception	190	diff_vonmises	-0.0559515646163971	-3.2057885096730714	1.2910897377583197	6.4486453791840965	0.5177846832641624	7.842870071139695	0.5914023970061904	-0.5340609836349937	1.125463380641184	94.11258796564636
14	5.0	wm	190	diff_vonmises	0.0107318376318664	0.6148890027256202	0.6259255474197205	75.92252940510757	0.5896476958018698	77.52422462296232	0.0994612275530215	-0.4147244219338297	0.5141856494868513	107.0049565545714
15	6.0	ltm	190	diff_vonmises	-0.1190525625041561	-6.821209371705583	0.4339908339163615	67.27836376623223	0.4061650317295465	68.67337273917198	0.0249624431690591	-0.3679033992622083	0.3928658424312674	126.37167538740216
16	6.0	perception	190	diff_vonmises	-0.0849338707660607	-4.866352332604846	0.550489207384046	162.70234007616273	0.5315475402524172	164.10413849549315	0.2252313170079816	-0.4574381257437689	0.6826694427517506	116.90622473135664
17	6.0	wm	190	diff_vonmises	0.0309443697232306	1.772981784833523	0.5346700430946923	237.78730760328887	0.5251295382953958	239.26545743007287	0.0541947733971781	-0.3792142166622838	0.433408990059462	113.87577584236062
18	7.0	ltm	190	diff_vonmises	-0.15215215751181	-8.717676469236443	0.8907329845514934	215.74358448589544	0.872386979036481	218.2734535008406	-0.048694090271411	-0.5485351443202084	0.4998410540487974	83.89255394286974
19	7.0	perception	190	diff_vonmises	0.0415244940240066	2.37917825399179	0.6666478289738106	249.717984480364	0.6459204437496182	252.18597893703935	0.3072591122833898	-0.6999581508136217	1.0072172630970115	104.88553263225349
20	7.0	wm	190	diff_vonmises	0.0083636000888858	0.4791989866284016	1.6724252017459644	1.6018007408975814	0.3093813706405816	4.171409509409719	-0.1421335836834151	-0.5107910552007127	0.3686574715172975	81.84320327605295
0	1.0	ltm	311	diff_vonmises	-0.1772083230430513	-10.153289004957731	3.393714877910039	0.33881380807629	1.529313048870853e-18	1.0435759229156958	0.0718075006240745	-0.1658219437933427	0.2376294444174173	74.48309051886554
1	1.0	perception	311	diff_vonmises	-0.069918466167384	-4.006033021419344	15.41007358358857	0.7237881497810291	9.443748702496359e-14	1.6734527120900513	0.8576922465143388	-0.2663382711595985	1.1240305176739374	34.504701396938884
2	1.0	wm	311	diff_vonmises	-0.0269735833829344	-1.5454724861863514	6.561685436795601	0.3301956416083118	1.7282354576297016e-20	1.139291112964417	0.1490898498564287	-0.181323151814411	0.3304130016708397	53.15534741785015
3	2.0	ltm	311	diff_vonmises	-0.0543054298177733	-3.1114719332023086	3.0607599342795915	0.8159017185641863	0.6974357220560745	1.131605871680012	0.2190564080190628	-0.1376120328834038	0.3566684409024666	66.49867566924337
4	2.0	perception	311	diff_vonmises	-0.0373837059050638	-2.14192857091845	7.445446927731892	1.2084015697380346	0.4515502267800777	1.4840742570778804	0.9389815408926184	-0.2543041731536932	1.1932857140463116	47.83031587966656
5	2.0	wm	311	diff_vonmises	-0.020438144515771	-1.171019421832129	4.433057615103301	0.4620047584703202	0.3301399380604113	0.8172701228405673	0.1994617258848745	-0.1244399057010126	0.3239016315858872	60.36635770781723
6	3.0	ltm	311	diff_vonmises	0.0438969479656552	2.51510985193743	1.7150534882083708	79.33001490890807	1.6944394023316467	79.4239729196629	0.2295954694028807	-0.0991733573710043	0.3287688267738851	70.50753057915279
7	3.0	perception	311	diff_vonmises	-0.0322235560900555	-1.8462737648632648	4.497966676016354	1.8949592998013172	0.6094078977717626	1.9040895548489336	1.0435749783536663	-0.2701157669341787	1.3136907452878452	59.6145911653438
8	3.0	wm	311	diff_vonmises	-0.0924246108278147	-5.2955401235729145	1.7577730512069998	90.02626950494766	1.7356183123568882	90.21655588273455	0.2402218693125561	-0.1283875938452503	0.3686094631578065	68.5050110868317
9	4.0	ltm	311	diff_vonmises	-0.1966087855924406	-11.264853629639356	1.669556375016238	123.79653694850651	1.6502615294304752	124.18422696809296	0.2255721163239741	-0.1738803599510596	0.3994524762750338	68.50260817254173
10	4.0	perception	311	diff_vonmises	-0.1027315138569673	-5.88608216699396	3.027098871652838	1.913733520726288	0.1662199156567895	2.50085557799845	0.7930742297678451	-0.351798422600416	1.144872652368261	75.22646635895964
11	4.0	wm	311	diff_vonmises	-0.1793613163657811	-10.27664643567	1.452600089862624	193.4732450086351	1.4391073934276837	194.09126321884304	0.2006564887987281	-0.2168769034165087	0.4175333922152369	71.96834646808756
12	5.0	ltm	311	diff_vonmises	0.0456443954633358	2.615231218475224	1.8044457387452275	0.9951483189821886	0.0534812088270535	0.9447982233845836	0.3237810223568236	-0.1293743654630372	0.4531553878198609	100.14452325420166
13	5.0	perception	311	diff_vonmises	-0.0316666187618095	-1.814363606501478	2.5691239041193845	1.685667438646543	0.0304842671642357	1.50406036821996	0.7627351656720478	-0.2262138986020899	0.9889490642741378	85.128355133849
14	5.0	wm	311	diff_vonmises	0.0267035078503398	1.5299982980189355	0.8790725644266204	36.69152327630615	0.8389161032818311	36.62162313906561	0.3027896755990955	-0.1132639576636136	0.4160536332627091	102.18106194749537
15	6.0	ltm	311	diff_vonmises	-0.1495401705794746	-8.5680206418703	0.4335470525607683	63.9915911328464	0.4174007516601404	63.90752466873082	0.2100113237809573	-0.1156894842515479	0.3257008080325052	134.93241414963558
16	6.0	perception	311	diff_vonmises	-0.0265855524495067	-1.5232399513804231	0.969770454195261	3.2135370065140743	0.3061082497688882	3.2166470530932507	0.4003882283517476	-0.2130416377021108	0.6134298660538584	116.69865629103052
17	6.0	wm	311	diff_vonmises	-0.1489823217847792	-8.536058260327794	0.5595436465169003	36.1248403309646	0.5236644221947366	35.970857771827106	0.2823491131053011	-0.1272934237748009	0.409642536880102	125.36364359989824
18	7.0	ltm	311	diff_vonmises	0.1202533988134485	6.8900122241141055	1.0719490050524638	99.47302067174036	1.0532105009190684	99.65609752640738	0.2860735089136028	-0.1440209025066892	0.430094411420292	89.13565541959372
19	7.0	perception	311	diff_vonmises	-0.060299142678301	-3.4548863837238284	2.113255534734272	1.4670244849731504	0.0722914383034038	1.5845245874360003	0.5115821966159305	-0.222865891291547	0.7344480879074776	92.22436874975298
20	7.0	wm	311	diff_vonmises	0.1757175406700568	10.067873466812657	2.0965870771530546	0.6583934800237756	0.0271862384727286	0.7749621551581112	0.2227406066787453	-0.1147327366437388	0.3374733433224842	93.87661260498172
0	1.0	ltm	69	diff_vonmises	0.0141034913951361	0.8080705333403722	5.427182240527981	0.3066319897464646	1.3083235218201311e-14	3.474709211947771	-0.275297208467724	-0.5530117809842856	0.2777145725165616	58.55308273253274
1	1.0	perception	69	diff_vonmises	-0.0094653717311993	-0.5423258517201592	13.473381616193036	0.6879949116067272	0.032343828889691	3.894038794194946	0.3574066842204559	-0.6285508605349376	0.9859575447553935	36.68043570509633
2	1.0	wm	69	diff_vonmises	0.0036975310276319	0.2118529225019791	4.221011843368711	0.4369696885912272	0.0292919458536413	3.8312387428502186	-0.2818173418153229	-0.6046249190971631	0.3228075772818402	64.12240220500067
3	2.0	ltm	69	diff_vonmises	-0.0184075399524942	-1.0546743504963614	3.137512455035004	0.7015034869705158	0.1260673238859483	2.4555727622227264	0.0297292809886248	-0.3694575749424284	0.3991868559310532	71.40027975070208
4	2.0	perception	69	diff_vonmises	-0.0266334739328727	-1.5259856501253022	7.057327970387771	1.2587566003222097	0.2063715317510697	3.095830647136934	0.7090954239113487	-0.5108483005378956	1.2199437244492444	49.34194817096258
5	2.0	wm	69	diff_vonmises	0.0189751673095974	1.087197002394544	3.685977036777121	0.777937792621233	0.1502605416658761	2.774661575616549	0.0615572724912649	-0.4252056152509524	0.4867628877422174	65.85792304641399
6	3.0	ltm	69	diff_vonmises	0.0037516009152747	0.2149508988626575	2.8734593609870624	0.8739640928144342	0.1675865341918772	2.2408346733177464	0.1396956566862076	-0.324853748514791	0.4645494052009986	74.19206467999618
7	3.0	perception	69	diff_vonmises	-0.0166021681992216	-0.9512341685817124	4.100464226207637	2.157751886918791	0.2170129848703519	3.4753414130420643	1.0024322868235385	-0.5188178988211557	1.521250185644694	64.17696038187941
8	3.0	wm	69	diff_vonmises	-0.0492531920698811	-2.822000033151405	3.173400062933029	0.8868945977979406	0.145621327612756	2.4976972533636093	0.1422804539090256	-0.3714320846384911	0.5137125385475168	71.37054362061758
9	4.0	ltm	69	diff_vonmises	-0.0672635719210737	-3.853918786052196	2.068922916376585	0.9183105128280494	0.0691385101493487	3.258116143240203	-0.0714752444514005	-0.4792615010894123	0.4077862566380118	88.50122163071359
10	4.0	perception	69	diff_vonmises	-0.0628970338773468	-3.603734585063334	1.7568574000804338	4.226915372286259	0.375428876933133	6.376107260408806	0.5890973665990782	-0.6712668964143518	1.26036426301343	86.85654276950251
11	4.0	wm	69	diff_vonmises	-0.0824859322878952	-4.7260957892982844	0.7464235586520408	291.16188983277004	0.7347774851330826	293.73172852247444	-0.1011277486320665	-0.5331466473457525	0.4320188987136859	90.29037871185176
12	5.0	ltm	69	diff_vonmises	-0.0282213008503643	-1.6169614310948397	1.644852429869158	1.3227119877830134	0.0487046205187501	2.6549470751144604	0.1625427374914812	-0.3796418649446342	0.5421846024361154	102.69240503159652
13	5.0	perception	69	diff_vonmises	-0.0306261777221555	-1.7547507260970987	1.7207323240372294	3.498031831817266	0.2904571847857314	4.758759501918685	0.655425844483772	-0.5180793853327793	1.1735052298165511	91.75264419646356
14	5.0	wm	69	diff_vonmises	-0.0223076224876699	-1.2781326195146128	0.6161657785602734	180.0268975154981	0.6004603758721175	181.4874514471952	0.1475688873653169	-0.4074125041542871	0.554981391519604	108.41733938391846
15	6.0	ltm	69	diff_vonmises	-0.0888252403319333	-5.089311385254998	0.9806380788549908	1.4813192905630372	6.33842574389109e-16	2.628306938836618	0.082443534562232	-0.3478627536490031	0.4303062882112352	129.33591829360904
16	6.0	perception	69	diff_vonmises	-0.0392700631104482	-2.25000887744107	0.9556047619937896	2.8544059903290173	0.0529147175296885	4.012546589056027	0.2785085989749404	-0.464569993084457	0.7430785920593974	126.99937929380738
17	6.0	wm	69	diff_vonmises	-0.0466875329245059	-2.6749985924522672	0.4598681653785223	265.6229647794194	0.4514041785669408	266.8534754539084	0.1245766430529045	-0.3819913811286568	0.5065680241815613	124.94138528150832
18	7.0	ltm	69	diff_vonmises	-0.0058364145274956	-0.3344019199143437	0.7654822247286562	204.95775036546144	0.7510448278835822	206.74138811050065	0.0400335285728701	-0.4118383213847636	0.4518718499576337	93.37470652861512
19	7.0	perception	69	diff_vonmises	0.0537715561209926	3.0808832235837285	0.7072559283725137	303.0896076660204	0.6928984948806528	304.71673899227414	0.3686144173837391	-0.5300316820744477	0.8986460994581869	103.6303401637906
20	7.0	wm	69	diff_vonmises	0.0568669479297764	3.258236110166404	0.7969319948089679	165.3091723543141	0.7796547859092382	167.13847170980608	-0.0029242702365621	-0.4050313620451682	0.402107091808606	90.12593815811158
0	1.0	ltm	144	diff_vonmises	-0.0011344425965699	-0.0649987728833176	3.0112435640727404	0.3337984136867372	2.252220763806862e-19	2.4649868546210763	-0.1732248839429127	-0.3917838465942386	0.2185589626513258	79.18422885193073
1	1.0	perception	144	diff_vonmises	-0.0287059921023326	-1.6447321941995356	14.128695749645043	0.6077188094969499	1.7287749247351307e-21	2.8908483383816126	0.4426337330334979	-0.460092802781943	0.9027265358154408	36.05527981740445
2	1.0	wm	144	diff_vonmises	0.0424147508099373	2.430186210508501	3.785305339126998	0.3951419967957126	3.4125686146856425e-15	2.6523487615515013	-0.1274032938728702	-0.4219824859630801	0.2945791920902098	70.43267556617172
3	2.0	ltm	144	diff_vonmises	0.0266060356477503	1.5244135521907132	3.729490964546426	0.5531338957237559	0.1269613785800032	1.8839152226738296	0.0701515995785123	-0.2888115881302253	0.3589631877087376	66.36763046221373
4	2.0	perception	144	diff_vonmises	-0.0101125874807015	-0.5794085826010301	6.818274879248107	1.2568042316898036	0.2414500402568302	2.595267672787745	0.7648576953412728	-0.4277345548022346	1.1925922501435076	50.13992790425448
5	2.0	wm	144	diff_vonmises	0.0564946414802731	3.236904521924368	4.254154073235765	0.5782464363382214	0.1468249464916153	2.061936904433455	0.0816921524476932	-0.3213425492827114	0.4030347017304047	62.00883983696727
6	3.0	ltm	144	diff_vonmises	0.0341318421934675	1.9556105046922383	2.503026839442553	1.094360545118046	0.4309768628300788	2.1751711785233194	0.1366318617465103	-0.2780253299925908	0.4146571917391011	72.55458161181616
7	3.0	perception	144	diff_vonmises	-0.0161916903653909	-0.9277155211195374	4.388881043820929	1.9843833610682664	0.2007682660923911	3.057675868739106	1.0156179152891185	-0.4619660425170755	1.477583957806194	62.50016763543118
8	3.0	wm	144	diff_vonmises	-0.0275564683118658	-1.578869332555903	3.17226638708504	0.8022201283526614	0.2341476833041147	2.1146300819864225	0.1227119400139017	-0.3093326618096991	0.4320446018236009	69.24914149785928
9	4.0	ltm	144	diff_vonmises	-0.0958311910913899	-5.49072279524834	1.9047235411972088	1.2203235276294964	0.3583546650949329	3.013769910810503	-0.0536826468324107	-0.373720147046644	0.3200375002142333	77.89208383839352
10	4.0	perception	144	diff_vonmises	-0.0775802727880923	-4.4450222042313206	1.910765296542165	3.4865364501974256	0.3325455049493482	5.236359414822672	0.6188307723464574	-0.5893243465939995	1.208155118940457	85.83319223942632
11	4.0	wm	144	diff_vonmises	-0.0801436733236979	-4.591894236123095	0.9478219109394828	300.7015821391999	0.9366601224541838	302.765911385287	-0.0429092410315377	-0.4509853103043824	0.4080760692728447	80.93850423045288
12	5.0	ltm	144	diff_vonmises	0.0027759884881357	0.159052424347082	1.5399882512047338	1.3790041441619492	0.1634339353481554	2.431609974777174	0.1542364299942265	-0.2994288760485093	0.4536653060427358	98.6387190369787
13	5.0	perception	144	diff_vonmises	-0.0345930589689658	-1.9820362793689217	1.6265830560017005	3.5780840830777207	0.3657773081417221	4.565059088015505	0.6147825191238605	-0.4439434132966767	1.0587259324205371	91.8957797304082
14	5.0	wm	144	diff_vonmises	0.0407960047067082	2.3374388906902217	0.8448879095433774	4.83972133982378	0.4011807433212429	6.031990995624709	0.1331444194787854	-0.3394887029020257	0.4726331223808112	108.6430816635924
15	6.0	ltm	144	diff_vonmises	-0.1483806538748489	-8.50158522842033	0.4417168075850374	185.54176376285517	0.4321695386918649	186.59436097606715	0.0809958793421969	-0.3146500645358863	0.3956459438780833	126.4045590501603
16	6.0	perception	144	diff_vonmises	-0.0527601619424166	-3.0229346057272224	0.6063027109995726	291.7061059638509	0.5952661127893348	292.8039703634737	0.3188328291505513	-0.4195770467556485	0.7384098759061999	113.12917232006993
17	6.0	wm	144	diff_vonmises	-0.0097637152502226	-0.5594196762052749	0.4954146426490909	177.03805774259138	0.4832111247748168	178.1811636815853	0.1246363238827328	-0.3518825572516029	0.4765188811343357	121.30432796561534
18	7.0	ltm	144	diff_vonmises	-0.0389361907631922	-2.2308794010471766	0.9184025526979728	206.86273951423	0.9025076002040848	208.66264255741984	0.0441735867440087	-0.4173266940659452	0.461500280809954	84.89362476680398
19	7.0	perception	144	diff_vonmises	0.0252366641232653	1.4459543432523283	1.8809930844451137	2.0088472191968534	0.0056536656656341	3.7876390853758064	0.3922310721677704	-0.5762137360195588	0.9684448081873293	99.52333863454336
20	7.0	wm	144	diff_vonmises	0.1015741274135026	5.819768808517776	1.3222730350888263	1.9866888244446257	0.3596184529875883	3.808671451568973	-0.0434302980182988	-0.3840149634947988	0.3405846654764999	89.36141588410268
0	1.0	ltm	23	diff_vonmises	-0.0103999231244806	-0.5958717022932523	6.645057314338023	0.3862264823910205	0.0325027988165253	4.038061929471787	-0.2746762860962781	-0.6451275216179501	0.3704512355216719	51.39223697468174
1	1.0	perception	23	diff_vonmises	0.0091476680255392	0.524122770250169	11.637079740559384	0.8355347480144236	0.0777968385258161	4.45350598046556	0.3589400245962394	-0.7327794765100445	1.091719501106284	39.11162869802664
2	1.0	wm	23	diff_vonmises	0.0268722690718917	1.5396676037593289	4.125822079536431	0.5716970417773062	0.0672659896758594	4.437438929119806	-0.3075509302706081	-0.6993170372144683	0.3917661069438601	62.93978991728201
3	2.0	ltm	23	diff_vonmises	-0.0686256385857463	-3.931959457353398	2.77357554276415	0.8780262004952422	0.2096510476874093	2.5363314687459755	0.0573486804046612	-0.3652261494038291	0.4225748298084903	73.11418316480743
4	2.0	perception	23	diff_vonmises	-0.0360433513596282	-2.065131912413817	7.12759246650185	1.2397336223666189	0.2171302904864289	2.9101490191876827	0.7267866235399211	-0.481526503895353	1.208313127435274	49.09420025767977
5	2.0	wm	23	diff_vonmises	0.0153236236325604	0.8779789609926436	3.6907238205545214	0.8656286252995267	0.19108491162046	2.668546301694521	0.1273067729907774	-0.4060110731057714	0.5333178460965489	65.37590497350365
6	3.0	ltm	23	diff_vonmises	-0.0411784308469277	-2.3593502945002816	2.723041172691276	0.7654708243813	0.1051031001902395	1.775503629600909	0.1611476947159308	-0.2597207206515058	0.4208684153674367	78.53780944915036
7	3.0	perception	23	diff_vonmises	-0.0129303998722196	-0.7408573400946842	3.903549698895282	1.9677231609806023	0.2577505271704901	2.888364241229658	0.9076864521116332	-0.4220456581797703	1.3297321102914037	65.37558895009542
8	3.0	wm	23	diff_vonmises	-0.0651869165106028	-3.734935195529204	2.817092882843745	0.9992781822505844	0.2569550463689522	2.10711729189955	0.2047494207523007	-0.293060209300495	0.4978096300527957	73.39586465771265
9	4.0	ltm	23	diff_vonmises	-0.1159627065690682	-6.644173667321595	1.9596589326860043	1.161023856332198	0.1121145605066553	3.107118800094286	0.0401473395226926	-0.4351770409402172	0.4753243804629098	89.21788912194549
10	4.0	perception	23	diff_vonmises	-0.0807190073174674	-4.624858445776492	1.907411249282822	3.939053808654477	0.4023906640919069	5.631753223937235	0.6868290456053683	-0.5978433310230953	1.2846723766284636	84.37670262355368
11	4.0	wm	23	diff_vonmises	-0.1138867218396839	-6.525228503994269	0.8170061929330524	335.1987478974598	0.8069738695213918	337.25302086407555	0.0155982605030544	-0.4618169929600739	0.4774152534631284	89.27047159592729
12	5.0	ltm	23	diff_vonmises	-0.0600566456618567	-3.440992328137058	0.6938211248383692	8.676281225088466	0.4016193402108796	10.047939662977258	0.1626291799620673	-0.4144953482075243	0.5771245281695917	115.80674132555426
13	5.0	perception	23	diff_vonmises	-0.0277219133238547	-1.5883486334843588	1.9062930401507192	3.1347427517477957	0.2410175185079482	4.35064600836852	0.7022915121583717	-0.5162017362034588	1.2184932483618305	89.62179900152239
14	5.0	wm	23	diff_vonmises	-0.0313478422945158	-1.7960990603174556	0.6514265836337862	312.3249126829413	0.6419405075342877	313.63354657538366	0.2050448277109779	-0.3938491303713078	0.5988939580822858	106.54130781377948
15	6.0	ltm	23	diff_vonmises	-0.0243927077169078	-1.3975992030750164	0.978674769593016	1.66289373033878	6.269331564459445e-17	2.7473509634128352	0.1242460838776503	-0.3579487565988579	0.4821948404765083	129.4780063225495
16	6.0	perception	23	diff_vonmises	-0.0463935371235512	-2.658153873862989	0.8215660468319025	3.358120056860325	1.7449933786184783e-20	4.381966486842185	0.3360770407862227	-0.4975565344854283	0.833633575271651	136.3665280448041
17	6.0	wm	23	diff_vonmises	-0.1351941149535444	-7.746052201844585	0.499917777540375	215.34683241531323	0.4880782658995156	216.3894261395522	0.2211469016750982	-0.3851041422870835	0.6062510439621818	122.7349055589537
18	7.0	ltm	23	diff_vonmises	0.0980921272167004	5.62026489297729	0.5820671610417355	150.68968667799697	0.5658415318755112	152.09669547519016	0.0969404395486748	-0.3762004860624071	0.4731409256110819	110.5985804726781
19	7.0	perception	23	diff_vonmises	0.0258522724707087	1.481226103393859	0.8822899766807111	329.0988230517646	0.8688122121850177	330.23203811050945	0.4866269013850228	-0.4392080630896728	0.9258349644746956	94.64866139986978
20	7.0	wm	23	diff_vonmises	0.1355969190224058	7.769131174961042	0.8330422360973292	139.48896866763044	0.8124529471808523	140.82243482793984	0.1402548289725729	-0.3490028961761418	0.4892577251487147	92.62896973904742
0	1.0	ltm	432	diff_vonmises	0.0165665938501652	0.9491959085218544	4.706264966564363	0.2858165955795446	6.664402818571606e-21	2.3781363991497293	-0.1385432238536848	-0.3784725608089741	0.2399293369552892	62.982719632423056
1	1.0	perception	432	diff_vonmises	-0.0178209085159285	-1.0210628450514516	12.580092234257911	0.6449878496601993	0.0187067991441605	2.9024957965260576	0.4326051776905147	-0.464939770139212	0.8975449478297268	38.07199169427472
2	1.0	wm	432	diff_vonmises	0.0363627343285345	2.083431208580508	4.806354828683345	0.3796101018535063	0.0047809972470772	2.597449434629767	-0.0930743112514837	-0.412220073872535	0.3191457626210512	61.93828295694544
3	2.0	ltm	432	diff_vonmises	0.0005567786438224	0.0319010664140459	2.8106270858115114	0.939637957431114	0.4004038091448473	2.128061943230516	0.1070416064769417	-0.2915758209611924	0.3986174274381342	69.27437817042883
4	2.0	perception	432	diff_vonmises	-0.0079667286205511	-0.4564599264836599	6.660464551909111	1.2691001461536386	0.2765224608908751	2.4712746067209355	0.7710685046923856	-0.4082552907310032	1.1793237954233888	50.53322254161833
5	2.0	wm	432	diff_vonmises	0.0626366468464093	3.588815507150675	4.305265143229656	0.5935513695215169	0.1843984918478979	1.8914060041311385	0.1159893400348093	-0.2946614568317491	0.4106507968665585	61.26405299157756
6	3.0	ltm	432	diff_vonmises	0.0443906715083229	2.543398127178536	2.2916050489965056	1.2662933731769015	0.5456104720000393	2.1870219295557445	0.1504905354008829	-0.2521346015892684	0.4026251369901514	73.35025894061397
7	3.0	perception	432	diff_vonmises	-0.0109819946026141	-0.6292219413652408	4.796413050601873	1.7453423414997065	0.1970047265834585	2.6785501079987286	0.9659414143171212	-0.4109640901965846	1.3769055045137055	60.01895977210947
8	3.0	wm	432	diff_vonmises	0.0034650307316145	0.198531636804641	3.052899759892867	0.8254901030324536	0.2988177271350014	1.932832892821646	0.1404111231843294	-0.2753566705767311	0.4157677937610605	69.42317140961629
9	4.0	ltm	432	diff_vonmises	-0.1345650394136037	-7.710008828411072	1.7427471586758796	1.5814366856310873	0.4465550133901677	3.2028908307108934	-0.0080207739827905	-0.354162994805609	0.3461422208228185	79.0716410512482
10	4.0	perception	432	diff_vonmises	-0.0738210718853809	-4.2296358581641895	2.158646672790608	2.6799865542097088	0.2197441735848365	4.34713930065392	0.5959906627862332	-0.5559458642678274	1.151936527054061	84.70103549142968
11	4.0	wm	432	diff_vonmises	-0.0929387322850228	-5.324997113228054	1.0033009254091871	342.4068518381156	0.993406572254807	344.2597238985746	0.0101398296373673	-0.4236299873157207	0.4337698169530881	79.99458738466171
12	5.0	ltm	432	diff_vonmises	-0.0103622547784473	-0.5937134650443052	1.867757861697306	1.0512445976400888	0.0039126383971529	1.8458810150889315	0.2253422633893324	-0.280217433423802	0.5055596968131344	99.97509313852956
13	5.0	perception	432	diff_vonmises	-0.0542469646336932	-3.1081221249060644	1.8512125153203347	2.9314843606448786	0.304606304540962	3.612775096396169	0.6811071819782448	-0.3934367026250056	1.0745438846032505	89.79912932241209
14	5.0	wm	432	diff_vonmises	0.0521768845662332	2.989515273786445	1.000908893938829	3.933992310775852	0.4396573101311428	4.747958637451674	0.226738531848569	-0.2848421963153461	0.5115807281639152	104.0426464287811
15	6.0	ltm	432	diff_vonmises	-0.0879017085304391	-5.036396910783268	0.4782489059055479	130.1186836682147	0.4653549069262683	130.726467786375	0.1660932179171936	-0.2514715533116582	0.4175647712288519	125.83153714700144
16	6.0	perception	432	diff_vonmises	-0.0718438873013891	-4.116351526183129	0.8948556308025739	4.909198152273599	0.351116004911988	5.566412257630542	0.3588234641581738	-0.3410276613116221	0.6998511254697959	114.39068540369882
17	6.0	wm	432	diff_vonmises	-0.0342514506135612	-1.9624635623578344	0.5538299850431815	147.24277353961762	0.5403949404881574	147.8361301460116	0.2213062482607242	-0.2651253608570165	0.4864316091177407	119.1379413236222
18	7.0	ltm	432	diff_vonmises	-0.0119546128635373	-0.684948862793494	0.8725681806702543	168.98803472688903	0.8542626994067167	170.42462231557406	0.1389266620070657	-0.3698173643319009	0.5087440263389666	90.06124383361413
19	7.0	perception	432	diff_vonmises	-0.0295528239872068	-1.693252087159936	1.492033135878995	3.576815959853607	0.313246553069697	4.898869676903956	0.5034884395410217	-0.489041005885603	0.9925294454266248	95.59537446299056
20	7.0	wm	432	diff_vonmises	0.135506712232144	7.763962706595623	1.8449924676173943	1.1827042226877134	0.199629349279674	2.53426808292482	0.0934192893553894	-0.3250191448541737	0.4184384342095631	88.29045432682938
0	1.0	ltm	363	diff_vonmises	-0.1233711963948276	-7.068648866903223	2.4487821056875587	0.4538055484687475	1.3389505760134434e-19	1.8568435238059384	-0.0313089492797196	-0.2935535072249629	0.2622445579452432	87.88590709962446
1	1.0	perception	363	diff_vonmises	-0.0641143341575352	-3.673480753518224	14.48604435053534	0.6864766471480166	2.9236725573732484e-20	2.3130467060098265	0.6646790705918901	-0.3681328168636196	1.0328118874555097	35.602338478691934
2	1.0	wm	363	diff_vonmises	-0.0027407049901884	-0.1570308288282425	4.413053195380051	0.4129638713679844	3.66859486973991e-19	1.930851063195376	0.0275930110755002	-0.3072553101217236	0.3348483211972238	65.09465451235059
3	2.0	ltm	363	diff_vonmises	-0.0460170952228394	-2.6365853417203216	2.785901039718575	0.9499404662417786	0.4276765140259498	1.839924016013748	0.1670099219399388	-0.2437000121401838	0.4107099340801227	70.31911855807252
4	2.0	perception	363	diff_vonmises	-0.0347629099412235	-1.9917680232254824	6.751862216717355	1.2162893142298328	0.1927455062462015	2.08979179800124	0.8360747511125641	-0.3382395404871457	1.1743142915997098	50.94318428540564
5	2.0	wm	363	diff_vonmises	-0.0049024554432839	-0.2808900061511091	4.238919948121346	0.5472348255196329	0.1509141953548101	1.4865682829309492	0.1606379648716372	-0.2293242778782621	0.3899622427498994	62.8384172244694
6	3.0	ltm	363	diff_vonmises	-0.0049273113285027	-0.282314143470205	1.7291401721213215	2.127778781543821	0.6834355121722612	2.7657619614249795	0.2265499715832424	-0.2171330135828338	0.4436829851660762	80.63928910544567
7	3.0	perception	363	diff_vonmises	-0.0331922001267719	-1.9017729800176255	4.162966120594329	2.0544428888794197	0.2633107887609093	2.673851468118363	1.0700167742792996	-0.3931905201927195	1.4632072944720191	63.76265576368292
8	3.0	wm	363	diff_vonmises	-0.0981731557867224	-5.624907488059532	1.8426982179561855	2.521845280229484	0.8157852484844502	3.2411397227035543	0.2439936954729339	-0.2435360804852966	0.4875297759582305	76.28740746498494
9	4.0	ltm	363	diff_vonmises	-0.1830393689625775	-10.487383326293564	2.337463023523862	1.2718200011647427	0.5058732907420908	2.3819220560849947	0.1300102803993	-0.286879458486641	0.416889738885941	72.83824885686047
10	4.0	perception	363	diff_vonmises	-0.1040346254732736	-5.960744962842785	2.2051230159500657	2.832883075266119	0.2377638759688943	4.113165137274194	0.7311111337487386	-0.5166479133790373	1.2477590471277755	84.21365670529457
11	4.0	wm	363	diff_vonmises	-0.1552953820229771	-8.897769967788388	1.1587524645859464	294.5879118112292	1.1476270048845534	295.92943521416424	0.1138595922709555	-0.3485010886815018	0.4623606809524574	77.01138369611692
12	5.0	ltm	363	diff_vonmises	-0.0064369657038954	-0.3688109677036661	1.5624601601465098	1.1742742864698936	0.0114083112367691	1.5773053891058637	0.2674621061911119	-0.2252696019626456	0.4927317081537575	107.99998223149902
13	5.0	perception	363	diff_vonmises	-0.0361033959777578	-2.0685722156151147	1.9481382787333688	2.445592192309405	0.2134452523988773	2.6863840329358606	0.7184409021862639	-0.3191649524406492	1.0376058546269131	91.36568591404
14	5.0	wm	363	diff_vonmises	0.0019271508329565	0.1104176092135312	0.733714740735299	103.4666752085516	0.714985814078597	103.8869515823921	0.2488963385961895	-0.2068811054417061	0.4557774440378956	105.32562306237554
15	6.0	ltm	363	diff_vonmises	-0.1291834598531788	-7.401667032484858	0.3605103433327262	84.90256626679101	0.3469391614752404	85.22264451394186	0.139164745062633	-0.181495863148374	0.320660608211007	139.32001187529164
16	6.0	perception	363	diff_vonmises	-0.0397910951727103	-2.2798618155996846	0.5802664263815827	94.11326686636512	0.5550360272440914	94.46115063879608	0.3584400200935036	-0.2814598773816232	0.6398998974751269	119.7389236068499
17	6.0	wm	363	diff_vonmises	-0.0731014493961658	-4.18840452668946	0.4984733421646237	105.02578661803324	0.4843548090361763	105.3309467406616	0.2023610353842819	-0.1967322164342668	0.3990932518185488	125.95154778236808
18	7.0	ltm	363	diff_vonmises	0.0434481271993856	2.489394316272357	0.961107965278754	105.38428323820752	0.936412708178428	106.1758146770741	0.2332982732459143	-0.260512278564402	0.4938105518103164	89.4845237572633
19	7.0	perception	363	diff_vonmises	0.0127638953858549	0.7313173357559954	1.4084833707429527	3.432646607790327	0.3436429467969691	4.162228376325381	0.5242611670893893	-0.3754497386995961	0.8997109057889854	98.22243417186792
20	7.0	wm	363	diff_vonmises	0.064764353148092	3.71072409828048	0.9453176017064822	4.919878334826958	0.5808763771175272	5.669024397923183	0.1452165693426057	-0.2270256578330163	0.3722422271756221	98.95761365077024
0	1.0	ltm	409	diff_vonmises	0.0435566520153023	2.4956123301968147	5.045561204991828	0.3455394931054013	1.2101771475659004e-17	3.478406686950692	-0.2525807066299058	-0.5535931373628976	0.3010124307329918	60.78334303308967
1	1.0	perception	409	diff_vonmises	0.0059015457505477	0.3381336641097494	11.199957947516044	0.7347721958575508	0.0270521455627942	3.939011039411143	0.3254057559438145	-0.6324971009338021	0.9579028568776166	40.25119589992255
2	1.0	wm	409	diff_vonmises	0.0185898036654144	1.065117292005075	4.01030040558877	0.5134535623547042	0.0403274640940238	3.782593598631135	-0.2312116960520161	-0.5946977282983487	0.3634860322463325	65.34581941721785
3	2.0	ltm	409	diff_vonmises	-0.0005376879931951	-0.0308072527049385	2.4524760765834466	1.2707628325479212	0.39270292189085	2.925878148653833	0.0767241270410248	-0.3850534637549585	0.4617775907959833	72.41649976887066
4	2.0	perception	409	diff_vonmises	-0.0136082364529383	-0.7796945153694446	6.227689613639996	1.3812375580516745	0.2181135202193401	3.04614726107169	0.7491920480295563	-0.4943073552021714	1.2434994032317277	52.35804667650535
5	2.0	wm	409	diff_vonmises	0.0398012807156804	2.2804454042239213	3.826496470854664	0.7691242885370299	0.1522771739425093	2.528749789310063	0.1111812004713586	-0.387995623419185	0.4991768238905436	65.07948621806636
6	3.0	ltm	409	diff_vonmises	0.0310601224929296	1.7796139300042233	3.210936295361376	0.7067568066668672	2.183908057103466e-11	2.055238770481087	0.1539602712107072	-0.3263193540636307	0.480279625274338	76.62924570838214
7	3.0	perception	409	diff_vonmises	-0.002442088823159	-0.1399213827630819	4.446979402002647	1.8867750570827155	0.1073507126012267	3.16936251586942	0.9764712515650832	-0.4860718066832771	1.4625430582483605	63.09572613129481
8	3.0	wm	409	diff_vonmises	-0.0178025471307323	-1.020010815173696	3.3619263133511863	0.8285389942970044	0.063570989665191	2.296246235024275	0.1896586008599593	-0.3508965554162362	0.5405551562761955	72.15307308250468
9	4.0	ltm	409	diff_vonmises	-0.0605460707813113	-3.469034321869488	1.8930627862748608	0.845711525953804	1.3073421422551814e-16	3.34164975510883	-0.109860196469649	-0.5222669589781204	0.4124067625084713	99.5649919604049
10	4.0	perception	409	diff_vonmises	-0.0426287147320886	-2.4424454402158373	1.6007783945701564	4.303605340192049	0.3041995587928364	6.691885812982533	0.5282201938207449	-0.7183757293523386	1.2465959231730834	91.87344999137034
11	4.0	wm	409	diff_vonmises	-0.0258732353799508	-1.4824271896197423	0.7201633767419078	284.3308801411759	0.7077840785085616	287.02012456407954	-0.098005449455357	-0.5606795464766492	0.4626740970212921	92.32020755226635
12	5.0	ltm	409	diff_vonmises	-0.0676882702565495	-3.878252208241192	1.508429387391486	1.3453545570499157	5.074187266473839e-18	2.31582156547781	0.2161499447785347	-0.3399492150401541	0.5560991598186888	110.18306033058612
13	5.0	perception	409	diff_vonmises	-0.0484795687119315	-2.7776746798081557	1.46820668427063	4.737773688674912	0.4275845355883905	5.547389442909775	0.7315936433066093	-0.4595986409412548	1.191192284247864	94.50421881990364
14	5.0	wm	409	diff_vonmises	0.0231569546638382	1.3267957686137215	1.0775360693476157	3.215725974729852	0.3257349573935496	4.187314057905113	0.2467916925022037	-0.336269875397544	0.5830615678997477	106.30297380442812
15	6.0	ltm	409	diff_vonmises	-0.0298904690324267	-1.7125977232245388	0.9188694691587592	1.4481106586791488	6.557910875591692e-16	2.078765055654585	0.1416889810955176	-0.2556273705821348	0.3973163516776524	132.0367599680718
16	6.0	perception	409	diff_vonmises	-0.0639762300406811	-3.665567970489103	1.061129809315146	2.327453887701284	3.239765772651068e-20	2.93719711280721	0.3546693674950185	-0.3690059532954047	0.7236753207904233	126.05367288618557
17	6.0	wm	409	diff_vonmises	0.0073317446977703	0.4200780276496593	0.5179683405092833	184.6467092696075	0.507104535841058	185.28099535920293	0.218273633935226	-0.2808209667893528	0.4990946007245789	122.31563195798124
18	7.0	ltm	409	diff_vonmises	-0.0287613898082955	-1.647906248945912	1.1673234399685406	3.135415421988799	0.3841053693657149	4.876702600182818	0.0710412850774919	-0.4144616039225596	0.4855028890000516	95.7553711433204
19	7.0	perception	409	diff_vonmises	0.0673196467583839	3.857131637566952	0.7904963687253614	376.0779756423058	0.7774342102074648	377.5984282389329	0.4829971463704083	-0.5375191118875904	1.0205162582579987	99.02505647620444
20	7.0	wm	409	diff_vonmises	0.0341409708284765	1.9561335369509667	0.7371803586674447	165.44277398070096	0.7202685326535813	167.15085367632	0.0412049590485708	-0.3968978128466141	0.4381027718951849	95.44634793732163
0	1.0	ltm	219	diff_vonmises	0.0558476732864021	3.1998359749363523	5.682739219061636	0.2199848884249803	6.064491204544773e-19	3.329211787223387	-0.3257127962859862	-0.5298581465623478	0.2041453502763615	57.193773810322
1	1.0	perception	219	diff_vonmises	0.0186188276739705	1.0667802451998911	12.555676611541823	0.6707140939342616	0.0671056817114827	3.796063927814832	0.2929517132877494	-0.6228644686559098	0.9158161819436592	37.727614549944605
2	1.0	wm	219	diff_vonmises	0.0743134604085397	4.257847642421866	4.051712694742807	0.3725834102734108	0.0189151915559804	3.667231068338431	-0.306283852163066	-0.5792199689603607	0.2729361167972947	65.95365515249964
3	2.0	ltm	219	diff_vonmises	0.0529861299675346	3.035881619871391	4.375170876954563	0.4062794576041847	0.0120819726350248	2.035257569702884	0.0001051977433755	-0.3216496122731451	0.3217548100165207	64.65688818034013
4	2.0	perception	219	diff_vonmises	-0.0031359159727224	-0.179674750144658	7.238730478076751	1.2879978753049757	0.2899699301313153	3.0264777724860306	0.7264411876661173	-0.5124483612615335	1.2388895489276508	48.21851536859279
5	2.0	wm	219	diff_vonmises	0.0776980200056308	4.451768622845684	3.966008464821413	0.6745284149879912	0.1617436563853937	2.627529312035536	0.0277423220349443	-0.4079364558340598	0.4356787778690041	63.19540614539349
6	3.0	ltm	219	diff_vonmises	0.0443359853056818	2.540264838569604	3.072557369971758	0.7639942494066368	0.3396451022709059	1.943535855841476	0.0850222153076494	-0.2791440173825692	0.3641662326902186	67.65793336107646
7	3.0	perception	219	diff_vonmises	-0.0005700587679528	-0.0326619614781275	4.575765050134705	1.9007472149135656	0.2225392417631894	3.1129481732110382	0.96047586647302	-0.4748284009747069	1.435304267447727	60.93434589138892
8	3.0	wm	219	diff_vonmises	0.008732858889228	0.5003559574360731	3.933979448393778	0.584765509375868	0.1188081195419329	2.138288489262464	0.0635627887314103	-0.330534484083287	0.3940972728146973	64.81926722460247
9	4.0	ltm	219	diff_vonmises	0.030681222604108	1.757904565516771	0.7083751164665005	155.2440830202876	0.692036914027395	157.4886674162112	-0.1518639797378043	-0.4421475966476755	0.2902836169098712	89.93343352283497
10	4.0	perception	219	diff_vonmises	-0.0534640268340198	-3.063263093363518	1.9212586275890688	3.630314951266281	0.3832381444011398	5.612562688276787	0.5642083609263138	-0.6174355983684626	1.1816439592947765	83.73303201744184
11	4.0	wm	219	diff_vonmises	-0.0079212403029033	-0.4538536378652927	0.7692493136731114	178.1104534811973	0.7515091096293298	180.6637693546679	-0.1483879735860185	-0.5138280136669238	0.3654400400809052	87.23321151292353
12	5.0	ltm	219	diff_vonmises	0.001687138922558	0.096665939714823	1.4927033505623215	1.6473534328476376	0.2313677817199189	3.311704859325847	0.0559682973552936	-0.3875895669438739	0.4435578642991675	93.82152099851368
13	5.0	perception	219	diff_vonmises	-0.0301878108712826	-1.729634155663639	1.7200456265192616	3.614206036004653	0.3305545379477123	5.284059585874203	0.5622282919927173	-0.5649682483933569	1.1271965403860742	89.47932029418678
14	5.0	wm	219	diff_vonmises	0.0522389282404139	2.993070114462487	1.0948944202654198	2.2651974508715127	0.163842778130544	4.205943986550484	0.0312150156107327	-0.4732626394601476	0.5044776550708803	110.393678020365
15	6.0	ltm	219	diff_vonmises	-0.1246397619897358	-7.141332321526961	0.50110026615254	243.63591117431204	0.4911169751808996	245.41183263918356	0.0190842782505669	-0.4382384431764343	0.4573227214270012	116.39673100864997
16	6.0	perception	219	diff_vonmises	-0.0596638822119296	-3.4184886401092367	0.5519711174699938	246.26192315692103	0.536965597616817	248.0589911005752	0.2391527657425811	-0.5563138117601483	0.7954665775027294	115.8882784399145
17	6.0	wm	219	diff_vonmises	-0.0104929514542655	-0.601201832965073	0.4798638239968291	257.9834011844271	0.469235857714019	259.94447711096296	0.0376980283466394	-0.5010232983739904	0.5387213267206299	119.60051703101962
18	7.0	ltm	219	diff_vonmises	-0.0331687634254448	-1.9004301559458785	0.7998028252569366	288.2831454197397	0.7886225556093556	290.673963452878	-0.1052443558938023	-0.493956950832974	0.3887125949391716	86.62962662010406
19	7.0	perception	219	diff_vonmises	0.0150357265976403	0.8614836759573913	1.67553277817815	2.2764581847987118	0.0647402150883347	4.548332223898326	0.2831510605090396	-0.6408367600941197	0.9239878206031592	100.7558950610572
20	7.0	wm	219	diff_vonmises	0.1588960734866428	9.104074391985217	0.7830363804005376	84.91781511884238	0.747400547076196	87.39173381815078	-0.1485331698246419	-0.4965392921719918	0.3480061223473498	86.7400664855654
0	1.0	ltm	317	diff_vonmises	-0.1565928883899223	-8.972111606505699	3.1259321745123985	0.434299771743679	3.5052337385926296e-20	1.9729132441457229	-0.0228280223021182	-0.3134378496254641	0.2906098273233458	77.68191708096938
1	1.0	perception	317	diff_vonmises	-0.063308912390262	-3.627333485525497	15.10685262783572	0.7847192850149229	2.586030586353836e-23	2.515858011806932	0.8055989084225059	-0.4004112386963299	1.2060101471188358	34.85771445895341
2	1.0	wm	317	diff_vonmises	-0.0394937330604742	-2.262824221581464	6.766255170645884	0.3613783640774733	4.1712725727641304e-19	2.057365790185658	0.0400754905528433	-0.3274394474550408	0.3675149380078841	52.32754907738604
3	2.0	ltm	317	diff_vonmises	-0.1359680294695187	-7.790394237313827	3.122566955070604	0.7519631851823417	0.2368652006122525	1.6871375419171166	0.1682676459938967	-0.2427085992744884	0.4109762452683852	70.53324876108661
4	2.0	perception	317	diff_vonmises	-0.061134526618012	-3.5027503577422827	7.698652593833754	1.1574908696450694	0.1455843832181901	2.1332388553433232	0.8680446724017514	-0.3471221512614632	1.2151668236632145	48.05532501317936
5	2.0	wm	317	diff_vonmises	-0.0733042075574693	-4.200021713593987	3.7482160668595834	0.6147666291897411	0.1466576771031427	1.6038345884734877	0.1621117101065657	-0.2431778372659619	0.4052895473725276	66.60672213097288
6	3.0	ltm	317	diff_vonmises	-0.0608437268864298	-3.486088760439081	1.1215065285526489	17.45882625667071	1.0014046598331157	17.895914139357103	0.2447211151227248	-0.1837952807448923	0.4285163958676172	86.60474719299089
7	3.0	perception	317	diff_vonmises	-0.0403345604784289	-2.3110000839291502	3.7475243794651	2.2790535789408843	0.4304817718688709	2.6064595072883066	1.081203172420039	-0.3568342071897192	1.4380373796097583	65.53815455000648
8	3.0	wm	317	diff_vonmises	-0.1445271406060614	-8.280795181821142	1.5805782429343826	6.145138656414957	1.1534864263123654	6.618316378826988	0.2954612833518255	-0.2081299091311077	0.5035911924829333	76.30652467359499
9	4.0	ltm	317	diff_vonmises	-0.1783079341345412	-10.216292079605882	1.951871040806777	1.965994534419002	0.6795909801180764	2.866552248409217	0.1948240584395462	-0.2658445660984212	0.4606686245379674	75.92056686531544
10	4.0	perception	317	diff_vonmises	-0.1190945312038993	-6.82361400107252	2.326279209343025	2.956759682137792	0.3396233881277074	4.005118199082497	0.8000400466441939	-0.4782797845107258	1.2783198311549198	80.42275279756899
11	4.0	wm	317	diff_vonmises	-0.2052353842843071	-11.759121326236386	1.178332079008441	255.99209407661132	1.1669784158642218	257.0778392763013	0.1339972077606148	-0.2958928906368889	0.4298900983975038	77.30519161725204
12	5.0	ltm	317	diff_vonmises	-0.0042135810165845	-0.241420408886739	1.4367050404827044	1.2582971123577218	6.9384892438492056e-15	1.6462832823844855	0.268990750258928	-0.2320084443228171	0.5009991945817451	112.4696035672374
13	5.0	perception	317	diff_vonmises	-0.0282483776985376	-1.618512820217684	2.477865332060941	1.9556215396324008	0.0143333709760638	2.1470045690466137	0.7998727799814551	-0.3287507573229036	1.1286235373043587	86.97330004318053
14	5.0	wm	317	diff_vonmises	-0.0651124724903999	-3.7306698673615912	0.7439242597493683	134.5702102844362	0.7299470799342641	134.97044715291997	0.2427800299655516	-0.1979798600909834	0.440759890056535	104.49398964108116
15	6.0	ltm	317	diff_vonmises	-0.1295490344458577	-7.42261291374257	0.6123929674439258	1.4743770363129725	1.1101928761084083e-10	1.7602644603295912	0.1148287074102076	-0.1640966389194545	0.2789253463296622	146.20580158461797
16	6.0	perception	317	diff_vonmises	-0.0449761837187974	-2.576945505692104	0.7857253682065045	2.4814500312766605	2.318587256986137e-21	2.78582780789515	0.3033197932902514	-0.2882498912816305	0.5915696845718819	138.0214537942786
17	6.0	wm	317	diff_vonmises	-0.1862678457978208	-10.67236142320876	0.4905470690695406	99.48083116474596	0.4773722078024617	99.7358624741244	0.1824801173372918	-0.1736988622084965	0.3561789795457883	126.67199428229256
18	7.0	ltm	317	diff_vonmises	0.1490041628256991	8.537309659792678	0.8897899905290941	36.45458797497565	0.8400317969849885	36.83259145721278	0.2282628490839648	-0.1739816805153253	0.4022445295992902	96.3863544317455
19	7.0	perception	317	diff_vonmises	0.0002936255611035	0.0168235054083947	0.9073406116494488	161.84255523657893	0.8893644170517502	162.08510517776335	0.4763604131935253	-0.2436607587772581	0.7200211719707834	97.302290448928
20	7.0	wm	317	diff_vonmises	0.0891150612492627	5.105916900632586	0.8758780978440424	42.56129218823871	0.8404316001382135	42.90039996242376	0.1822158593370737	-0.1472165267852281	0.3294323861223018	96.38647362439328
0	1.0	ltm	484	diff_vonmises	-0.1318788057479121	-7.556098976580989	2.9774269234323727	0.3552741927955582	6.397348729561157e-19	1.818184738919165	-0.0577045442164616	-0.2887722131212827	0.231067668904821	79.64234763889067
1	1.0	perception	484	diff_vonmises	-0.0560727660769035	-3.212732841830905	15.621879647756446	0.6729373109829379	1.6941585387372066e-18	2.3434563385131435	0.6792557062564413	-0.3729726601943724	1.0522283664508136	34.26982140235282
2	1.0	wm	484	diff_vonmises	0.005041281945023	0.2888441787853221	4.745359772840251	0.3600447236860871	1.1126923084878837e-18	1.9638218464347408	-0.0089618054334624	-0.3125290152942401	0.3035672098607777	62.71759744412083
3	2.0	ltm	484	diff_vonmises	-0.0435432730697601	-2.494845773082913	4.100732222779157	0.4668235617205961	0.0880998315561088	1.3614487730996765	0.1275860830281246	-0.2104107797791782	0.3379968628073028	64.9683243224384
4	2.0	perception	484	diff_vonmises	-0.0343603774556515	-1.9687046106852968	7.597690360094205	1.1672431980964155	0.2605658654186866	2.069725672877908	0.8406977682580242	-0.3462858890505024	1.1869836573085266	47.75026713820162
5	2.0	wm	484	diff_vonmises	-0.0028464863985618	-0.1630916570789885	4.328721519888305	0.5086525844473185	0.170686621883722	1.496160219604893	0.127825743493228	-0.2322509494207215	0.3600766929139495	61.645642751730605
6	3.0	ltm	484	diff_vonmises	0.0089615294035416	0.5134578128053253	1.3392829076040504	85.11993030937447	1.3130231007482676	85.64876108924969	0.1929611795576349	-0.1883443167726017	0.3813054963302367	75.74900903954907
7	3.0	perception	484	diff_vonmises	-0.0318266243331116	-1.823531250435668	4.164059592219702	2.081033400964024	0.3970684502440543	2.5567023459641494	1.0533016024205002	-0.3686347987938534	1.4219364012143536	62.62657242612164
8	3.0	wm	484	diff_vonmises	-0.0984693100301904	-5.641875876295136	1.8922047103959747	2.460458714918082	0.9317977621874016	3.136474113051732	0.1962036268552285	-0.2223019687306887	0.4185055955859172	73.23039036376792
9	4.0	ltm	484	diff_vonmises	-0.1441773931504106	-8.260756128716913	1.2639978596349997	109.29612627378536	1.2394050084317263	110.26823316307566	0.1169183043959449	-0.2682350746051778	0.3851533790011228	74.61191359927881
10	4.0	perception	484	diff_vonmises	-0.1040688403838518	-5.9627053328153306	2.412158505894068	2.6769233397155974	0.31672630618224	3.719630826529785	0.7521866744279211	-0.4579666425197481	1.2101533169476693	79.57444575916722
11	4.0	wm	484	diff_vonmises	-0.1578883265652885	-9.046334746574312	1.1970739420072305	279.2596347792684	1.1863250767037683	280.45936490150336	0.103334542986218	-0.3146242111318926	0.4179587541181107	75.72239636722432
12	5.0	ltm	484	diff_vonmises	0.0405337017942261	2.322410040851008	1.3508495487729404	1.7059676072714005	0.2905395310497808	2.3195193029327554	0.2103769477322064	-0.2255425378756329	0.4359194856078394	100.02164768485568
13	5.0	perception	484	diff_vonmises	-0.0232795335020937	-1.333819018703374	2.2557142095666323	2.087705403383823	0.1395591376236887	2.618165885637771	0.6809211668339883	-0.3511289925839687	1.032050159417957	86.92446162503174
14	5.0	wm	484	diff_vonmises	-0.0065662427728807	-0.3762179981443442	0.6756297938228137	110.3800512832394	0.6581414245738401	111.0607742384248	0.1790007275391296	-0.2381443479853207	0.4171450755244503	106.85103093000144
15	6.0	ltm	484	diff_vonmises	-0.1866746850374407	-10.695671594579297	0.3972042592623587	123.07004406369462	0.3860485874643659	123.6600210386453	0.1182731684098037	-0.2310328091417375	0.3493059775515412	133.6532577018956
16	6.0	perception	484	diff_vonmises	-0.0304627859962521	-1.745389069795476	0.5651594625246343	157.0591334736656	0.5478218665642938	157.73729577611903	0.3395188509508813	-0.3499317103917345	0.6894505613426158	119.10325757606368
17	6.0	wm	484	diff_vonmises	-0.138840557071444	-7.954977945438983	0.4839358966489557	109.09493958074542	0.4679261244343611	109.715660294172	0.1757233127512165	-0.2597544173159427	0.4354777300671593	125.44537169624503
18	7.0	ltm	484	diff_vonmises	0.0888388805150289	5.090092910178165	0.9490885903426484	149.0430356013817	0.932707970288769	149.85226655187813	0.1977233397758624	-0.2513596614085109	0.4490830011843734	89.17936377027593
19	7.0	perception	484	diff_vonmises	-0.0196741689950309	-1.1272468488424117	2.0523264977770963	1.6271210125655868	1.1457132962686865e-13	2.397811760354016	0.4709713824455475	-0.3675592651802309	0.8385306476257784	95.8306355608534
20	7.0	wm	484	diff_vonmises	0.1482916777621124	8.496487272683048	1.556562729044748	1.3676794403118362	0.3509593983508211	2.145256293517189	0.1354594431282044	-0.2193632406100581	0.3548226837382625	90.5671443343941
0	1.0	ltm	52	diff_vonmises	0.0289936483323853	1.6612136821321954	4.733457397558063	0.3043694530112557	7.321038760836719e-16	3.6144560350780695	-0.3189646525427488	-0.5752387118969972	0.2562740593542483	62.79905034638946
1	1.0	perception	52	diff_vonmises	-0.0040769981304278	-0.2335947859562441	14.524817068227398	0.6213715897137273	0.0311707123124973	3.91402912353751	0.29373727492528	-0.6321964805893167	0.9259337555145968	35.31865868648757
2	1.0	wm	52	diff_vonmises	0.0510626472647443	2.92567417903509	3.204708099709137	0.4806180280261247	0.0236435440538037	3.991305499072893	-0.3235564312299445	-0.6256065122560862	0.3020500810261417	73.54826084671905
3	2.0	ltm	52	diff_vonmises	0.0292460292203297	1.6756740418411784	3.799306988152598	0.4730518411044566	2.7125053936719018e-15	2.2416418368989977	-0.0031922224993896	-0.3565911642937768	0.3533989417943872	70.29697113533999
4	2.0	perception	52	diff_vonmises	-0.0174544134374374	-1.0000642238415962	7.074449432833188	1.2290194851117118	0.2262244749860378	3.0464783923229413	0.6791166999933285	-0.5057771784304959	1.1848938784238243	49.11228500477873
5	2.0	wm	52	diff_vonmises	0.0434608205669706	2.4901215926627853	3.7584193144059777	0.7801393486855548	0.16699056284179	2.8507875051080376	0.0471449980466768	-0.4384816929625898	0.4856266910092666	64.76116692824723
6	3.0	ltm	52	diff_vonmises	-0.0130103279964784	-0.7454368842791087	3.160728558806261	0.8309853155485387	0.2037012767372388	2.315497265060006	0.1134734215198325	-0.3409634171134352	0.4544368386332677	69.85216910239018
7	3.0	perception	52	diff_vonmises	-0.0173878576528871	-0.9962508582846824	3.884139186190177	2.237859534717384	0.2269338397356257	3.662728733410266	0.9710382151679544	-0.540694967522854	1.5117331826908085	65.5934593267317
8	3.0	wm	52	diff_vonmises	-0.0408892935758815	-2.342783949169402	3.3130391823041	0.8204778840003413	0.1333686748420508	2.630383089954578	0.0921187908468844	-0.3965015335183366	0.488620324365221	69.89930904555683
9	4.0	ltm	52	diff_vonmises	-0.0156822475100426	-0.8985265956049854	1.700114219305976	1.2102897672742592	0.1711448534358519	3.562019218828865	-0.1021313308740086	-0.4732017301028819	0.3710703992288733	88.74558909114785
10	4.0	perception	52	diff_vonmises	-0.0699431927404851	-4.00744974969986	1.5718612188210228	5.780041451384359	0.5194385623720826	7.759512549236712	0.6329518506092624	-0.655246125385459	1.2881979759947213	86.9426201150749
11	4.0	wm	52	diff_vonmises	-0.0523393154273116	-2.9988218765889183	0.7414932497783847	178.80692407237748	0.7224445752318975	181.4458506435916	-0.1122822375090848	-0.5442704109367789	0.431988173427694	90.5559403340802
12	5.0	ltm	52	diff_vonmises	-0.0156650971421061	-0.8975439519051274	0.6508975931617778	133.45593196486556	0.629495783016054	135.29651918536595	0.0433970486403296	-0.4357631196156379	0.4791601682559676	102.21717953963132
13	5.0	perception	52	diff_vonmises	-0.0098468254177789	-0.5641815380408799	1.2533958922150723	6.819237383965068	0.5065882419801881	8.63832068935642	0.5103001885344032	-0.5971813047595899	1.1074814932939931	94.0727156216726
14	5.0	wm	52	diff_vonmises	-0.0156689501054242	-0.8977647104418732	0.5269749310163049	269.88289255452787	0.5163231790000434	271.98077099216187	0.0149941687606087	-0.5049264636278501	0.5199206323884589	113.04467818045656
15	6.0	ltm	52	diff_vonmises	-0.1521642324806872	-8.718368313990853	0.4182160541290863	250.70128686041485	0.4088209325827703	252.7598415404076	-0.0397676513465796	-0.4946211956601267	0.4548535443135471	125.04042227073862
16	6.0	perception	52	diff_vonmises	-0.0202061721857738	-1.157728386359474	0.539271363604673	311.83354965746173	0.5265617324675744	313.8695419420094	0.2318181647336814	-0.6129004004011414	0.8447185651348228	116.60148934012896
17	6.0	wm	52	diff_vonmises	-0.0413492940996853	-2.36914003775717	0.4436233296989266	294.01173347206736	0.4338996569702432	296.2762218405841	-0.0022572123748432	-0.5626373669284703	0.5603801545536271	122.9695658361455
18	7.0	ltm	52	diff_vonmises	-0.0769747106682825	-4.410326050533223	0.765605134733576	218.0480095344937	0.7504926462200948	220.59839259697372	-0.1211690344319151	-0.5222517289809936	0.4010826945490784	88.44443420796225
19	7.0	perception	52	diff_vonmises	0.0781345573052861	4.476780367715973	1.5861991676791043	2.412849954039722	0.0681102872909299	4.894949980240155	0.2481297512897924	-0.6816114706268304	0.9297412219166228	102.82480925266614
20	7.0	wm	52	diff_vonmises	0.1283420786562422	7.353459440938722	0.7776965683982667	144.33808704659725	0.7552805150361789	147.01109686355	-0.1710257850551357	-0.5332063229125197	0.3621805378573839	86.23017722376369
0	1.0	ltm	29	diff_vonmises	-0.2296775354682738	-13.15955343129836	1.2069891355036644	0.6302360185666783	0.0505397955603611	1.2569390838190702	0.0294739893851869	-0.1686189308910275	0.1980929202762144	115.95854067154626
1	1.0	perception	29	diff_vonmises	-0.0764473209930118	-4.380108847981433	15.579071675917705	0.636019133755222	7.72709842104161e-18	1.499792971462326	0.7541819102132495	-0.2386994650226819	0.9928813752359316	34.32434150042539
2	1.0	wm	29	diff_vonmises	0.0110500307285766	0.6331201242373135	3.069813418247678	0.3997879804744335	4.157415965908656e-35	1.0990853720865406	0.0903522953585296	-0.1743529324756909	0.2647052278342205	78.41270057647088
3	2.0	ltm	29	diff_vonmises	0.0307913964905656	1.7642170642233446	4.343820869100069	0.4703133944635593	0.310671880511275	0.8913800127811394	0.189186605778772	-0.135739479702766	0.324926085481538	60.89058454642466
4	2.0	perception	29	diff_vonmises	-0.0170172521236545	-0.9750167255954424	7.029041192239955	1.2294250312174997	0.3472393217558981	1.5780091390554845	0.9305573956808976	-0.2620178851889876	1.192575280869885	49.52524912084616
5	2.0	wm	29	diff_vonmises	0.0237732743046859	1.3621082828653086	5.1665568840927785	0.3353604817475265	0.1600363988123517	0.7924317563348516	0.1488257363305801	-0.1247098582942262	0.2735355946248063	57.58477133110321
6	3.0	ltm	29	diff_vonmises	0.0825416508608053	4.729288228366525	1.643723007473897	123.52398238774478	1.6274316321418865	123.80692883121743	0.2130508936851001	-0.1416277779942447	0.3546786716793448	69.74558205068874
7	3.0	perception	29	diff_vonmises	-0.0295475880035323	-1.6929520873937878	4.679459407500931	1.9370078307624845	0.3570038654505558	2.2175793480485178	1.1324124085121985	-0.3305479759821992	1.4629603844943977	59.96146495392168
8	3.0	wm	29	diff_vonmises	-0.0815059043675262	-4.669944325656157	1.5685830038304502	68.35120804228423	1.536469961183203	68.76513630170689	0.1977842107710863	-0.1683198118548681	0.3661040226259544	70.43653021875377
9	4.0	ltm	29	diff_vonmises	-0.1750395369948556	-10.029026717729264	1.6434653074538546	140.9936617712664	1.6253489396218768	141.6778926701515	0.1228354182299824	-0.2214599065322886	0.3442953247622711	65.70787455994
10	4.0	perception	29	diff_vonmises	-0.0994246393129059	-5.696612212239997	2.659386098594336	2.1660941480723896	0.1644570965443267	3.095664876642497	0.7466802498393418	-0.4264731630999324	1.1731534129392742	79.53413910877171
11	4.0	wm	29	diff_vonmises	-0.1372402565665209	-7.863287480554229	1.4011443304749511	218.89112933149744	1.3876755304751278	219.84965793162291	0.1306187493631938	-0.2784407885121425	0.4090595378753363	70.77617118576359
12	5.0	ltm	29	diff_vonmises	0.0573008078783693	3.2830944541205405	1.876800629165408	0.8984070479856787	0.1477889510593805	1.0669609062180867	0.2501626174425549	-0.135287954882028	0.385450572324583	94.46845467808016
13	5.0	perception	29	diff_vonmises	-0.0302016461979064	-1.7304268614873717	2.1107704138134564	2.0077163340405755	0.1855903149659088	2.034070404765566	0.6835265314930352	-0.2527299596552545	0.9362564911482898	89.33010678408806
14	5.0	wm	29	diff_vonmises	0.0790609091540997	4.5298564189971335	1.5902604996764471	0.9473904518033158	0.0798512672666665	1.154496078674702	0.2264587303965511	-0.1516992578192934	0.3781579882158445	104.265873429497
15	6.0	ltm	29	diff_vonmises	-0.2231874167246674	-12.787697018750968	0.4338003756674062	85.33090266549094	0.4212029807813627	85.53257488459035	0.1515305760233545	-0.149090008195472	0.3006205842188265	132.16109247579902
16	6.0	perception	29	diff_vonmises	-0.0335854888387998	-1.9243067633469644	0.7339271070956156	210.72888419681843	0.7221221040910757	211.0066431643301	0.394431982064674	-0.2449492305936829	0.6393812126583569	107.29747380558518
17	6.0	wm	29	diff_vonmises	-0.0266767241140193	-1.5284637029681802	0.9310023671388729	1.5024057181126738	0.0671755252207554	1.7263738139642049	0.2001887905606139	-0.1799130948690651	0.380101885429679	127.94443355515764
18	7.0	ltm	29	diff_vonmises	0.0337383861164854	1.9330671320573865	1.2096199143406137	133.27615901538138	1.1895585888762008	133.94542405042492	0.2414671146810292	-0.2342961660066489	0.4757632806876781	79.82861232558946
19	7.0	perception	29	diff_vonmises	-0.0164773794865261	-0.9440843020133896	1.9356278229008663	1.7596916659343615	2.010803261644712e-17	2.4894556033155486	0.493790452245083	-0.3776684849995719	0.871458937244655	98.53305029213548
20	7.0	wm	29	diff_vonmises	0.002599586180128	0.1489453166018718	0.622923586986314	10.988625434980069	0.50396207443773	11.634706288355394	0.0864755596338779	-0.1976331747915101	0.2841087344253881	114.0036030561787
0	1.0	ltm	127	diff_vonmises	-0.2436569295012149	-13.960513709536254	2.0120774344422574	0.4044871451174368	2.852427381363124e-13	1.098057142599495	0.0346682513725608	-0.171016927870344	0.2056851792429048	96.6610645510183
1	1.0	perception	127	diff_vonmises	-0.0657761198663507	-3.768694061088506	15.159964877926797	0.722300631812716	1.1631283418069737e-12	1.6224977875400537	0.854054666134509	-0.2582285430422874	1.1122832091767965	34.79314438779585
2	1.0	wm	127	diff_vonmises	0.0055230099583876	0.3164451608243357	5.785276849486866	0.3148602955455213	3.070995201928716e-23	1.0875408664658892	0.1218585083293774	-0.1730847199282872	0.2949432282576647	56.6751448502267
3	2.0	ltm	127	diff_vonmises	-0.0772616313003277	-4.426765391804637	4.65778953302709	0.4035627181349033	0.1691633232476741	0.8306414863043439	0.1814279245772103	-0.1284110293718748	0.3098389539490851	60.57629511351686
4	2.0	perception	127	diff_vonmises	-0.0357973479580914	-2.051036955759894	7.9932047441792	1.1513946367175076	0.2895005792381875	1.5608689389578418	0.9520609474912864	-0.2626343975772586	1.2146953450685452	46.78766515429646
5	2.0	wm	127	diff_vonmises	-0.0081938782823075	-0.4694746434201259	5.267268737489824	0.3284802605382156	0.1375940113386561	0.7817225499367494	0.1506918955329034	-0.1230823741254288	0.2737742696583322	57.341596967614976
6	3.0	ltm	127	diff_vonmises	0.0413278181782377	2.3679095580970637	1.625976578384079	93.95889055562552	1.6096482214361838	94.08017784679244	0.2067956650164006	-0.0979022797091833	0.304697944725584	71.92736195674962
7	3.0	perception	127	diff_vonmises	-0.0319935940932947	-1.833097913000466	4.282013123298675	1.948385928434366	0.538536876053092	1.9536422744996136	1.0583768879678868	-0.2731176643703221	1.331494552338209	61.424701731008696
8	3.0	wm	127	diff_vonmises	-0.1159045184898446	-6.640839735964115	1.7198235686127743	92.68202746740153	1.6993549104520482	92.8748849510836	0.2267396526709006	-0.1240158673862001	0.3507555200571008	69.14914598622755
9	4.0	ltm	127	diff_vonmises	-0.1476363004433862	-8.458936918331435	1.719441905310365	120.83562076309047	1.7002183367350596	121.32267842252932	0.1602808617729678	-0.1827297656326152	0.3430106274055831	65.80179688391374
10	4.0	perception	127	diff_vonmises	-0.1215654698975137	-6.965188359652192	2.6747616883615626	2.327067170653462	0.3470647406374975	2.9815637306404814	0.7750708331258429	-0.3721075802348734	1.1471784133607164	76.22453773453219
11	4.0	wm	127	diff_vonmises	-0.1789100847522319	-10.250792768630754	1.446257407206197	232.71983885654325	1.4360482365988998	233.40841124279476	0.1301287756089379	-0.2131193907023032	0.3432481663112412	70.44103616357495
12	5.0	ltm	127	diff_vonmises	0.093409110716665	5.351947812135135	2.137018743678904	0.7146825866577988	4.932676088919999e-13	0.9177929989339926	0.2376258600492181	-0.1407277077994324	0.3783535678486506	93.97322891118478
13	5.0	perception	127	diff_vonmises	-0.0347907581608084	-1.993363608674651	2.776623555117648	1.6467530032718358	0.0115201093655167	1.690812436944381	0.7595073427116598	-0.2620122894075509	1.0215196321192106	82.23444574889308
14	5.0	wm	127	diff_vonmises	0.0269760263095912	1.5456124555734505	0.7682589992654821	66.16531633164186	0.747332450999436	66.3887113505876	0.1987545103361299	-0.1378248964397173	0.3365794067758472	104.14863897856311
15	6.0	ltm	127	diff_vonmises	-0.2175653353669658	-12.465575484875488	0.4037548377841241	61.81884976535254	0.3882107157832788	62.04763434860413	0.1244065692372338	-0.1420280025603322	0.266434571797566	134.8999912412701
16	6.0	perception	127	diff_vonmises	-0.0646030599693853	-3.701482679876336	0.5405327377082522	86.03568412885754	0.5149484084891441	86.34420933087866	0.336083717263147	-0.2697162794711163	0.6057999967342633	123.41576165601406
17	6.0	wm	127	diff_vonmises	-0.1974681075655472	-11.31408915194122	0.5736698687733803	62.31208105902965	0.5527115758843602	62.53249680319618	0.1896292692673391	-0.1578893543900337	0.3475186236573728	119.68788407617352
18	7.0	ltm	127	diff_vonmises	0.1600198161013018	9.168460101064172	1.0470053087331102	103.54995194807192	1.029013496067941	103.88560499413887	0.2346543667572618	-0.1587204179301551	0.3933747846874169	88.264845818975
19	7.0	perception	127	diff_vonmises	-0.0624969422970964	-3.5808110260962653	2.274256490232444	1.4167617138568187	0.0302964576579774	1.6755566837204297	0.5146504300199598	-0.2503000398923691	0.764950469912329	90.18018194208506
20	7.0	wm	127	diff_vonmises	0.168937139650995	9.67938510501421	2.390574046484615	0.5514191813715611	0.0148123604867193	0.8264660472112098	0.1830186296821644	-0.1269405065416658	0.3099591362238303	88.34476368723077
0	1.0	ltm	225	diff_vonmises	-0.1053837220629087	-6.038042503584368	1.9057187270441172	0.2411180311998125	6.286814983809548e-19	1.5361389868131994	-0.1236798016202948	-0.2418123585577892	0.1181325569374944	99.23858662613743
1	1.0	perception	225	diff_vonmises	-0.0255514263700103	-1.4639888915408703	13.825170960633915	0.6818143477409554	0.0528859217662967	2.17590921431485	0.6366017779191029	-0.3543998632200546	0.9910016411391576	36.23091272583906
2	1.0	wm	225	diff_vonmises	0.046220321316575	2.6482293391783	5.801140613846788	0.2377753058591194	3.764911278958778e-22	1.650122004892531	-0.0395715846632409	-0.2626230334681179	0.2230514488048769	56.59709822206699
3	2.0	ltm	225	diff_vonmises	0.0324215317991326	1.8576169374394889	7.0892280838808	0.2518504172097808	5.2693039008743126e-23	1.120904650898608	0.0840481311403464	-0.178397333353655	0.2624454644940014	51.10033854147972
4	2.0	perception	225	diff_vonmises	-0.006847427582313	-0.3923287009880056	7.971823673546722	1.2995950628682746	0.4360000623834188	2.151134919748508	0.9339865012203312	-0.3799128686764529	1.313899369896784	45.94233533923557
5	2.0	wm	225	diff_vonmises	0.0852833085651905	4.886373643697321	5.138411300138536	0.3182150362663142	0.1148208701350601	1.3436090906461824	0.0409022309404095	-0.2135081695158227	0.2544104004562323	57.24195180329923
6	3.0	ltm	225	diff_vonmises	0.1360438984563887	7.794741210057407	1.7028728079669255	69.7694322563297	1.6786629890098534	70.13394527302542	0.1142945944128897	-0.1343570566578513	0.248651651070741	66.05469350527176
7	3.0	perception	225	diff_vonmises	-0.0063417126979839	-0.3633533724790007	5.068439317964166	1.771342377745348	0.4506861946764211	2.08115253814779	1.0526119290820115	-0.3181974495126665	1.3708093785946782	57.10793521729815
8	3.0	wm	225	diff_vonmises	-0.0337139161340096	-1.931665105336766	3.537767280213456	0.5523728144590021	0.5430856552958236	1.1431667115755262	0.1056390844709862	-0.1659545168831233	0.2715936013541095	62.02600080265137
9	4.0	ltm	225	diff_vonmises	-0.0744366463900703	-4.264905679258744	1.376079593852016	158.11998408227367	1.361848845704874	159.13322755431156	-0.0100874337832124	-0.2524020178346191	0.2423145840514067	67.28438971820356
10	4.0	perception	225	diff_vonmises	-0.0749339664195626	-4.293400018015977	2.8163598721269145	2.060669647525663	0.2839809299733903	3.2294044429406776	0.6324137522051368	-0.431782003544297	1.064195755749434	74.59514624945018
11	4.0	wm	225	diff_vonmises	-0.099796048784584	-5.717892407438337	1.2472429467331876	209.20168327159905	1.2347535441477206	210.47785245555036	-0.0124170875740929	-0.3050099709064291	0.2925928833323361	70.77023125670976
12	5.0	ltm	225	diff_vonmises	0.0988767073765515	5.665218024826456	2.2216876858388512	0.8107532884062866	0.2653347655480694	1.4924098856845125	0.1412074329006414	-0.1907533660119356	0.3319607989125771	81.29493069704512
13	5.0	perception	225	diff_vonmises	-0.039473674705601	-2.2616749625032546	2.779535579887442	1.7829810406264244	0.0821448435851256	2.352812360913351	0.7118752568695528	-0.3430417289711823	1.054916985840735	80.0938614315269
14	5.0	wm	225	diff_vonmises	0.1395650923370826	7.996490758268462	1.8682773352816808	0.7139439309364513	2.402043540470681e-17	1.543717763886422	0.1077256133817773	-0.2372662607481311	0.3449918741299085	100.13493873861177
15	6.0	ltm	225	diff_vonmises	-0.2032427339179539	-11.64495087019915	0.5492812599644737	96.67088620027432	0.5347164208122712	97.33251627009672	0.0971799935397044	-0.2104720678978147	0.3076520614375191	116.45074532839094
16	6.0	perception	225	diff_vonmises	-0.0844268170268663	-4.837300293362677	0.5852879866426878	127.8053077506158	0.5649152330423288	128.58325317637446	0.2900987345866213	-0.3394961792245841	0.6295949138112054	116.44571697697508
17	6.0	wm	225	diff_vonmises	-0.0606087580807313	-3.4726260395553274	0.4902469317734959	34.900671912612744	0.445448352953362	35.65715992317012	0.111673312817043	-0.254730239212932	0.3664035520299751	124.58059722917524
18	7.0	ltm	225	diff_vonmises	0.1108190135906161	6.349461768545217	1.0876326271962744	168.51919428734976	1.0734662908132129	169.43779578757693	0.1213418322735009	-0.2494678610948497	0.3708096933683507	80.92213868693281
19	7.0	perception	225	diff_vonmises	-0.0734275965473358	-4.207091381951717	2.0418966600924944	1.5081891722975485	2.405814501685971e-19	2.383200889690676	0.4085463515165726	-0.3660278262936508	0.7745741778102234	96.05949323128549
20	7.0	wm	225	diff_vonmises	0.1999899317895747	11.458579036651848	1.9715011184685345	0.7180346898702162	0.2207244862037356	1.6490710428124649	0.0438717576793095	-0.2143969046779096	0.2582686623572191	84.49692356071083
0	1.0	ltm	346	diff_vonmises	-0.063977305398903	-3.665629583976678	2.6914537369111438	0.3643827054998579	8.258141793137045e-19	2.7143183686831325	-0.2077969274411038	-0.4309670154865182	0.2231700880454143	83.828712976784
1	1.0	perception	346	diff_vonmises	-0.0333510455511868	-1.9108741524315664	15.468592203334532	0.6549787190427451	0.0016319470845324	3.1327178725514675	0.5197131610713348	-0.4988290650439995	1.0185422261153343	34.42637526349077
2	1.0	wm	346	diff_vonmises	0.0144923367154423	0.8303497290773317	3.4580007763138085	0.4007912666686734	1.3610814353504085e-22	2.9216577716701004	-0.1806199777409557	-0.464714226937054	0.2840942491960983	73.77286689677669
3	2.0	ltm	346	diff_vonmises	0.0108668132823814	0.6226225378371624	3.922844783141534	0.4378654019826747	1.844760947113796e-17	1.8727396278728008	0.0350068487909378	-0.2979253741477816	0.3329322229387195	69.15156948213632
4	2.0	perception	346	diff_vonmises	-0.0267622841487714	-1.533365931854466	7.464556030749942	1.2274836902933075	0.2228520670917441	2.6712297240971115	0.7888960181135262	-0.4441913557591017	1.2330873738726278	48.11957727723092
5	2.0	wm	346	diff_vonmises	0.0123594909070286	0.7081466659030603	3.9352199141973463	0.6131749130432589	0.1274494750725234	2.244296039494934	0.0631327938984646	-0.3469119366740002	0.4100447305724648	64.564538347991
6	3.0	ltm	346	diff_vonmises	0.0085773631280484	0.4914467065883056	2.76251679447807	0.8560844414938016	0.29371040971516	1.849725605225474	0.1482080610250215	-0.2545481833708914	0.4027562443959129	72.83535219297795
7	3.0	perception	346	diff_vonmises	-0.0222602195185825	-1.2754166294495164	3.9452693049308327	2.259176451037901	0.2925857630794557	3.1762913414892626	1.0608053214048594	-0.4616950304218563	1.5225003518267155	64.78408429427824
8	3.0	wm	346	diff_vonmises	-0.095605876214089	-5.477813203717485	3.0454642859873133	0.889777994011912	0.256924587043198	2.1065029780669327	0.161312153426099	-0.3018276670149361	0.4631398204410351	70.44762527546874
9	4.0	ltm	346	diff_vonmises	-0.0862380418639891	-4.941075832279083	2.013103817693044	1.1713723243752363	0.3308599636732628	2.897256924949968	-0.0180478161518301	-0.3681114934165145	0.3500636772646844	78.03872760429101
10	4.0	perception	346	diff_vonmises	-0.083405928446389	-4.778807686348225	1.947025314465382	3.869006928930538	0.4181619983096017	5.475766867056877	0.695867351460886	-0.5799637030762536	1.2758310545371394	83.46674675733712
11	4.0	wm	346	diff_vonmises	-0.105925898950554	-6.069106950995982	0.9233362432653144	320.1449640871483	0.9132836354660676	322.1305937356655	-0.0334599705889218	-0.4343589221211061	0.4008989515321843	82.27467101951109
12	5.0	ltm	346	diff_vonmises	0.0111451211890105	0.6385684062921312	1.179084978156416	2.210367884934292	0.3042111664539553	3.4268232808048325	0.1069630600863027	-0.3190055101237392	0.4259685702100419	100.76821907292091
13	5.0	perception	346	diff_vonmises	-0.0089685519650688	-0.5138601759422069	1.8384660506336268	2.9267923041836994	0.249373778497726	4.077647412595585	0.6146553330115473	-0.4744815344393018	1.0891368674508493	90.60812655221906
14	5.0	wm	346	diff_vonmises	-0.0166487261555553	-0.9539017429823838	0.5444641523591098	141.81611395875194	0.5283565514504408	143.22904563514402	0.0730677243031934	-0.3732232827519066	0.4462910070551	113.88889792652134
15	6.0	ltm	346	diff_vonmises	-0.1903732386130362	-10.907583104763932	0.3859016629711088	183.196101080094	0.3767154884579679	184.4823558954378	0.0193896633861427	-0.3450984657092029	0.3644881290953456	131.1065148700303
16	6.0	perception	346	diff_vonmises	-0.0205383724550362	-1.1767620597413198	0.5093372562952229	252.664684569278	0.4965395570458218	253.97697968902352	0.2816826878577885	-0.483374341722623	0.7650570295804116	121.88285613906623
17	6.0	wm	346	diff_vonmises	-0.0650510551581209	-3.727150913433053	0.4107375579473002	212.2211966222819	0.4006979072828215	213.66117546394352	0.0625528428791	-0.4076582549286556	0.4702110978077556	129.24536832938864
18	7.0	ltm	346	diff_vonmises	0.0455567124365134	2.61020735110337	0.8685597392260997	182.13953636981577	0.8532169932565193	183.72278036503343	0.0362220578980441	-0.3650150225133721	0.4012370804114162	87.35081752575525
19	7.0	perception	346	diff_vonmises	0.0654041166074988	3.747379844391179	1.6547051040972736	2.0383232704217837	0.0370473980417984	3.584180748355128	0.3453820774807873	-0.515262701300175	0.8606447787809623	103.57137399719984
20	7.0	wm	346	diff_vonmises	0.0916287150985104	5.24993865735129	0.7558473914779781	120.18757636273942	0.7363154264163454	121.86708170910735	-0.0414524298427778	-0.3575140949359987	0.3160616650932208	91.1622486541005
0	1.0	ltm	202	diff_vonmises	-0.1572415550760762	-9.009277469933052	3.641622421200119	0.3740048425605499	6.284035346771262e-19	2.166250895997597	-0.0716644668937833	-0.3445819277395801	0.2729174608457967	71.83702512777731
1	1.0	perception	202	diff_vonmises	-0.0421655298151811	-2.415906899342916	14.547589674698695	0.7972292413662865	0.0353259477549893	2.783943998186246	0.7429882671327752	-0.4500361429398005	1.1930244100725758	35.37262716455021
2	1.0	wm	202	diff_vonmises	0.0241149857519371	1.3816869066041149	3.918320714299218	0.4289488861536124	1.2375496655546046e-22	2.364474091442242	-0.0502440835640508	-0.3761889201162043	0.3259448365521535	69.192525794721
3	2.0	ltm	202	diff_vonmises	-0.050127154868785	-2.8720744129800404	4.069146033307645	0.4193208808593909	2.1719508112453644e-15	1.3148833544018708	0.1161517495538839	-0.2091751161423332	0.3253268656962172	67.85993377834859
4	2.0	perception	202	diff_vonmises	-0.0413261765953058	-2.3678155023233494	7.733198938537294	1.2197278791601454	0.3050491753064854	2.020365371281585	0.903361336883208	-0.3421829144533196	1.2455442513365278	47.22052662552568
5	2.0	wm	202	diff_vonmises	-0.0218168845337491	-1.2500154059080697	3.968085580855505	0.6315940959660398	0.2062789884095156	1.5853776361283285	0.1766146161646375	-0.2412700767792322	0.4178846929438697	63.89259073091881
6	3.0	ltm	202	diff_vonmises	-0.030787982244598	-1.7640214423391845	2.501570518600115	0.7339889158283728	0.3574508923671046	1.1232762650427717	0.1851178531321949	-0.139806562004959	0.324924415137154	76.81878979465989
7	3.0	perception	202	diff_vonmises	-0.0239743151855835	-1.3736270768503342	3.8308504740119456	2.090980940915848	0.4789120752884198	2.287550799379275	1.0145375317100924	-0.3112490245302161	1.3257865562403086	64.63815427413186
8	3.0	wm	202	diff_vonmises	-0.1317917912999159	-7.551113415954143	2.495086639394197	1.230312455542614	0.6744723328916205	1.676271086599471	0.2553697475741386	-0.1793599666403972	0.4347297142145359	71.89521496034754
9	4.0	ltm	202	diff_vonmises	-0.1531068432156537	-8.772375930828161	1.61259094938648	2.983919741458272	0.8427362019997366	3.84894705946803	0.1504402242509261	-0.2474266110650898	0.397866835316016	77.12471343710399
10	4.0	perception	202	diff_vonmises	-0.1020167458240282	-5.845128975375681	2.456575919614925	2.882334714538278	0.3861250462548472	3.646823396404523	0.8583242137510244	-0.4299266575383345	1.288250871289359	78.27721955985496
11	4.0	wm	202	diff_vonmises	-0.1479391444275017	-8.476288600472182	1.1562490198193438	255.20797774890744	1.1450987505433727	256.2543377055771	0.1432398307955793	-0.288497731081204	0.4317375618767833	78.38982469887563
12	5.0	ltm	202	diff_vonmises	-0.0060967432052214	-0.3493176544342502	0.59318925474118	121.21867072583213	0.5777265826166085	121.9374219401845	0.1663869252609053	-0.254799750765903	0.4211866760268083	113.74606556564632
13	5.0	perception	202	diff_vonmises	0.0064683498124225	0.3706091446660526	2.166166513670245	2.2715030958971694	0.1633749200171066	2.846281575312092	0.699611485266564	-0.3704359238880898	1.070047409154654	87.84910298060109
14	5.0	wm	202	diff_vonmises	-0.0174507365977135	-0.9998535564434724	0.612901315690854	146.28277681705447	0.5992974852467571	147.00239830855816	0.1858654992852209	-0.2613202476822245	0.4471857469674454	112.1693886864567
15	6.0	ltm	202	diff_vonmises	-0.1504436370768689	-8.619785459102458	0.3646815445985499	152.43168490394615	0.3550534813759908	153.1063418977795	0.118327832973577	-0.2587473653386247	0.3770751983122018	137.10319154176662
16	6.0	perception	202	diff_vonmises	-0.002533250223839	-0.1451445462765466	0.4849784583712485	190.2669677358582	0.4685741164980207	190.942099166218	0.4185398358793577	-0.4228808105352648	0.8414206464146226	127.27524849063931
17	6.0	wm	202	diff_vonmises	-0.1741496876900026	-9.97804210815854	0.4538388832985656	104.87908090531916	0.4335033025384966	105.55476789180152	0.2364004115208828	-0.318951321290978	0.5553517328118609	129.2662966657582
18	7.0	ltm	202	diff_vonmises	0.2017865099297253	11.561515381647938	0.800526784088918	137.274337006861	0.7859403293520446	137.9869589755593	0.1679014504961102	-0.2260350819243761	0.3939365324204864	97.29941208366242
19	7.0	perception	202	diff_vonmises	0.0253487897501094	1.45237866844575	1.9475665724863516	1.753383038740788	0.1308502324241029	2.365810896214882	0.4627302317970738	-0.3112764612000095	0.7740066929970835	92.8475496394072
20	7.0	wm	202	diff_vonmises	0.1765097638392126	10.113264510837755	0.8156147709441519	60.25787876613211	0.7842554809876748	60.94224600306016	0.1551098438296634	-0.2140138542458238	0.3691236980754873	96.72800319385576
0	1.0	ltm	392	diff_vonmises	0.0497489859569691	2.850406930389932	3.619968834781967	0.2905867850047144	5.094358242744963e-16	3.101648894289089	-0.2821524825722785	-0.4934910356034024	0.2113385530311238	72.06002656009642
1	1.0	perception	392	diff_vonmises	-0.02054824233445	-1.1773275621760344	15.662753846069991	0.5620867677215422	0.007087210130015	3.427511022060867	0.3307178135367383	-0.5471014425935813	0.8778192561303196	34.16905574954012
2	1.0	wm	392	diff_vonmises	0.0094101885799182	0.5391640900515188	3.8791784957771154	0.3645289789404988	0.0110541559631111	3.4016832488280677	-0.2718222425039576	-0.53782389851393	0.2660016560099724	68.17417762838036
3	2.0	ltm	392	diff_vonmises	0.0232416782353643	1.3316500716874398	4.0115163081676055	0.46455315838603	3.738953201932032e-17	2.314107016989352	-0.0105896039744501	-0.3681842881426017	0.3575946841681515	68.36271309367865
4	2.0	perception	392	diff_vonmises	-0.017049667291457	-0.9768739779027368	7.262172007870406	1.2086644859390303	0.1952941361470574	3.211569624786497	0.6599538397611998	-0.5311679355707107	1.1911217753319103	48.65728571910776
5	2.0	wm	392	diff_vonmises	0.0419452491646702	2.4032857477602447	3.85320255380464	0.6607254527708457	0.1224368339137077	2.857143315789347	-0.0143659703495027	-0.4431192450360378	0.428753274686535	64.70830634799566
6	3.0	ltm	392	diff_vonmises	0.0205572768831743	1.177845203687743	2.490508776915655	1.2797935474460689	0.3924662540638503	2.940161248687147	0.0856517193246595	-0.3887411976003427	0.4743929169250023	72.10712902106351
7	3.0	perception	392	diff_vonmises	-0.0227415227324614	-1.3029932722708584	4.1004608895933226	2.30767585082025	0.2147061355482011	3.991550140880969	1.0198994844962996	-0.5983876467213642	1.618287131217664	64.01889496669816
8	3.0	wm	392	diff_vonmises	-0.0208750459870886	-1.1960520322016854	3.3898875345447346	0.7452819499377004	0.1231326551133498	2.826961488299193	0.0160082653448021	-0.4306474049951709	0.446655670339973	68.8543675993723
9	4.0	ltm	392	diff_vonmises	0.0199649320502942	1.1439063447473317	1.3369843811069957	1.8313004814142768	0.2886992255255949	4.374238820965727	-0.1699764105874618	-0.4952777320469993	0.3253013214595375	88.72253229447446
10	4.0	perception	392	diff_vonmises	-0.0660298309934519	-3.7832306378869114	1.5555457779500017	5.396647346024095	0.4684517165484644	7.722932454927503	0.5295653238973275	-0.6957185307688916	1.225283854666219	87.64377868982544
11	4.0	wm	392	diff_vonmises	-0.0576850610319683	-3.305110538086355	0.7152064956015419	147.30404848953543	0.6936438128399901	150.17851456105964	-0.208964880834948	-0.561417768360748	0.3524528875257999	88.99943894510193
12	5.0	ltm	392	diff_vonmises	0.015007967738652	0.8598932104932624	1.535532465335092	1.719654966682455	0.2366103933300735	3.339526754267996	0.0914615407534136	-0.3902715738948564	0.48173311464827	93.2049494886234
13	5.0	perception	392	diff_vonmises	-0.0312809249131554	-1.7922649767894372	1.5770678738001374	3.996132674854489	0.3477165046722927	5.652569732119506	0.5482754562938899	-0.566309075659852	1.1145845319537415	91.98710317838324
14	5.0	wm	392	diff_vonmises	-0.0259976225736244	-1.489554050842716	0.5682658072408353	48.316411303737056	0.5129526580196697	50.28674959493373	0.0114255646310486	-0.4678378016450715	0.4792633662761201	110.81781061340776
15	6.0	ltm	392	diff_vonmises	-0.1855393251454657	-10.630620264540696	0.4229434720348892	166.1416718016473	0.4107187127583708	167.87842724848423	-0.0258325843406055	-0.4215586304177883	0.3957260460771827	124.86639120944592
16	6.0	perception	392	diff_vonmises	-0.0415902159450323	-2.382943842688055	0.5320186648040536	211.28626741656248	0.5164401583238267	213.0640961856846	0.1732581603177294	-0.521457004062686	0.6947151643804155	117.0580534554609
17	6.0	wm	392	diff_vonmises	0.0053441519360123	0.306197351010174	0.4581072413006559	227.29593951811512	0.4478879582306276	229.23972783292973	-0.0300700985675774	-0.4608758502313499	0.4308057516637724	120.0747588310972
18	7.0	ltm	392	diff_vonmises	-0.1268070276607926	-7.265507497562104	0.9263788457694194	244.0950179992749	0.9109880648680037	246.50302652796697	-0.0673467859342054	-0.5186666763860437	0.4513198904518383	81.52765963984461
19	7.0	perception	392	diff_vonmises	0.0567956320628755	3.254150011980664	0.6022143491464477	36.88609103082481	0.4886517887603367	39.27271361728088	0.2039118386384615	-0.6734027814421553	0.8773146200806168	114.4070361835832
20	7.0	wm	392	diff_vonmises	0.0368956123039304	2.113962867566167	1.0634926493987675	5.122491913501147	0.5750913210760994	7.68750101807876	-0.1935134373631322	-0.5031767863205509	0.3096633489574186	82.96159225614923
0	1.0	ltm	81	diff_vonmises	-0.0224431398059888	-1.285897189905221	5.230442791412488	0.28047141940412	3.856126652287246e-17	2.664720645714137	-0.1750116605119918	-0.4240963290857484	0.2490846685737566	59.67045366529135
1	1.0	perception	81	diff_vonmises	-0.0160629421690559	-0.920338792849622	12.95696131650555	0.7496250030572027	0.0419659394545894	3.2905358526336927	0.5197873729454912	-0.5329388304408748	1.0527262033863658	37.38501572878667
2	1.0	wm	81	diff_vonmises	0.006407900027094	0.3671456270942577	4.9186670774893	0.3654348706529004	3.908531791889625e-21	2.927182222586984	-0.1517856537037962	-0.4658587381334805	0.3140730844296842	61.5784687704446
3	2.0	ltm	81	diff_vonmises	0.0118356851583394	0.678134807218479	3.318811173451251	0.6458936935974824	0.2016294660659325	1.8708044585575645	0.0872776242832666	-0.2786235624911651	0.3659011867744318	68.33441022894505
4	2.0	perception	81	diff_vonmises	-0.0202865492380686	-1.1623336522256702	7.089658002678986	1.3293523363725852	0.3179778661745057	2.531295984418375	0.8453675493178737	-0.4264768274455572	1.2718443767634309	48.8675318365712
5	2.0	wm	81	diff_vonmises	0.0220307896075311	1.262271263852212	3.887898741819523	0.6612949997186988	0.171865508490342	2.046022404138612	0.1167214566691488	-0.31372809786711	0.4304495545362588	64.39018613863942
6	3.0	ltm	81	diff_vonmises	0.0495938308219652	2.8415171959844283	3.2019990391257336	0.6298600457915218	0.2187410544495547	1.385689186985748	0.1568437841550327	-0.2007166840181606	0.3575604681731933	70.320845810653
7	3.0	perception	81	diff_vonmises	-0.0075761935315155	-0.4340839141301576	4.575401227639753	1.882420804783818	0.2841062165580288	2.5623835037035376	1.0253467786504524	-0.385883176858765	1.4112299555092176	60.76242486787376
8	3.0	wm	81	diff_vonmises	-0.0558519146830105	-3.200078989061258	3.472967798373946	0.7238562929385753	0.2228714466650386	1.6587495830543844	0.1889882273424251	-0.2447961339845315	0.4337843613269566	67.68039801911885
9	4.0	ltm	81	diff_vonmises	-0.1379875585283533	-7.906104728989074	2.0565522466042068	1.09402172228673	0.2841966856845564	2.674677484625751	0.0196100894030419	-0.3459052927727746	0.3655153821758166	79.7576430272488
10	4.0	perception	81	diff_vonmises	-0.0583066194022913	-3.3407232094268946	2.3445625533054333	2.64832052767376	0.2270796692181399	4.220421639325066	0.6705367830458338	-0.5491829582879791	1.219719741333813	81.78564858324617
11	4.0	wm	81	diff_vonmises	-0.0921790925044648	-5.281472959851834	0.9587091858692132	342.1552591376991	0.9490513576305386	343.9714171581344	0.0243006805559957	-0.4166146713809056	0.4409153519369013	82.3178345949944
12	5.0	ltm	81	diff_vonmises	-0.0216905176409552	-1.242775116280792	1.7694743868017917	1.0407765240087905	3.070066488191084e-18	1.828269769417313	0.2074745209218276	-0.2765007296006038	0.4839752505224314	102.71764160852442
13	5.0	perception	81	diff_vonmises	-0.0248628003477916	-1.4245335268048578	1.9731650690900928	2.67597025698594	0.2199984432792111	3.3030004110053386	0.7219984223309158	-0.3974632019945537	1.1194616243254696	89.90427830303017
14	5.0	wm	81	diff_vonmises	0.0316023700533594	1.810682426668116	1.3406008387424686	1.6940934871169526	0.1380603407250773	2.521839181827993	0.2272016621723117	-0.3009815260059147	0.5281831881782265	107.4873094558902
15	6.0	ltm	81	diff_vonmises	-0.0901516689713814	-5.165310148120653	0.4435659819158558	104.99687144695235	0.4285947049745516	105.55632569596804	0.1599162873627442	-0.2426371725605758	0.40255345992332	129.73509695409743
16	6.0	perception	81	diff_vonmises	-0.030677810617921	-1.7577090731085003	1.0008021655732242	2.956222194786485	0.1095826928832902	3.5341166925256258	0.3848788542765989	-0.3660280129509161	0.750906867227515	122.6464166991004
17	6.0	wm	81	diff_vonmises	-0.0403926252902716	-2.3143269525859576	0.4598493854300654	157.06375313861344	0.4471446709399617	157.6409911551916	0.2332718830778191	-0.2901316811956658	0.5234035642734849	128.72735217526446
18	7.0	ltm	81	diff_vonmises	0.074447088790867	4.265503984752383	0.85230695907919	165.63940226040006	0.8371608132968729	166.77087785329084	0.1271822316373203	-0.2985153440738237	0.4256975757111441	91.5633366876059
19	7.0	perception	81	diff_vonmises	0.0281859628489773	1.6149367127589378	0.7785446418401683	112.14217877102335	0.7448597421743837	113.14403493742805	0.4275598170806773	-0.4064746184030969	0.8340344354837743	101.5908155384956
20	7.0	wm	81	diff_vonmises	0.1082348285173144	6.201398870364323	0.7359509351208112	117.35699611260314	0.7178816504072819	118.49196198307516	0.0777483389579956	-0.2850582820753899	0.3628066210333855	97.57662597296108
0	1.0	ltm	58	diff_vonmises	0.0401649001859299	2.3012792652180005	2.6252733661090537	0.3215553964191763	3.85803636913948e-18	3.4821528262784214	-0.3591955600772543	-0.553179020964493	0.1939834608872386	84.88617769372377
1	1.0	perception	58	diff_vonmises	0.0132143060511679	0.7571239659261099	11.828442820365952	0.8392941023091103	0.0560977886225617	4.02382782554153	0.4619448814720523	-0.6550345175919978	1.1169793990640502	38.99160649955186
2	1.0	wm	58	diff_vonmises	0.0416315763313072	2.3853136182606374	5.819739758948452	0.305772055817763	7.32093787702948e-20	3.5898814765489298	-0.2840293042143735	-0.5713448498045973	0.2873155455902237	56.50616489684512
3	2.0	ltm	58	diff_vonmises	-0.0470743190343111	-2.697159804118388	3.918048301063219	0.4666010811861833	1.1147551223859162e-24	2.484371341352788	-0.0407063631730296	-0.3952597861079592	0.3545534229349296	69.19402536005632
4	2.0	perception	58	diff_vonmises	-0.0249047820523726	-1.4269389012941116	7.775435697357943	1.3188438762688803	0.1475594907117982	3.416895968860881	0.8147992654117788	-0.5604615432573581	1.375260808669137	47.51093804451233
5	2.0	wm	58	diff_vonmises	0.032691641844303	1.8730931030318447	3.9977019675528234	0.5892772379168867	0.0442107255173375	2.788152170259112	-0.0106566010716446	-0.4360448441376787	0.425388243066034	66.16232207018473
6	3.0	ltm	58	diff_vonmises	0.0365989782814605	2.0969669900186543	3.082889411054108	0.5210805049845897	6.402004206692472e-12	1.4798599392311362	0.1110887015816716	-0.2347990964886241	0.3458877980702957	78.23775395583704
7	3.0	perception	58	diff_vonmises	0.0014871983381669	0.085210188075834	3.934142447317854	2.1301640297759405	0.2139392966449264	3.070907474446582	1.024521045217534	-0.4519836936311432	1.4765047388486772	65.73759869710773
8	3.0	wm	58	diff_vonmises	-0.0950566942669474	-5.446347395961497	3.4970346086112403	0.6654274061805565	0.0773254874414025	1.7716275073254917	0.1708859729774656	-0.2701491275079692	0.4410351004854348	70.49204065456976
9	4.0	ltm	58	diff_vonmises	0.0298558935301561	1.7106166928698887	2.3707469266470773	0.6009274440486718	0.0956572427997335	2.993152831686805	-0.1797628389592149	-0.4463582834665211	0.2665954445073061	79.47052855088768
10	4.0	perception	58	diff_vonmises	-0.0762031819866404	-4.366120713301836	1.5260541985954703	6.616715206693039	0.5925012870794885	8.90950113383297	0.5427323770246479	-0.6922629561447118	1.2349953331693595	85.01980002308395
11	4.0	wm	58	diff_vonmises	-0.0295453465654487	-1.6928236624515527	0.6848516866934411	199.8937838887487	0.6722811839687228	202.4258734354417	-0.2287317575267806	-0.478559862640715	0.2498281051139343	88.02526873591452
12	5.0	ltm	58	diff_vonmises	-0.0225397933985785	-1.2914350328353872	1.7672149157583816	0.8741809033726488	9.795685169745935e-17	2.2647906812149263	0.057885072117913	-0.3482469094546582	0.4061319815725713	102.7777503878196
13	5.0	perception	58	diff_vonmises	-0.0406364689635907	-2.328298165928109	2.381855076764633	2.5357626392364865	0.1051792377628942	3.832757634197793	0.7765759894713031	-0.5398160682207276	1.3163920576920307	85.10413379951535
14	5.0	wm	58	diff_vonmises	-0.0099842353215205	-0.5720545455885678	0.5522642086861332	93.69717873036436	0.5270708623857716	95.26448137869924	0.0490294473112982	-0.3947727421943678	0.4438021895056661	112.47567218260292
15	6.0	ltm	58	diff_vonmises	-0.0619740639447214	-3.5508523033064265	1.158972712837124	0.8130280007912633	1.2505057566327173e-15	2.046665792309648	-0.0236786897043108	-0.2959894567253966	0.2723107670210858	122.2238900559636
16	6.0	perception	58	diff_vonmises	-0.1179041911925143	-6.755412542234603	0.4248387069917443	5.018874891447712	1.6093325991039298e-12	6.197713973151161	0.1818925456415331	-0.4868875226439293	0.6687800682854624	155.94388375898902
17	6.0	wm	58	diff_vonmises	-0.0607906371055896	-3.4830469400616675	0.4463302237360395	228.3141726366377	0.4385140581372084	229.6350507256468	0.0194099197491297	-0.340713843901792	0.3601237636509218	123.3938607027726
18	7.0	ltm	58	diff_vonmises	0.1993597301141846	11.422471140409922	1.6257614790150057	1.0440916846241894	0.1853602165940069	2.477520317020843	0.0043362863743683	-0.314897567661793	0.3192338540361614	91.8778732292718
19	7.0	perception	58	diff_vonmises	0.0560943079843414	3.213967102209762	0.7957805317765859	333.62531934387613	0.7836835507858133	334.867702311606	0.3973597221654046	-0.4393311495139507	0.8366908716793553	98.6785735892736
20	7.0	wm	58	diff_vonmises	-0.0025352573821482	-0.1452595479764832	0.8321099628364118	39.25199534535908	0.7735408992769086	40.771627403369216	-0.0147569535920162	-0.3320779593269085	0.3173210057348923	88.76227189508353
0	1.0	ltm	277	diff_vonmises	-0.1377805967324374	-7.894246691562649	2.523644331003311	0.4035758726392743	4.562563136257687e-20	1.9253854782234985	-0.0672655363035927	-0.3048975267297997	0.2376319904262069	86.57487052697229
1	1.0	perception	277	diff_vonmises	-0.0377004883154583	-2.160078866058037	13.120696974981296	0.7882231069450859	0.0011262384842406	2.4886616426899524	0.73120317563619	-0.3961408604876445	1.1273440361238345	37.41090680638811
2	1.0	wm	277	diff_vonmises	0.0204362212020022	1.170909224070499	5.570257397473851	0.3650692969513526	4.249023712023051e-19	1.972689447817074	0.0212689286495257	-0.3139584115777477	0.3352273402272734	57.77908997383079
3	2.0	ltm	277	diff_vonmises	-0.0821043841298749	-4.704234690162728	3.3777457811956504	0.657132976750062	0.2622645837393634	1.578672755117664	0.1391237953781159	-0.2316752725875521	0.3707990679656681	67.38492859967465
4	2.0	perception	277	diff_vonmises	-0.0336718967745165	-1.9292575733799708	7.420873053251861	1.2362788886072371	0.1933018695132674	2.0993878555532763	0.917708167392662	-0.3436867378786395	1.2613949052713016	48.70486877064647
5	2.0	wm	277	diff_vonmises	0.0105554465810415	0.6047825399694734	4.568550084845787	0.4779042453807384	0.096258836368768	1.418832146987709	0.1467662828772832	-0.2212451441735396	0.3680114270508228	61.56189760823088
6	3.0	ltm	277	diff_vonmises	0.0024241818183713	0.1388953869650251	2.0473887298993785	0.9724200118808516	0.4656783527961365	1.3514965022735954	0.1839781015522361	-0.1421816967995922	0.3261597983518284	81.03989566808016
7	3.0	perception	277	diff_vonmises	-0.0172922958743537	-0.9907755716919528	4.136830590546955	1.8667294667144552	0.3227460777014293	2.1198943068676512	1.0077808263197885	-0.3055337416312297	1.313314567951018	63.736846656225765
8	3.0	wm	277	diff_vonmises	-0.1081646116074767	-6.197375737780173	2.2747284799646885	1.3154274072630336	0.7260571385742008	1.713628679814989	0.2369818024291273	-0.1646689021788031	0.4016507046079305	73.71955102342997
9	4.0	ltm	277	diff_vonmises	-0.145331933426579	-8.326906413819234	1.7333795573561197	2.4804466167371806	0.8464210276730588	3.452671014579312	0.0941505775553852	-0.2571971656296237	0.3513477431850089	73.74903650677123
10	4.0	perception	277	diff_vonmises	-0.1132070329386713	-6.486285198584362	2.29877843610214	2.87674557600418	0.3558986020719303	3.979693243630914	0.7370818632489688	-0.4704919168252799	1.2075737800742488	80.26613258556702
11	4.0	wm	277	diff_vonmises	-0.1515102590768319	-8.680898398036144	1.183954018238123	232.38731042985103	1.172438601811845	233.5147812831697	0.074163431630069	-0.2880427761158941	0.3622062077459631	75.59296110298035
12	5.0	ltm	277	diff_vonmises	-0.0053282960384645	-0.3052888750002945	1.4650476959159071	1.0449002324423784	1.3391464302433262e-14	1.5485080065090533	0.199727534981054	-0.2226292821216345	0.4223568171026886	111.56155221421568
13	5.0	perception	277	diff_vonmises	-0.0413029529448043	-2.3664848851647244	2.4952547305892483	2.0220561855111496	0.0692317088658981	2.2578569370484964	0.8056841250820581	-0.3269003203043534	1.1325844453864116	85.10050551711382
14	5.0	wm	277	diff_vonmises	0.0170274464134877	0.975600815378018	0.7086529658211578	107.57598744446194	0.6919694256361171	108.04762399661098	0.2086016685723528	-0.2021624100662915	0.4107640786386444	106.1408549569682
15	6.0	ltm	277	diff_vonmises	-0.0943410913161591	-5.405346367074222	0.4036396988066741	71.94489494096398	0.3889609292812573	72.33026531514393	0.1064119631555335	-0.1699506334699299	0.2763625966254635	133.97725683062632
16	6.0	perception	277	diff_vonmises	-0.0886495738598046	-5.079246437800073	0.8053036183800547	2.7678241772803127	0.0272865279286398	3.124044088746876	0.3323714331777874	-0.3152827811635208	0.6476542143413082	135.5615829204004
17	6.0	wm	277	diff_vonmises	-0.1409918547002086	-8.078238220043692	0.5411891902134561	84.37805348268574	0.5239959161187494	84.71916402055562	0.1867377760518209	-0.1890028079366565	0.3757405839884775	121.53602151632846
18	7.0	ltm	277	diff_vonmises	0.1814035683349453	10.39365885420539	1.5331782674036354	1.4135699015825212	0.3337519453527298	2.006726174745787	0.1866943930565192	-0.2009588765274703	0.3876532695839895	93.34632189063096
19	7.0	perception	277	diff_vonmises	-0.0158627998433491	-0.9088714822846914	0.9698889926853508	175.86443698043135	0.9497891073899152	176.2807093581797	0.5325429715054781	-0.2941104231755265	0.8266533946810046	93.38792497613971
20	7.0	wm	277	diff_vonmises	0.1156107553812508	6.624008349665044	1.6254043830401796	1.0357476692634746	0.2446837991613344	1.562771882389347	0.1580714288696585	-0.1767854062073295	0.334856835076988	94.303308031903
0	1.0	ltm	444	diff_vonmises	-0.1974430637403988	-11.312654246457354	1.2263380869197094	0.681745793292829	2.9866918891382647e-14	2.114288696507788	-0.0747189085273114	-0.3139690624860375	0.2392501539587261	119.51807553893464
1	1.0	perception	444	diff_vonmises	-0.0579226325757805	-3.318722384879203	14.375109732443144	0.745439934033526	2.789004331823759e-16	2.3578043737298584	0.7418981268745086	-0.3752562209224324	1.117154347796941	35.740632267638375
2	1.0	wm	444	diff_vonmises	0.0067848210918668	0.3887416133153112	3.774808922789272	0.3983737776009111	2.870430417799029e-32	1.921480771395177	-0.0091190834756439	-0.3056569822636054	0.2965378987879614	70.53185653939337
3	2.0	ltm	444	diff_vonmises	-0.0744063095269415	-4.2631675050378	4.154455183602559	0.4452574008160709	0.0100761438498608	1.5363568154102345	0.1024726123597441	-0.2426038570616542	0.3450764694213984	66.64739574807484
4	2.0	perception	444	diff_vonmises	-0.0417545257861539	-2.3923581031167847	7.430531824856468	1.2031684989839182	0.0952026454852665	2.2825085489159744	0.8859931635237295	-0.3663001048788519	1.2522932684025814	49.17324622203319
5	2.0	wm	444	diff_vonmises	-0.0317467567894593	-1.8189551772643129	4.394833978134694	0.4245791882541882	0.0091251142676425	1.5552041134719146	0.0937650485021106	-0.2459172519256625	0.3396823004277732	64.79658783724199
6	3.0	ltm	444	diff_vonmises	-0.009105662611978	-0.521716037336414	1.937819585325592	1.1797700281498822	0.3762773731560496	1.76056097383777	0.2029296006269996	-0.193596461647111	0.3965260622741107	84.1483474884534
7	3.0	perception	444	diff_vonmises	-0.030045442997079	-1.721477077333523	3.685107809220861	2.320322575015181	0.3037166750627838	2.7895702752239733	1.1175187833666502	-0.3917723485589092	1.5092911319255595	67.18411672869624
8	3.0	wm	444	diff_vonmises	-0.1543333310088691	-8.842648505003718	2.3386938285738283	1.3568484231875608	0.5472795490947682	1.967057668520578	0.2659932376984645	-0.2170547784236313	0.4830480161220958	75.14483669832376
9	4.0	ltm	444	diff_vonmises	-0.1161809414141409	-6.656677602886952	2.496481079367512	1.0511752669601229	0.509657750356638	2.274915711663919	0.0535686076306648	-0.2924806020397284	0.3460492096703932	69.42861101115778
10	4.0	perception	444	diff_vonmises	-0.1206725794726798	-6.914029506741568	1.9263354899766605	4.009778327273071	0.4602955460868312	5.377342134236642	0.7350971130421173	-0.542236541822168	1.2773336548642853	83.3489132740387
11	4.0	wm	444	diff_vonmises	-0.1622105637139843	-9.29398069324924	1.1162024823954777	244.96255394034267	1.1047012930620437	246.38297758869015	0.0134336613829617	-0.3343982598629793	0.3478319212459411	75.86084015412814
12	5.0	ltm	444	diff_vonmises	0.014217562154123	0.8146063063961766	1.601367164012345	0.9170573761917006	2.2056766773125947e-12	1.5597268209556812	0.1650723436588093	-0.2314365052105524	0.3965088488693618	107.39644378324058
13	5.0	perception	444	diff_vonmises	-0.0300265995613727	-1.720397427996025	2.313519531309453	2.119282559505129	0.0790000761741255	2.5426139611697085	0.7558065730081478	-0.3617251114863579	1.1175316844945056	87.8347612612298
14	5.0	wm	444	diff_vonmises	-0.0264121524812693	-1.51330486503272	0.6222064230794196	95.88399845171428	0.604088933395563	96.60324470419772	0.1376238433215064	-0.2341007526284384	0.3717245959499449	110.32580036544836
15	6.0	ltm	444	diff_vonmises	-0.1958605502129195	-11.221982900310426	0.2949032889818018	67.43609298832705	0.2814482703558151	68.0646108779801	0.031829363920611	-0.1951829366375941	0.2270123005582052	143.93824215197256
16	6.0	perception	444	diff_vonmises	-0.0731656571961064	-4.19208336263788	0.3913773384698017	162.56492421519675	0.3775574228542137	163.18188954486266	0.2724701398796512	-0.3439581602554895	0.6164283001351407	136.13060266291754
17	6.0	wm	444	diff_vonmises	-0.1057879928637695	-6.061205514254067	0.4448782385587336	108.24677699302038	0.4326079299077458	108.90751042439074	0.09086443378348	-0.222980012969959	0.3138444467534391	127.61708632424651
18	7.0	ltm	444	diff_vonmises	0.138027969694414	7.908420118249558	0.9358413951453336	58.1162888288582	0.8987677803128036	58.92710406148591	0.1485045286004762	-0.2339646237620201	0.3824691523624963	89.32017090994594
19	7.0	perception	444	diff_vonmises	0.039756293038163	2.2778678001720776	0.8250892492599934	112.20205313008664	0.7931335162805019	112.92194701568988	0.4670007383542085	-0.3540668504769879	0.8210675888311965	99.90553927837254
20	7.0	wm	444	diff_vonmises	0.008437151526304	0.4834131735695843	0.9847702608093516	3.46163633605778	0.5446699025328532	4.289509135213886	0.078561002815833	-0.2156608752374133	0.2942218780532463	96.66342854909598
0	1.0	ltm	254	diff_vonmises	-0.1095717142960987	-6.277996783179724	3.577952298563575	0.2801562978149133	5.9593618598901705e-22	1.665147727049004	-0.0624377649122046	-0.2648584177033526	0.2024206527911479	72.49426531850568
1	1.0	perception	254	diff_vonmises	-0.0559954077449289	-3.2083005358985903	16.479205545313636	0.6201614415907862	0.0005452517873141	2.223558351833117	0.6423183826252301	-0.3539386097988742	0.9962569924241044	33.357558667657656
2	1.0	wm	254	diff_vonmises	0.0011344234497375	0.0649976758506353	4.926716991531772	0.3194491618108235	6.277527435404743e-19	1.8658359891530008	-0.0221250294124049	-0.2969425736605267	0.2748175442481217	61.52222712458416
3	2.0	ltm	254	diff_vonmises	-0.0085601009960477	-0.4904576592792667	5.002771255969856	0.3690659406529119	0.025240937879274	1.2139038275769485	0.1219607907659512	-0.191422998320427	0.3133837890863783	60.30312847092648
4	2.0	perception	254	diff_vonmises	-0.0265202101655777	-1.5194961142875478	7.705617423016344	1.171510696697931	0.3494816335179748	2.049189623107949	0.8258006626104756	-0.351940680430332	1.1777413430408077	46.99886941311959
5	2.0	wm	254	diff_vonmises	0.0116687294460449	0.6685689495384001	4.390422202619703	0.4794138892286457	0.2052059202257276	1.46456521096709	0.1044903059982633	-0.2287610039701531	0.3332513099684164	60.49813243218608
6	3.0	ltm	254	diff_vonmises	0.0429329269198795	2.4598755146526927	1.5423815213775407	133.44152229587073	1.524560031360885	133.98327423570734	0.1760734087231625	-0.1938519810249701	0.3699253897481327	69.74140424204282
7	3.0	perception	254	diff_vonmises	-0.0301693388660696	-1.72857578772579	4.467496022109238	2.0419107946263426	0.4446684613316815	2.569789474253172	1.0592305366760164	-0.3792126347605835	1.4384431714366	60.222252024242806
8	3.0	wm	254	diff_vonmises	-0.0649517565824078	-3.721461524133034	2.16153393765672	1.7088261319092295	0.862234497812562	2.491706115912571	0.1375592014034717	-0.2307428683007972	0.368302069704269	69.68542100694248
9	4.0	ltm	254	diff_vonmises	-0.1380662885332954	-7.910615625993302	1.30946960582411	156.4076942340343	1.2925476433752123	157.35971773337474	0.1039130911840899	-0.2626171653305391	0.3665302565146291	72.84853177153266
10	4.0	perception	254	diff_vonmises	-0.0911905479326595	-5.224833528026829	2.634379298037594	2.303100585524449	0.2622107601787437	3.337185339219709	0.7209059007195522	-0.4371222724775367	1.158028173197089	77.62151891290236
11	4.0	wm	254	diff_vonmises	-0.1499116453183466	-8.589304576603388	1.2282325551511415	271.3871485775529	1.216981266890478	272.60206433000235	0.0976537570133899	-0.3187910654720269	0.4164448224854169	74.5537913461805
12	5.0	ltm	254	diff_vonmises	0.0675761273963868	3.8718268956513406	1.2736634801563234	2.6608482260855717	0.5343153540968405	3.2910689626671585	0.2116305948432304	-0.2192118397616099	0.4308424346048403	93.28248501784216
13	5.0	perception	254	diff_vonmises	-0.0230374021640248	-1.3199459149441723	2.3012903394216084	1.9952937427059505	0.1446911987397786	2.6068884410613093	0.6427245476652037	-0.3506149902165136	0.9933395378817174	85.820355134886
14	5.0	wm	254	diff_vonmises	0.0167591379630006	0.9602278735574152	0.988442676647338	2.9237514287670616	0.39142818399493	3.667899192593065	0.1613880381728391	-0.2435015708288988	0.4048896090017378	105.78935992286723
15	6.0	ltm	254	diff_vonmises	-0.2145147756003036	-12.290791285093327	0.446154862186532	128.36630489252045	0.4341692380682633	128.98345913564046	0.1398602909811757	-0.243346060263363	0.3832063512445387	128.52994382630953
16	6.0	perception	254	diff_vonmises	-0.0187968639990514	-1.0769809752270454	0.65231422711851	175.49831792903564	0.6357904303197937	176.28258492484025	0.3373371916905796	-0.3461163536056517	0.6834535452962314	110.6445353422882
17	6.0	wm	254	diff_vonmises	-0.1221401403936114	-6.998114553689279	0.4755845290180596	92.89569161449866	0.4562352621735354	93.58353497546092	0.1699482452812368	-0.2746690298068053	0.4446172750880421	126.154017697431
18	7.0	ltm	254	diff_vonmises	0.0486824837237716	2.78930085358644	1.0308278576799934	186.12512740035825	1.0164764765717844	187.0164927586472	0.1968570062718271	-0.2680209881877999	0.4648779944596271	84.98298184384615
19	7.0	perception	254	diff_vonmises	-0.0506855306437851	-2.90406698826989	1.912710954515822	1.6620822965383308	4.6122317923184646e-14	2.574255624839446	0.4248766221011769	-0.3915038145232631	0.81638043662444	99.0826863491895
20	7.0	wm	254	diff_vonmises	0.1962194034797834	11.242543677966207	1.89133428552783	1.0198986590039352	0.2878580737068717	1.8922237934702024	0.1152148458190892	-0.2271686578964209	0.3423835037155102	85.24104570479392
0	1.0	ltm	133	diff_vonmises	-0.0109920149196831	-0.6297960632426767	3.2571382998851286	0.2716713686722796	5.446536311124328e-17	2.388365309920177	-0.1937188904926017	-0.3798438369540227	0.186124946461421	76.07465392031688
1	1.0	perception	133	diff_vonmises	-0.0268070974133016	-1.535933542778251	14.853073589604984	0.6183787592717767	0.0113410704886549	2.9002250498217323	0.4752145242636886	-0.4636761965045418	0.9388907207682304	35.087154895739474
2	1.0	wm	133	diff_vonmises	0.0148476187026353	0.850705887480514	4.025469123982474	0.3362398482638674	2.0031802041167614e-16	2.628552110922852	-0.1589331859928889	-0.4182643575324568	0.2593311715395678	68.23728261814418
3	2.0	ltm	133	diff_vonmises	0.0533467851454602	3.056545639426068	4.708935902263047	0.3905756490712089	0.013419729373697	1.7009100859708248	0.0536427161748758	-0.26888989125529	0.3225326074301659	62.34272369729635
4	2.0	perception	133	diff_vonmises	-0.0108887966100521	-0.6238820897323474	7.287383835790897	1.279606753285302	0.3010748529107194	2.633573047388168	0.798759537035763	-0.4453026409357364	1.244062177971499	48.23383914780362
5	2.0	wm	133	diff_vonmises	0.0470577349649494	2.6962096069368062	4.123416526685428	0.5487788186262317	0.1384088996845949	2.096194890026831	0.0476372137633876	-0.3261974900885832	0.3738347038519709	62.83307120085081
6	3.0	ltm	133	diff_vonmises	0.0678481737158216	3.887414001587024	2.5910202269969145	1.060174055310105	0.5393011474729191	2.033262401189292	0.1213886822364297	-0.2562031786343483	0.377591860870778	69.51718033501129
7	3.0	perception	133	diff_vonmises	-0.0127213412301407	-0.7288791622328274	4.6227823717665455	2.020742742794541	0.2720385628477443	2.988896357874506	1.067135919879853	-0.4537664499054397	1.5209023697852924	60.38440248840604
8	3.0	wm	133	diff_vonmises	-0.0281306382448802	-1.6117668464409391	3.789569257131432	0.6297252050056759	0.2007018561418932	1.9261062784632397	0.0990672058740705	-0.2941423945543207	0.3932096004283912	64.47160592753565
9	4.0	ltm	133	diff_vonmises	-0.0720908551901755	-4.130501743885847	1.1015653622144446	6.56807854347531	0.7449430314505527	8.323908714796925	-0.070050867423951	-0.370798877803672	0.300748010379721	80.8050931216658
10	4.0	perception	133	diff_vonmises	-0.0603732836526897	-3.459134348645289	2.221812074018342	2.8246084147556405	0.2725123224752298	4.560070627502844	0.6165354741551327	-0.5703591390679732	1.1868946132231055	82.18543246316193
11	4.0	wm	133	diff_vonmises	-0.0766981462640025	-4.39448007740443	0.947562481210492	287.33637523330174	0.9362351048839118	289.4079704995342	-0.0644251928928838	-0.4462631151981924	0.3818379223053085	80.267549253776
12	5.0	ltm	133	diff_vonmises	0.0246256593349506	1.4109463476196074	1.732097358606633	1.2348483709130216	0.1998080083495211	2.269530256653495	0.1470228307878033	-0.2806936308273624	0.4277164616151657	91.98747417208236
13	5.0	perception	133	diff_vonmises	-0.0248316889953849	-1.42275097761701	1.885791436546865	2.788854506573819	0.2557275011427496	3.781750659875017	0.6235941711550077	-0.4399980375092517	1.0635922086642595	89.73603459695678
14	5.0	wm	133	diff_vonmises	0.0458573653275374	2.6274334928574543	1.579104479119282	1.0907391162204847	7.430909410400664e-18	2.345080102756528	0.1141776747667321	-0.3525139594646052	0.4666916342313373	108.04677104940676
15	6.0	ltm	133	diff_vonmises	-0.1745706453865889	-10.002161207526484	0.4622240000070239	156.7956091963152	0.4509246642465378	157.81225000267762	0.0871639940586916	-0.3054415466602513	0.392605540718943	124.3141483394771
16	6.0	perception	133	diff_vonmises	-0.0331809027695358	-1.901125689128346	0.6030981988801778	202.29833465606615	0.5875722948169495	203.40776174753665	0.3021916460149398	-0.4149778042006282	0.7171694502155681	113.40664709315313
17	6.0	wm	133	diff_vonmises	0.0027084349025403	0.1551818890014862	0.4495031807114604	153.68268283429782	0.4360915295442605	154.8528022335449	0.1066329888630548	-0.3589855522986998	0.4656185411617546	126.1867368519953
18	7.0	ltm	133	diff_vonmises	-0.0113413685168833	-0.6498125499199642	0.9783177930773822	210.76102696792697	0.9634229125576826	212.39909156118568	0.0468581647427157	-0.384578252122786	0.4314364168655018	82.25893876206385
19	7.0	perception	133	diff_vonmises	0.0307911697743905	1.7642040743433671	1.6011008709434462	2.0024355257337545	7.489835807976923e-15	3.631816614982863	0.3243644959864105	-0.5413182247642162	0.8656827207506267	107.40079168048965
20	7.0	wm	133	diff_vonmises	0.1033051513905546	5.918949176638811	0.7378567310114955	70.09035177745169	0.7061134310319193	71.81741476383124	-0.0690414643831083	-0.3577655001696023	0.2887240357864939	91.45686731861512
0	1.0	ltm	110	diff_vonmises	0.0132643044717869	0.7599886644098954	3.777723877229106	0.3365732943749051	2.558464261655446e-18	3.891186518836598	-0.3685142711150718	-0.6191703353609067	0.2506560642458349	70.5006153650032
1	1.0	perception	110	diff_vonmises	0.0159900182518801	0.9161605601698892	11.857337483623592	0.8316346703617999	0.0542362781038409	4.355731755916436	0.3985639317319468	-0.7087647373391293	1.1073286690710762	38.92344527226206
2	1.0	wm	110	diff_vonmises	0.0558760397402741	3.2014612530229747	4.161136705414144	0.4083273859327264	3.2008557384577984e-19	4.083759477370057	-0.3291880250205487	-0.6498725442313997	0.320684519210851	67.08779734998032
3	2.0	ltm	110	diff_vonmises	-0.0203271732793219	-1.1646612383362511	3.738563136977702	0.4985616354216284	7.385652418267405e-23	2.414960560927248	-0.0149831091991051	-0.3841438847375034	0.3691607755383982	70.87908881925736
4	2.0	perception	110	diff_vonmises	-0.0248048451876987	-1.4212129407305312	7.22624070610843	1.334336531533428	0.1784740164202967	3.231114252428001	0.7942983721243384	-0.530256541574707	1.324554913699045	49.02993627428981
5	2.0	wm	110	diff_vonmises	0.0300042980734725	1.7191196468624832	3.806640523985458	0.7394560243774131	0.1030667814629344	2.817719956689047	0.057468297187186	-0.4349706946201647	0.4924389918073508	66.10054101802788
6	3.0	ltm	110	diff_vonmises	-0.0023257087828026	-0.133253297631097	2.887121927168075	0.6016426383282055	8.068121426422752e-16	1.6474459530774113	0.123299708244178	-0.2610015783066841	0.3843012865508621	80.89978412276463
7	3.0	perception	110	diff_vonmises	-0.000473446901814	-0.0271265092974886	3.727325677776432	2.14907162209606	0.2101458629832739	3.11176779109154	0.9851887459891724	-0.4533077878372241	1.4384965338263964	67.42438679833182
8	3.0	wm	110	diff_vonmises	-0.0933830002654653	-5.350451793480207	3.405183236071012	0.7559793045790167	0.0738519656329481	1.923255089118156	0.2026763270961121	-0.2926242129162182	0.4953005400123303	71.58262482090046
9	4.0	ltm	110	diff_vonmises	-0.0282011768942567	-1.615808413342768	2.610060035407992	0.5777868947700976	5.906526146977689e-18	2.920401774558856	-0.1155927297252178	-0.4629081243050635	0.3473153945798456	85.13663494115818
10	4.0	perception	110	diff_vonmises	-0.0732803114174183	-4.198652565622408	1.4731124705601886	7.369361148417362	0.6091248995110577	9.4374556324936	0.63480300562192	-0.6775982230550543	1.3124012286769744	86.47122449481503
11	4.0	wm	110	diff_vonmises	-0.0367283568756632	-2.104379837425805	0.6996521493754831	236.33095206569416	0.6871749038260765	238.8230038481064	-0.141171279483089	-0.5006191322159452	0.3594478527328562	91.71124563397348
12	5.0	ltm	110	diff_vonmises	-0.0630540387945673	-3.61273030418287	1.3674625147420048	1.21551705993992	0.0130687819717982	2.768864847059473	0.0514708185276098	-0.4026214983355267	0.4540923168631365	113.57500795135164
13	5.0	perception	110	diff_vonmises	-0.0207996411525994	-1.1917316534305715	1.8921575572618567	3.255274371313251	0.231877069699799	4.683017681222392	0.6965590860272736	-0.561230779341969	1.2577898653692423	89.88552156726584
14	5.0	wm	110	diff_vonmises	-0.0071698150958986	-0.4108001448841774	0.5392896205231742	221.473931915926	0.5273776244755405	223.1376658262955	0.0764268076109147	-0.4348171337086839	0.5112439413195986	113.96261006457196
15	6.0	ltm	110	diff_vonmises	-0.054480372292643	-3.121495398669918	0.3907748360906197	127.00917130547523	0.3771254376352235	128.49707494527155	-0.0164231149964244	-0.3721463225731458	0.3557232075767214	129.68107468404315
16	6.0	perception	110	diff_vonmises	-0.0673754808812202	-3.8603306971582874	0.3083890167200535	237.5853083391843	0.295519049678452	238.9571905978668	0.2602745719993251	-0.5632490964422878	0.823523668441613	144.15771751255676
17	6.0	wm	110	diff_vonmises	-0.0623876475167444	-3.574548896459287	0.4398295578759899	280.9634348410957	0.431378591573489	282.55166441045026	0.0671740318159948	-0.4397151506231189	0.5068891824391137	125.4937055869638
18	7.0	ltm	110	diff_vonmises	0.1831279711177728	10.49245985584202	0.6162134946469776	109.42621504393624	0.5954513618840211	111.19381811365773	-0.0376519789522085	-0.3849509659198773	0.3472989869676688	102.16556395159508
19	7.0	perception	110	diff_vonmises	0.0936154426624274	5.3637697618060445	0.807541218853768	350.878374336013	0.7944768047658546	352.429379239753	0.4060482920608308	-0.5078215794547418	0.9138698715155726	97.20816209688816
20	7.0	wm	110	diff_vonmises	0.0518710360322531	2.971991443619124	0.760067167816434	126.42172337586864	0.738823526083043	128.27544957189104	-0.0285328010187981	-0.4010408196540549	0.3725080186352567	91.63531080890505
0	1.0	ltm	208	diff_vonmises	-0.1030087070404918	-5.901964166519714	5.162442378976921	0.3783036174745864	0.0066748998475787	2.155098893930725	-0.0116183938528363	-0.3418998943797964	0.3302815005269601	59.70045926110265
1	1.0	perception	208	diff_vonmises	-0.0530089015915143	-3.0371863378180834	15.227869008892435	0.7588303211044066	0.0367834957378509	2.762082666236854	0.7154212528936914	-0.4472027023247729	1.1626239552184645	34.55728642679196
2	1.0	wm	208	diff_vonmises	-0.0018584541394392	-0.1064815786084879	4.727455719853374	0.431186276695542	2.2246186793240007e-18	2.3853411106216345	-0.0167786731198667	-0.3796104148379388	0.3628317417180721	62.83802061429637
3	2.0	ltm	208	diff_vonmises	-0.0693137343382153	-3.9713844398707496	3.185189921023235	0.6352761402132234	0.2037365650329237	1.4332594996674948	0.1536805388397565	-0.2083154724952592	0.3619960113350158	70.70692619396007
4	2.0	perception	208	diff_vonmises	-0.0472108041292194	-2.704979824023073	7.458433266078895	1.1764355506086683	0.3402503352636798	1.920202529609748	0.8413404148272728	-0.3259606502077031	1.167301065034976	47.86436256775414
5	2.0	wm	208	diff_vonmises	-0.0282055339247795	-1.6160580528029338	3.7726541509655354	0.7424166357846747	0.3091421969567733	1.606216893106883	0.2126845479587606	-0.239123448759754	0.4518079967185147	64.0738120554146
6	3.0	ltm	208	diff_vonmises	-0.0530829687307591	-3.04143007229742	1.9598373708336168	1.5012873111425955	0.6989734756574923	1.9248338537611565	0.2176948177692569	-0.1651484115252575	0.3828432292945145	77.89942938457241
7	3.0	perception	208	diff_vonmises	-0.0338595995256913	-1.9400121488252773	3.8825730510463954	2.085971057645753	0.5052498368278145	2.3687695291524946	0.9910933967385684	-0.3244749147453938	1.315568311483962	63.8593689809411
8	3.0	wm	208	diff_vonmises	-0.1155173737215973	-6.61865797468297	1.8057635330178932	3.4276052013615352	1.0781835518377585	3.9311293106983847	0.2607237041739234	-0.204174514403428	0.4648982185773514	73.84699344155658
9	4.0	ltm	208	diff_vonmises	-0.1813371577703486	-10.389853809138918	1.2182588294392755	53.06611179046436	1.167158801047238	53.82281338057199	0.2191113611447299	-0.2469909581038845	0.4661023192486144	79.32921639047669
10	4.0	perception	208	diff_vonmises	-0.1017055803946251	-5.82730050954051	2.5881599819539294	2.5793772594872952	0.2986932279573588	3.2438556502218234	0.8706296115088907	-0.4080308912989427	1.2786605028078335	78.28534464338307
11	4.0	wm	208	diff_vonmises	-0.1650068483021851	-9.454195998470624	1.1879769792813482	266.75953889608166	1.176551940736314	267.70904448863536	0.208528601854681	-0.2880309101767828	0.4965595120314638	78.76363476965525
12	5.0	ltm	208	diff_vonmises	-0.0077691291252799	-0.4451383093707082	0.624435502081883	168.64812258106235	0.6119646451843278	169.1951474915852	0.2522134203558934	-0.2559053433289708	0.5081187636848643	113.18594814954776
13	5.0	perception	208	diff_vonmises	0.0045409087221492	0.2601749049332937	2.012985712556759	2.3962356479499807	0.2134678382716865	2.886614149128061	0.678682804461099	-0.3506827544692528	1.0293655589303516	89.48965238583708
14	5.0	wm	208	diff_vonmises	-0.0342409952405871	-1.9618645136131807	0.6980205284798848	155.07883092800387	0.6840832916315963	155.60297332666303	0.264233474718047	-0.2419472044993309	0.506180679217378	107.31446698754289
15	6.0	ltm	208	diff_vonmises	-0.1304915461401995	-7.476614855970079	0.3687067622997919	175.21747566815793	0.3593714450742732	175.65049993786894	0.2019960394290834	-0.2529858758630645	0.4549819152921479	138.30277832485694
16	6.0	perception	208	diff_vonmises	0.017150485063022	0.9826504107133224	0.5794836146826642	84.94039354296298	0.5422823910829125	85.45433404528443	0.4646477631456847	-0.3816799442271801	0.8463277073728648	120.09615169480593
17	6.0	wm	208	diff_vonmises	-0.1870021379363658	-10.714433263677025	0.4928355376941736	92.50145605697014	0.4686740676348784	92.88287986302336	0.3245339893574659	-0.2922987591483075	0.6168327485057734	127.26898387549356
18	7.0	ltm	208	diff_vonmises	0.1331732972382996	7.6302678755957904	0.7983132055164508	147.76024426647805	0.7835370391974658	148.35953816483848	0.2368515899747691	-0.2313477431902413	0.4681993331650105	99.38603086293844
19	7.0	perception	208	diff_vonmises	0.0034904904437867	0.1999903708597258	2.1225242557680843	1.596930876941715	0.0588690927924613	2.1250818751376976	0.4954675715173341	-0.3063647287305852	0.8018323002479193	92.00841638017738
20	7.0	wm	208	diff_vonmises	0.198002736198219	11.344721116200164	0.8863357133123257	34.22475677052625	0.8266816110941058	34.75175138599839	0.2267663738092693	-0.2057717622257437	0.4325381360350131	95.72999538665512
0	1.0	ltm	306	diff_vonmises	0.0132010003244393	0.756361603941207	6.489695846783936	0.3623227786615313	0.02939652930803	3.6245550987850654	-0.2334183312854001	-0.5782240699892118	0.3448057387038116	52.13107063694636
1	1.0	perception	306	diff_vonmises	-0.0125827063222455	-0.7209359671172473	13.302725048172071	0.696251853506304	0.0414841894503689	4.023638184222136	0.3358487804343616	-0.6524068331385234	0.988255613572885	36.83996881567009
2	1.0	wm	306	diff_vonmises	-0.018585208629718	-1.0648540158529607	3.873595655792745	0.5612663357656393	0.0757141421839837	4.116322116125779	-0.2816317643260863	-0.6461829598226241	0.3645511954965377	64.43086700778937
3	2.0	ltm	306	diff_vonmises	-0.0061048556322434	-0.3497824622642166	2.5009820356366563	1.0846797599254865	0.324160884587816	2.62861075966734	0.0757611475277822	-0.3551444683551002	0.4309056158828825	73.54760540569427
4	2.0	perception	306	diff_vonmises	-0.0276686544060348	-1.585297122271845	6.772353662016877	1.2799485379702646	0.2713714030260391	2.900888700066938	0.7075330208359042	-0.4830039237515834	1.1905369445874876	49.916265788160274
5	2.0	wm	306	diff_vonmises	0.0068091639057512	0.3901363538123609	3.4771477660836663	0.8962221852338682	0.2135658871870788	2.692648275076953	0.1132417395363526	-0.4049773337311793	0.518219073267532	66.55764691529495
6	3.0	ltm	306	diff_vonmises	0.0066965916748717	0.3836864400925952	3.0146728012527104	0.8964270826121635	0.1753497735532222	2.251374981618524	0.1649879832021226	-0.3280576809535993	0.493045664155722	72.59279149628887
7	3.0	perception	306	diff_vonmises	-0.0165191691723153	-0.9464786746362868	4.425129528079641	2.0440095489826646	0.2338171392393964	3.3283004572240955	0.999886383093771	-0.5040825076875683	1.503968890781339	61.75965329875984
8	3.0	wm	306	diff_vonmises	-0.0261989985979698	-1.5010920471328328	3.390126323204321	0.878394180644789	0.1373192170542654	2.498488004252004	0.1622945455802917	-0.3756140838829793	0.5379086294632711	69.5644452280716
9	4.0	ltm	306	diff_vonmises	-0.1140356309105018	-6.533760365283347	2.1015087171595583	1.0212711340468708	0.0224262388083733	3.243703810599264	0.0148949626870531	-0.4966236553479884	0.5115186180350415	92.625522433429
10	4.0	perception	306	diff_vonmises	-0.0409582459253489	-2.3467346277813967	2.066042832483172	3.035474339285797	0.2036502973825946	5.097150097602511	0.6126699986434426	-0.6531530961715684	1.265823094815011	86.50900929526472
11	4.0	wm	306	diff_vonmises	-0.0916468103164108	-5.250975436966352	0.7828132802807795	260.76686201735066	0.7680727900508547	263.24187172330164	-0.0024113343500431	-0.5486288530931027	0.5462175187430596	90.94900965721747
12	5.0	ltm	306	diff_vonmises	-0.0433135023235131	-2.4816808790673903	1.6798045423498085	1.423036234439574	0.0141820125063822	2.457803320616739	0.2635184540041108	-0.362698014353445	0.6262164683575558	104.30864790079488
13	5.0	perception	306	diff_vonmises	-0.0270510215872928	-1.5499093684691585	1.5298097165742777	4.123197473505703	0.3738314680070871	5.065292698975774	0.6756278765710919	-0.4660075487775748	1.141635425348667	94.17892273325204
14	5.0	wm	306	diff_vonmises	-0.0131273883926557	-0.7521439509282021	1.0833512782242836	3.5442449325464502	0.3327726444765062	4.625219752992519	0.267833109669785	-0.3691034734513621	0.6369365831211471	105.66433338757324
15	6.0	ltm	306	diff_vonmises	-0.0661089362796436	-3.7877630369228736	0.9317097909439384	1.7884508892884554	1.1648522822094246e-19	2.4666558689771643	0.1953819193146097	-0.3013621145016493	0.496744033816259	131.44947185774677
16	6.0	perception	306	diff_vonmises	-0.0028620450904549	-0.1639831044592068	1.2541717886551345	2.139340906173672	1.2607368230559432e-14	2.8723776170377184	0.3752653119288509	-0.3893910732130182	0.7646563851418691	118.71001204575788
17	6.0	wm	306	diff_vonmises	-0.0376356517632718	-2.1563640052595727	0.4670956109502487	214.3083249158252	0.4564557027580314	215.01017977713056	0.2559868489550538	-0.3329960285268249	0.5889828774818788	127.63652558464548
18	7.0	ltm	306	diff_vonmises	-0.0484103968762687	-2.773711425563502	0.7583768996575094	218.74778727645764	0.7445673226686291	220.276608587324	0.1286496386363609	-0.3919960873974872	0.5206457260338482	96.45198026776784
19	7.0	perception	306	diff_vonmises	0.0494089542579983	2.830924549138245	0.705999307333948	244.76305461049492	0.6891022298010527	246.1360025231617	0.4003648890601994	-0.4902527969120172	0.8906176859722166	104.80466366827436
20	7.0	wm	306	diff_vonmises	0.086962591857097	4.982589488930401	0.7784566021129762	165.69067868900186	0.761613322363703	167.222934035184	0.0788839770193305	-0.3710560299260805	0.4499400069454111	93.97503574461764
0	1.0	ltm	473	diff_vonmises	-0.1399191519758514	-8.01677688126584	2.6834608825016533	0.4497254181066525	1.1442589303879934e-21	1.9808036184808455	-0.0390089205287892	-0.3139650390717086	0.2749561185429193	83.94320790595665
1	1.0	perception	473	diff_vonmises	-0.0628779938218092	-3.602643670239332	15.1016964236173	0.714607494065996	2.3843931862579826e-15	2.4747932186188533	0.7041433173721692	-0.3938755738734073	1.0980188912455766	34.86436570958679
2	1.0	wm	473	diff_vonmises	-0.0158821572135737	-0.9099805779010304	4.030147382455371	0.4360287860625796	2.6421718512443137e-23	2.108859556788632	0.0009831616065697	-0.3355291062005674	0.3365122678071371	68.19574852176765
3	2.0	ltm	473	diff_vonmises	-0.0285348200699912	-1.634924759175697	3.0948377690619417	0.7379042889032059	0.2828067285471191	1.617550501354481	0.157038953318201	-0.2301092172138945	0.3871481705320956	69.86124733546924
4	2.0	perception	473	diff_vonmises	-0.0381677194543525	-2.1868492383737674	6.9419709886619225	1.2433240498195637	0.2479846870891766	2.0708699915066893	0.8655837812438805	-0.3400169818436989	1.2056007630875794	49.97826124926851
5	2.0	wm	473	diff_vonmises	-0.0276072834607533	-1.5817808261224902	3.878468498253055	0.6200572228589295	0.1822489113094332	1.5657665429500998	0.1721601032653989	-0.2376344719848845	0.4097945752502834	64.97639569423853
6	3.0	ltm	473	diff_vonmises	-0.0085279897877586	-0.4886178225692388	2.320132080768864	1.0671208288918128	0.3842487787508029	1.661415657414015	0.2273699206587457	-0.1989429115812018	0.4263128322399475	78.25499347924534
7	3.0	perception	473	diff_vonmises	-0.0311968249661883	-1.7874464047709488	4.100224204964898	2.1304666177959635	0.3236913448463129	2.636744316952556	1.095074697872346	-0.3817850777874588	1.476859775659805	63.73768915229647
8	3.0	wm	473	diff_vonmises	-0.1164101371139519	-6.669809549168673	2.2838698875020693	1.5565083219454217	0.6211355133127106	2.2360142209367684	0.2668014327931087	-0.2352746422232381	0.5020760750163469	74.28184725114704
9	4.0	ltm	473	diff_vonmises	-0.1863770812264703	-10.678620152243676	2.4429862051141464	1.1498920759673998	0.4181491546128753	2.225286361786744	0.1532811909263783	-0.2810737745330753	0.4343549654594537	73.77202780934977
10	4.0	perception	473	diff_vonmises	-0.0918107099149392	-5.260366192225919	2.349147410451866	2.721890139849364	0.2181360235935579	3.891081927290241	0.7851145318431764	-0.5034813555485391	1.2885958873917156	82.62630769154359
11	4.0	wm	473	diff_vonmises	-0.1493574742691957	-8.557552914358704	1.1339969936827818	289.59965667996977	1.1225192346271955	290.91579082485487	0.1400510720008014	-0.3490304580993069	0.4890815301001083	78.48663602528819
12	5.0	ltm	473	diff_vonmises	-0.0158465988149877	-0.9079432317358116	1.2786104383788852	1.618338997541613	0.1532611215472162	2.0373798375187038	0.2611725293163786	-0.2271825677380719	0.4883550970544505	110.08539174000067
13	5.0	perception	473	diff_vonmises	-0.0152246277691643	-0.872306915830792	1.868515296824262	2.571937722027508	0.2309658806781994	2.8300437243059	0.7133032328484709	-0.3254357694046645	1.038739002253135	92.512341972204
14	5.0	wm	473	diff_vonmises	-0.0051124726161174	-0.2929231037797358	0.7010044370157428	69.89465018607552	0.6725528353556053	70.33430353030052	0.2559757746315405	-0.220502190441767	0.4764779650733075	108.13067296611226
15	6.0	ltm	473	diff_vonmises	-0.1340524587600351	-7.680640120301533	0.3472669684228843	102.21031501161552	0.3351586682328912	102.53423370399452	0.153804468900887	-0.1947727808722543	0.3485772497731414	140.7780960966204
16	6.0	perception	473	diff_vonmises	-0.0076841968510018	-0.4402720485101233	0.5830887851516979	105.07594653698712	0.5583581520986591	105.41869180722983	0.4019680558012055	-0.3038992476744475	0.7058673034756531	119.70041149860808
17	6.0	wm	473	diff_vonmises	-0.071932583106828	-4.121433421495287	0.4448785613102812	109.70772151993113	0.4297525712895135	110.02570608306628	0.2324717099293956	-0.2288880877448118	0.4613597976742074	131.4483891138751
18	7.0	ltm	473	diff_vonmises	0.0667732269298608	3.825824087550319	0.9419789136538496	120.31583712442666	0.9217894477430276	121.0659423132392	0.2166481285170576	-0.2458178524897931	0.4624659810068507	90.24153177016166
19	7.0	perception	473	diff_vonmises	0.046916508570504	2.6881179305792364	1.587534270694527	2.346661393602148	0.1712137474831547	3.047340480564371	0.4806674839881456	-0.3617347119851128	0.8424021959732585	99.96017334710656
20	7.0	wm	473	diff_vonmises	0.0691704555889082	3.9631751722415407	0.7269205036054559	73.23709167119542	0.7021680565917642	73.97509794180357	0.1354120916889805	-0.2240366313397777	0.3594487230287582	101.73159646831805
0	1.0	ltm	283	diff_vonmises	-0.0282801932956873	-1.6203357196570516	6.167709305174367	0.3092029434293691	0.0182912548500497	2.694979864578183	-0.1372494807698138	-0.4285102514045931	0.2912607706347792	53.97915059404568
1	1.0	perception	283	diff_vonmises	-0.0203500702142398	-1.1659731360708312	12.974663680369543	0.7439367561629789	0.060921332514592	3.2646901789774803	0.50658614675952	-0.5337693704115194	1.0403555171710392	37.25846105713731
2	1.0	wm	283	diff_vonmises	0.0116148950855141	0.6654844678872042	5.543266654597164	0.3864740246524888	0.0172198285378847	2.9680777569599583	-0.1266004768169963	-0.4709661765796503	0.344365699762654	57.01471985762157
3	2.0	ltm	283	diff_vonmises	-0.0499563085714477	-2.8622856411971727	3.037253911892832	0.7622802333247898	0.2658624341680587	1.95148717230428	0.1046640246737107	-0.2812040746423651	0.3858680993160758	69.77898528084683
4	2.0	perception	283	diff_vonmises	-0.030266125007873	-1.7341212251664806	7.323222958745507	1.2084081453932218	0.2845830771363298	2.4266583130386885	0.7775198925792844	-0.4083372880020314	1.1858571805813158	48.26448297799735
5	2.0	wm	283	diff_vonmises	0.0197558276076133	1.1319255427042794	3.984952701292356	0.681384023774819	0.2108270342047084	2.007328796751486	0.1326947175195486	-0.3084393071538981	0.4411340246734467	63.06489078606927
6	3.0	ltm	283	diff_vonmises	0.000227767420343	0.0130501118962368	2.1722592411268247	1.260381399017021	0.5696993966696956	1.9825745882919263	0.1682376015673002	-0.2135719295700122	0.3818095311373125	75.26633880783965
7	3.0	perception	283	diff_vonmises	-0.0190384820548132	-1.0908246700763538	4.370449598537864	1.8569516272986035	0.332750708046812	2.5341726893473	0.9507607448165308	-0.3763697734930011	1.327130518309532	61.55991057468231
8	3.0	wm	283	diff_vonmises	-0.0523025579267169	-2.996715826939392	2.566128729918786	1.104385743317032	0.4862183466476629	1.9830986370816603	0.1767179571248007	-0.2473550453162621	0.4240730024410628	71.74457932154453
9	4.0	ltm	283	diff_vonmises	-0.1448028983354771	-8.296594935884771	1.2488673798109704	5.247677283510978	0.7595821109194775	6.585959880446608	0.0878107420172329	-0.3295294322731728	0.4173401742904057	82.69594842831881
10	4.0	perception	283	diff_vonmises	-0.0849779722374126	-4.868879160783624	2.3692657877204306	2.633727025009752	0.2765597987330174	3.948937201107204	0.6906956924467036	-0.4985040761762671	1.1891997686229707	80.54980747687921
11	4.0	wm	283	diff_vonmises	-0.1374577301528644	-7.87574779920729	1.0330779016328828	371.883779777513	1.0244356191700117	373.40605208912245	0.0791846219860019	-0.3716810099271654	0.4508656319131674	80.70582935028227
12	5.0	ltm	283	diff_vonmises	-0.0054722950985118	-0.3135394133948555	1.3627343550859357	1.7622335500347488	0.1789225582910264	2.6175197276472235	0.2261478423370523	-0.2983719891157538	0.5245198314528062	104.41076350294507
13	5.0	perception	283	diff_vonmises	-0.0354745076349638	-2.0325395677880445	2.173114758775485	2.396661516469705	0.180170102572547	3.143272235081537	0.7055602635339501	-0.4053687744456019	1.110929037979552	87.00290352714742
14	5.0	wm	283	diff_vonmises	-0.0019273556810663	-0.1104293461456621	0.7037411788309025	170.0328934610614	0.6892671260272772	170.87817463195998	0.2302077611964392	-0.2942494953756327	0.524457256572072	104.62096890654576
15	6.0	ltm	283	diff_vonmises	-0.0826620428190426	-4.736186179460835	0.4566865931749174	123.6131847886262	0.4426202721667405	124.2400130008566	0.1742274248948732	-0.2658048244274624	0.4400322493223356	128.22573131184348
16	6.0	perception	283	diff_vonmises	-0.0437825140801556	-2.5085532732650204	1.1350372660226655	2.2493576933929345	6.445436785959194e-12	2.9364897974862023	0.3583056377820757	-0.3820551078158943	0.74036074559797	123.15320327188502
17	6.0	wm	283	diff_vonmises	-0.1328703344955172	-7.612909389084651	0.5260351415748318	148.82667442903272	0.5119793074442033	149.4186728386673	0.2446830580772498	-0.2849423014801751	0.529625359557425	122.1284913148892
18	7.0	ltm	283	diff_vonmises	0.0785509208693344	4.500636242678962	0.7809349619339286	189.6496598992989	0.7677062587307498	190.6477389786895	0.182150197614888	-0.2959089799372023	0.4780591775520904	97.55553882524087
19	7.0	perception	283	diff_vonmises	-0.0352031500343541	-2.0169919225343107	0.8747055604640035	116.73801582238208	0.8411649417025299	117.57707687804458	0.4855838807831389	-0.3786021524594556	0.8641860332425946	96.64018183916356
20	7.0	wm	283	diff_vonmises	0.1652845344612206	9.470106243412555	1.4409422595948362	2.012005508473762	0.4208199145136048	2.9279610140707475	0.171159434055219	-0.2638511620429135	0.4350105960981326	91.021912908641
0	1.0	ltm	381	diff_vonmises	-0.0593589606016925	-3.401017918760316	2.6699855581461858	0.3906769972991993	7.724303946104777e-19	2.656645094498856	-0.1835597327646102	-0.4216705629229357	0.2381108301583255	84.16975076297973
1	1.0	perception	381	diff_vonmises	-0.0471931376754059	-2.7039676107805977	16.54327656499733	0.6058738274121868	2.418843767626958e-21	3.020711963187919	0.4944967601763734	-0.4807612405981765	0.97525800077455	33.29756370616676
2	1.0	wm	381	diff_vonmises	-0.0075485535079729	-0.4325002574355229	3.137039614898238	0.4330253006371302	2.3519431533387176e-19	2.889118858838541	-0.1689435872303155	-0.4592692901852389	0.2903257029549234	77.55162920654186
3	2.0	ltm	381	diff_vonmises	0.0284263953302868	1.6287124791958292	4.007669933916917	0.4568076692561361	4.0033304361756483e-19	1.8742864343216323	0.0532558303458233	-0.2981857920428029	0.3514416223886263	68.39729637433533
4	2.0	perception	381	diff_vonmises	-0.0267452440559798	-1.532389606454997	7.128094663942289	1.2165904866385313	0.2224748758249913	2.654905385728902	0.7497649183535149	-0.4389131345984914	1.1886780529520062	49.16501773507309
5	2.0	wm	381	diff_vonmises	0.0043639698814229	0.2500370561277413	3.7955221656279137	0.6571309145927972	0.1494694342852094	2.290305140171685	0.0699820614903592	-0.3519085304385333	0.4218905919288925	65.1587756460375
6	3.0	ltm	381	diff_vonmises	0.0010134728205704	0.0580677152699047	2.693307841600863	1.0397827546621454	0.3350318681780015	2.24958817076249	0.1532808384064019	-0.3048895664082031	0.4581704048146049	72.41825191632327
7	3.0	perception	381	diff_vonmises	-0.0304556206546503	-1.7449785259629234	3.942179608481308	2.3557840456214527	0.2703104093869042	3.5139622873888534	1.077201772095029	-0.5144324688890378	1.591634240984067	64.88299894075647
8	3.0	wm	381	diff_vonmises	-0.0863415226317092	-4.947004843530221	2.975495115608367	0.9509069303019076	0.2418127695972493	2.436824132503051	0.1331115824790381	-0.3505976313878109	0.483709213866849	70.980590578897
9	4.0	ltm	381	diff_vonmises	-0.1028440219930658	-5.89252840835329	2.2609417909383724	0.997000094405822	0.2361563523122403	2.8301809168939305	-0.0089005424163449	-0.3878210604609475	0.3789205180446026	77.75890238392722
10	4.0	perception	381	diff_vonmises	-0.0773975672637987	-4.434553948795573	1.885841693429392	3.887554146171732	0.3701478947387038	5.600159176865328	0.6878362665779894	-0.6051455880757284	1.2929818546537175	85.56758516864531
11	4.0	wm	381	diff_vonmises	-0.1091309589162563	-6.252743360117066	0.9085794359638096	366.85203853545306	0.8990501210646799	368.98694356108393	-0.0229163970487178	-0.4700796090434522	0.4471632119947344	83.3416981790644
12	5.0	ltm	381	diff_vonmises	0.0067354824947032	0.3859147199307404	0.9996301896474986	4.018561204507399	0.4500027383854339	5.1805244128327965	0.1428615986592372	-0.3215665401348697	0.4644281387941069	100.80314899130911
13	5.0	perception	381	diff_vonmises	-0.0050688948137563	-0.2904262796239911	1.4651747170303606	4.152764881459799	0.3914716462849735	5.281081870279454	0.5764175434482839	-0.4697170867136195	1.0461346301619034	94.34960114162496
14	5.0	wm	381	diff_vonmises	-0.0237759534003547	-1.362261783740048	0.5618602755139653	111.59698456634274	0.5404989734179432	112.98166143231816	0.0965743267303658	-0.3763552511091568	0.4729295778395226	113.04814066960056
15	6.0	ltm	381	diff_vonmises	-0.2034510442666143	-11.656886174006289	0.3749723318555944	180.9102113770803	0.3652512327657879	182.1452100561104	0.0464468525006367	-0.3528340438742141	0.3992808963748508	133.29248115617128
16	6.0	perception	381	diff_vonmises	0.0032981645218572	0.1889709072422018	0.5930149473181466	274.1290627064864	0.5805478934493903	275.4317978251931	0.3048233701221932	-0.4631149150140743	0.7679382851362675	113.65448169737503
17	6.0	wm	381	diff_vonmises	-0.0292514005624217	-1.6759817970733673	0.410682994902971	213.9018059535641	0.4004856863563193	215.31431903100415	0.0781588898137073	-0.4110864660261555	0.4892453558398628	129.6642436639475
18	7.0	ltm	381	diff_vonmises	-0.046754622464023	-2.678842539916072	0.9406032260277868	175.39966142650542	0.9221192744427874	177.15883051178002	0.0412788696646231	-0.408101355176548	0.4493802248411711	83.83955607023287
19	7.0	perception	381	diff_vonmises	0.093485735132949	5.356338067795864	1.5101113879124426	2.1263707890996444	5.8524497740120976e-18	3.9316594486846745	0.2990309439425127	-0.5806203561293405	0.8796513000718532	110.10924275146576
20	7.0	wm	381	diff_vonmises	0.0658693826723251	3.7740376262563857	0.7302843200781124	89.31918990736766	0.7036999600990226	91.20218014335504	-0.0842689234037052	-0.3867119292480048	0.3024430058442995	91.34059630132924
0	1.0	ltm	260	diff_vonmises	-0.0395038721012817	-2.2634051458280435	2.4001159684859896	0.3787616765390347	1.8865619221976708e-17	2.537132064904657	-0.1858754844265024	-0.4020039945171044	0.216128510090602	88.77901427199478
1	1.0	perception	260	diff_vonmises	-0.0348643564679971	-1.9975804810558708	14.816037100786476	0.6286304500211225	4.825858972920927e-18	2.9203124745301463	0.4921343026051351	-0.4647821656942681	0.9569164682994032	35.195687522963794
2	1.0	wm	260	diff_vonmises	0.0325682708536302	1.8660244659519467	3.903413490754344	0.3789155878153579	7.883959594669895e-17	2.6740956306830075	-0.1381342126731194	-0.4254785538303778	0.2873443411572584	69.32554244745384
3	2.0	ltm	260	diff_vonmises	-0.008492534064105	-0.4865863592443044	4.339311014427949	0.4328459829448947	5.789623719204834e-16	1.88789438149486	0.0473242794032504	-0.3004085151966017	0.3477327945998522	65.66661969073522
4	2.0	perception	260	diff_vonmises	-0.0228400744234063	-1.3086398682258809	7.275730990236509	1.2005050494485687	0.1806443108382341	2.6936307719879737	0.7585135633973058	-0.4417785729363632	1.200292136333669	48.94672833817356
5	2.0	wm	260	diff_vonmises	0.0350459898271733	2.007987305955448	4.259409037292548	0.5470997151181234	0.1073807230208686	2.1608116873320635	0.0534768222916371	-0.3372237518899418	0.3907005741815789	62.64254245586531
6	3.0	ltm	260	diff_vonmises	0.0120703249697337	0.6915786781171185	2.210009582041579	1.2850215058542644	0.4605164645452768	2.34521579109265	0.1425304028947328	-0.2770934977525471	0.4196239006472799	75.6811712239415
7	3.0	perception	260	diff_vonmises	-0.0240183256120319	-1.3761486885404008	3.9826434209004593	2.1903284740116917	0.2453873493349424	3.228880443635128	1.032878082259805	-0.4749258066788909	1.507803888938696	64.92680340829659
8	3.0	wm	260	diff_vonmises	-0.0742873607556855	-4.256352242466565	2.7315734297830625	0.9920675669767858	0.3114096689682309	2.259346620781568	0.1364087982134753	-0.3109304672646481	0.4473392654781234	72.2492933152742
9	4.0	ltm	260	diff_vonmises	-0.0773410692674111	-4.431316852051615	1.852211585021063	1.3824191971852	0.4108655770638273	3.15026532709146	-0.044496874153655	-0.3740633159443164	0.3295664417906614	77.36819752870653
10	4.0	perception	260	diff_vonmises	-0.0955934535548019	-5.477101437770009	1.779957452389283	4.34739033134466	0.4568884824762065	6.064561664710241	0.6418284569979213	-0.5927157600612264	1.2345442170591476	85.06057992116996
11	4.0	wm	260	diff_vonmises	-0.1111907179107491	-6.370758857315615	0.9433560604873958	270.79493620479644	0.9317030191230316	272.8063751939659	-0.0615383002372595	-0.4332274803954661	0.3716891801582065	80.49671979728842
12	5.0	ltm	260	diff_vonmises	0.0203850250337566	1.1679758997027831	1.4725029921896948	1.436318601600954	0.1849928354323919	2.621785584496819	0.1174179363453488	-0.3133906340189433	0.4308085703642922	98.5385997215106
13	5.0	perception	260	diff_vonmises	-0.03071802895049	-1.7600134138237589	1.9045896036787304	2.8152378353869576	0.2426956841363269	3.939470654754629	0.6223873067797224	-0.4671858784771036	1.089573185256826	89.5248804992523
14	5.0	wm	260	diff_vonmises	-0.0060084232731782	-0.3442572950812947	0.5821908495082596	145.80106268868084	0.5666432647059035	147.16196920597068	0.0750733626889541	-0.3536344014443191	0.4287077641332733	109.95277336569475
15	6.0	ltm	260	diff_vonmises	-0.1850264859380392	-10.601236742386323	0.4004246817848577	169.24250756097527	0.3909581855896534	170.50199861719568	0.0082947506595587	-0.3277331896687165	0.3360279403282753	128.88158326985308
16	6.0	perception	260	diff_vonmises	-0.0593408557354302	-3.399980586334836	0.5096054487197162	245.91610955855484	0.4973698692523092	247.19489680651645	0.2477634686350001	-0.4547700254998439	0.702533494134844	121.49881174631992
17	6.0	wm	260	diff_vonmises	-0.0632694073226148	-3.6250700118799393	0.4647138276815165	196.33648667347163	0.4545056950592958	197.69851232040057	0.0475351395683532	-0.364794513937035	0.4123296535053882	122.2269117293993
18	7.0	ltm	260	diff_vonmises	0.0088727851984232	0.5083731443958017	0.8954504213756301	178.0428415288557	0.878575836774904	179.6999764158526	0.0444822726505904	-0.3848385891373098	0.4293208617879003	86.17727114294837
19	7.0	perception	260	diff_vonmises	0.0262865295071	1.5061071988029389	1.536924476718258	2.621563355806076	0.1424819376766525	4.2353589954315	0.3789730685327308	-0.5283208675089286	0.9072939360416594	100.85240007600623
20	7.0	wm	260	diff_vonmises	0.0804751629479355	4.610887192544286	1.361119141286117	2.0017968045903944	0.4045997219185471	3.704365457347257	-0.030758395459417	-0.3625507053917983	0.3317923099323812	87.03534748066232
0	1.0	ltm	427	diff_vonmises	0.0382676949595982	2.192577412879031	5.066106940678046	0.2441593994615392	7.226010868070678e-15	3.617459020482453	-0.362536255717338	-0.5757280035249456	0.2131917478076075	60.65126168240678
1	1.0	perception	427	diff_vonmises	0.0320635032373623	1.837103411904913	11.25025318357689	0.803929153316299	0.0841785956838868	4.1494568168631245	0.3460929793465771	-0.6839462637359914	1.030039243082569	39.71899504819436
2	1.0	wm	427	diff_vonmises	0.0980993336802048	5.620677792921306	4.792221678064498	0.3527107234846827	5.880937389417713e-20	3.843213349390308	-0.3127048109799377	-0.6116458318429446	0.2989410208630069	62.40529526983266
3	2.0	ltm	427	diff_vonmises	0.0067381590714561	0.3860680764822243	4.252933234015593	0.4178656242304389	5.436644576004774e-22	2.1712693502070457	-0.0134271879932692	-0.3455010519914164	0.3320738639981471	66.34430177037791
4	2.0	perception	427	diff_vonmises	-0.010601806036148	-0.6074387410876038	7.408567524027225	1.305536628255074	0.2345485762418914	3.10148386764891	0.7762037176584353	-0.51845456455757	1.294658282216005	48.08418905504621
5	2.0	wm	427	diff_vonmises	0.0720251198953278	4.12673538892602	4.056195639799323	0.6664065563413093	0.1286868180092151	2.629481531207965	0.0422762063083898	-0.408753801597639	0.4510300079060289	63.42953415898998
6	3.0	ltm	427	diff_vonmises	0.0307880446285663	1.764025016677277	3.310461904517055	0.5103223908683071	0.1231911634579564	1.4293286881501055	0.097034265307743	-0.214636698369151	0.3116709636768942	70.75598861208422
7	3.0	perception	427	diff_vonmises	0.005468355673957	0.3133137009941559	4.198379546056116	1.8625075296486464	0.2131964476627886	2.795540741777204	0.9256936957372782	-0.417828728560534	1.3435224242978123	63.71427423728866
8	3.0	wm	427	diff_vonmises	-0.0434765776618606	-2.4910244076973687	3.433109153496645	0.638647438740175	0.1374883527047902	1.7676299607667962	0.1300030701034364	-0.2658671072163888	0.3958701773198252	69.27653928860707
9	4.0	ltm	427	diff_vonmises	0.0177939839097016	1.0195201787496024	1.226150997067382	2.0953381418153234	0.3655681141872244	4.247724608691802	-0.1381274461143687	-0.4232231036329665	0.2850956575185977	88.09350976674432
10	4.0	perception	427	diff_vonmises	-0.0721666854160455	-4.134846495787719	1.7274899844788962	4.859389027545636	0.5229893188485304	6.760223366836932	0.5964283267648012	-0.6180063881288806	1.2144347148936818	83.87076152267767
11	4.0	wm	427	diff_vonmises	-0.0139790061546099	-0.8009380544465503	0.7635516678136229	215.56997671145288	0.750189376187674	217.9133038979608	-0.1392956539053145	-0.4703730498475593	0.3310773959422448	87.29684325080055
12	5.0	ltm	427	diff_vonmises	-0.0222690281045339	-1.2759213242480094	1.5707554357474534	1.1280194748918004	0.0715950537979413	2.816565462877965	0.0215299864508043	-0.395048855320544	0.4165788417713484	101.68562134847652
13	5.0	perception	427	diff_vonmises	-0.0328008905903593	-1.8793525950979644	2.0212287078844096	3.0095810469642568	0.2348535490969911	4.630439512749301	0.6432013440477247	-0.5710077336667728	1.2142090777144974	86.89165819646857
14	5.0	wm	427	diff_vonmises	0.0385549486250812	2.2090358355608712	0.5398081394876283	219.1720640419854	0.5277227739860334	221.0181197620982	0.032415929701834	-0.452162298964641	0.484578228666475	112.32543612827948
15	6.0	ltm	427	diff_vonmises	-0.067521012323493	-3.8686690345869694	0.484481464501158	200.539812374448	0.4737910565154112	202.29400644185563	-0.0249075461403975	-0.4106775527036816	0.3857700065632841	116.7222873207732
16	6.0	perception	427	diff_vonmises	-0.0921855901623724	-5.28184524822666	0.3954072874565053	185.1071722038256	0.3776013378942554	186.76359903682047	0.231630198289416	-0.5830724615373981	0.8147026598268141	133.69282870161896
17	6.0	wm	427	diff_vonmises	-0.0693282564785464	-3.9722164972212166	0.4859196507856049	239.710696739082	0.4749759599625398	241.563683826307	0.0402119836104262	-0.4744103883466906	0.5146223719571168	118.99725047181504
18	7.0	ltm	427	diff_vonmises	0.1556070757695638	8.915628703968425	0.6387334829800597	170.29932298351395	0.6241921707528448	172.31992475482696	-0.075833514896118	-0.4229501589244684	0.3471166440283504	98.45144367800204
19	7.0	perception	427	diff_vonmises	0.0244611651325836	1.4015215240696093	0.8098618341231021	248.6879756736744	0.7903552200431374	250.48415665351203	0.384261608275338	-0.5521097163248996	0.9363713246002376	96.50035130757432
20	7.0	wm	427	diff_vonmises	0.1290822394381104	7.395867529900878	0.850498526418372	18.20857390857037	0.6981041161121249	20.264542282075887	-0.0546612341404051	-0.436303808279185	0.3816425741387799	89.35043547755953
0	1.0	ltm	237	diff_vonmises	0.1030005693472973	5.901497911044697	4.353228387354068	0.2648822873295236	0.0001388974469858	3.219777098047476	-0.2992808452581164	-0.5123369727410022	0.2130561274828858	65.52330323276533
1	1.0	perception	237	diff_vonmises	0.0344533057750565	1.974029011184448	10.225388512125576	0.7501461153684948	0.0609594209274296	3.772320561330369	0.3071740937200056	-0.6131058784407553	0.9202799721607609	41.805257993946384
2	1.0	wm	237	diff_vonmises	0.071323895599558	4.086558196286379	4.5229135057698535	0.3824582695560107	0.0115520657752452	3.413378279522062	-0.2352500180764563	-0.5406025084356045	0.3053524903591482	63.21730230208036
3	2.0	ltm	237	diff_vonmises	0.0381851913302255	2.187850303121463	3.132592684305496	0.7594016571499365	0.2413530186523148	2.392584388303173	0.0319837658056763	-0.3540813341510244	0.3860650999567007	68.24510183135243
4	2.0	perception	237	diff_vonmises	0.0065533709133106	0.3754804949164966	6.555217597643462	1.4092177674686523	0.2570984397526573	3.0918926128164848	0.7835467912879355	-0.5097556977810423	1.293302489068978	50.83238432323719
5	2.0	wm	237	diff_vonmises	0.0918078129804665	5.260200210107107	4.186375817525481	0.6303086265251302	0.1308138628548639	2.4079171489920346	0.0618328746613457	-0.3751592900689161	0.4369921647302618	62.61297404675082
6	3.0	ltm	237	diff_vonmises	0.0855555800035356	4.901973647996456	3.5640090596797225	0.545132216012327	0.102087704592219	1.6579689558693316	0.101867360421407	-0.2527191028013509	0.3545864632227579	68.80514232982077
7	3.0	perception	237	diff_vonmises	0.0130772538577566	0.749271453670628	4.885681196608413	1.6967366331958649	0.1074785750951891	2.8416886511501303	0.951051740560553	-0.4400413774296379	1.3910931179901909	60.30187038540521
8	3.0	wm	237	diff_vonmises	0.0206581975069819	1.1836275294977436	3.900848481139589	0.5712368258044047	0.0427682732715153	1.8877480203644603	0.1197750377488107	-0.2938094057227474	0.4135844434715581	67.57939622599176
9	4.0	ltm	237	diff_vonmises	0.0862857012299207	4.943806512801235	0.9708849248625012	2.0718290000918014	0.2579489151260773	4.529457767481806	-0.2211532222771269	-0.460931469619637	0.23977824734251	98.03160751122996
10	4.0	perception	237	diff_vonmises	-0.0409181269806031	-2.3444359815689437	1.7016669831566271	3.9316598528331657	0.3397065761557129	6.271917794103579	0.4762564039032622	-0.6769957066875862	1.1532521105908484	88.25739372392738
11	4.0	wm	237	diff_vonmises	0.0559696209145608	3.206823059351477	0.7220268237875014	200.02986311822008	0.7068090382105913	202.7176608013378	-0.1877957087175232	-0.5279913706843615	0.3401956619668382	88.71400586148744
12	5.0	ltm	237	diff_vonmises	-0.0428114872362204	-2.452917533313625	1.872453558310298	0.9469487148586324	5.451011767939777e-19	2.117284358803722	0.1323901167594324	-0.325880173101333	0.4582702898607655	100.07750068267916
13	5.0	perception	237	diff_vonmises	-0.0582820412837282	-3.3393149869648577	1.737348293219794	3.683684454087613	0.3438169919458327	4.76847454830022	0.7052323465606929	-0.4919542462991854	1.1971865928598784	90.26169664420178
14	5.0	wm	237	diff_vonmises	0.0798428084636281	4.5746559494372985	1.3463446183558676	1.7395225129299892	0.1267665661011929	3.0205919596073865	0.1624402347027729	-0.3740132073240776	0.5364534420268505	106.59052736780656
15	6.0	ltm	237	diff_vonmises	-0.0477326298590569	-2.734878235984098	0.4929156882412079	133.3513633837674	0.4792983857038314	134.3384651854768	0.0988963193229039	-0.2992144323807597	0.3981107517036637	121.41867552731672
16	6.0	perception	237	diff_vonmises	-0.1102571938871234	-6.317271870687794	0.7785808861607009	5.02243349979184	0.2364959096713135	5.988040270749992	0.3138865574944194	-0.4248511974634268	0.7387377549578462	124.11715412896804
17	6.0	wm	237	diff_vonmises	0.0356076335157495	2.0401671189010258	0.5438205308953428	173.3514340358619	0.5308583807053961	174.39043518215843	0.1598719406880988	-0.3358920980798334	0.4957640387679323	117.1470516894535
18	7.0	ltm	237	diff_vonmises	0.0042203540508316	0.2418084751635958	1.3193585864541597	2.4961305238394487	0.3874158955986113	4.585711327018432	-0.0350527466294672	-0.4460046343688635	0.4109518877393963	88.7402148024791
19	7.0	perception	237	diff_vonmises	0.0249216003174862	1.4279025169038522	0.7873047529299165	383.9726487797595	0.773784868742649	385.852294884594	0.4299856327941569	-0.593281473523966	1.023267106318123	98.0017715392764
20	7.0	wm	237	diff_vonmises	0.0653848991228969	3.7462787636306314	1.118049688776498	3.181628971097959	0.4187862546921086	5.255168699027691	-0.0596136448697723	-0.4357841308598089	0.3761704859900365	91.78585112730693
0	1.0	ltm	116	diff_vonmises	0.0274736466794397	1.5741240025655083	8.373572706767868	0.1431559950439228	0.0090237594871786	3.4407018051928238	-0.3899484136184356	-0.5486311300977318	0.1586827164792962	46.30712631364656
1	1.0	perception	116	diff_vonmises	0.0392333597801761	2.2479059315224017	11.6596433702085	0.8256992337185697	0.1195681195528994	4.158459537949375	0.3688778160453366	-0.6986006550986229	1.0674784711439596	38.82198444750264
2	1.0	wm	116	diff_vonmises	0.0848117114220574	4.8593531177653695	5.846980382539428	0.2396988992906086	7.191318046902044e-24	3.7709298319393176	-0.37434902974639	-0.6001602385416664	0.2258112087952763	56.36638998253662
3	2.0	ltm	116	diff_vonmises	0.0927564028238656	5.314550404622853	4.4814413023362025	0.336942355051347	3.119088077040418e-19	1.8716062448865052	-0.022367325848991	-0.2978400945135508	0.2754727686645597	64.58426526556025
4	2.0	perception	116	diff_vonmises	-0.003135019687481	-0.1796233967830872	7.682149368281554	1.433453909192575	0.4018092811113419	3.107862163228102	0.8471621629216697	-0.5477132792177484	1.394875442139418	46.37931985113369
5	2.0	wm	116	diff_vonmises	0.0758568900543435	4.3462796471017935	3.856550367991349	0.6372942451374629	0.1458582435032812	2.5947965335139385	0.0049671444102859	-0.4019141340034525	0.4068812784137385	64.20469936079851
6	3.0	ltm	116	diff_vonmises	0.1104834445539783	6.330235079010597	3.84086724250544	0.3978650688903036	0.3040162440727764	1.0901789982289314	0.0693492316891287	-0.1663497138182683	0.2356989455073971	62.48893350474114
7	3.0	perception	116	diff_vonmises	0.0153897571282474	0.8817681311799541	5.000581125638472	1.7753313638481458	0.3246378062027981	2.5548803542441654	0.9914955479812468	-0.3945135862679195	1.3860091342491665	57.8670368890904
8	3.0	wm	116	diff_vonmises	-0.0113951833307737	-0.6528959116311656	4.865996679277514	0.4032798422615312	0.0857247580161805	1.5044139784089203	0.084247173554999	-0.2367339968830207	0.3209811704380197	59.57652696425774
9	4.0	ltm	116	diff_vonmises	0.0657711087812885	3.7684069470636583	0.7226271467998019	173.0489288278753	0.7093890029783798	175.13849099228565	-0.1614266484566187	-0.4054391199826952	0.2440124715260765	87.62626958073065
10	4.0	perception	116	diff_vonmises	-0.023200465282974	-1.3292887434541991	2.396300345910831	2.697876589476886	0.3186229209061529	4.587690534808003	0.5716319580799034	-0.5805814874727345	1.152213445552638	78.1570239874799
11	4.0	wm	116	diff_vonmises	0.0381170523238804	2.183946225637677	0.7616901158115716	202.16295944695588	0.747461825328244	204.587040097518	-0.1625837910589922	-0.4804490227874076	0.3178652317284154	86.56933039026057
12	5.0	ltm	116	diff_vonmises	0.0052983385610643	0.3035724379804027	2.182410730852235	0.8516725570839305	0.0992610811753531	2.32649311275729	0.0551415984274425	-0.3340156990009139	0.3891572974283565	85.9710356663513
13	5.0	perception	116	diff_vonmises	-0.0186254966226586	-1.0671623478135095	2.2403081727998257	2.5687862276143933	0.1752479348712841	4.047176268776535	0.6570636432120062	-0.5364598980726157	1.193523541284622	84.98897180801828
14	5.0	wm	116	diff_vonmises	0.0909880165151598	5.213229332585295	1.4480966440246354	1.2582676838858176	1.2668796618822808e-14	3.073904662436377	0.0443038665839558	-0.4597579725524711	0.504061839136427	112.06039065359272
15	6.0	ltm	116	diff_vonmises	-0.1030209499942141	-5.902665636096773	0.5468543096935441	185.39502902774316	0.5343834780675581	186.824164730469	0.0728156147598326	-0.3758001755473081	0.4486157903071408	113.37594529900488
16	6.0	perception	116	diff_vonmises	-0.0463809003474739	-2.65742983992711	0.7041701193485164	6.775484669867884	0.2500746963814707	8.251682817855128	0.2730172352572124	-0.5341020847443301	0.8071193200015425	125.61658220105645
17	6.0	wm	116	diff_vonmises	0.0052525974635196	0.3009516661407978	0.4228361188519427	212.45825135967695	0.4108543747146264	214.1223647189276	0.0855900915737919	-0.4764342334427525	0.5620243250165444	128.15085353758667
18	7.0	ltm	116	diff_vonmises	0.1263395213350482	7.238721358201285	0.8239611407128644	247.6538885459795	0.8135650432074675	249.43764123017377	-0.0546603557000935	-0.3773661175668898	0.3227057618667963	86.36269022692008
19	7.0	perception	116	diff_vonmises	0.0247545835347638	1.4183331601460067	1.2062566925011364	3.2873597795638285	0.2364096884172137	4.911614684299519	0.2736312725473039	-0.4968792040884565	0.7705104766357604	105.24621544570462
20	7.0	wm	116	diff_vonmises	0.1662571858999454	9.525835065788812	0.7195428647975691	167.26366648013874	0.7053403518867545	169.21358806278437	-0.1038538370592689	-0.3943480246561286	0.2904941875968596	90.78542294105664
0	1.0	ltm	214	diff_vonmises	-0.1362490334091039	-7.806494577078606	2.46946017209208	0.4941093048921866	2.081227390203107e-17	1.916385538876556	-0.01589466239477	-0.3029314900950244	0.2870368277002544	87.51835507162883
1	1.0	perception	214	diff_vonmises	-0.0813364669075668	-4.660236274309064	16.968022763799123	0.6317346974136003	2.0761830563391478e-18	2.2916644124351278	0.665255083231221	-0.3647297191468325	1.0299848023780536	32.876865320956966
2	1.0	wm	214	diff_vonmises	-0.0177239424398245	-1.01550709813475	3.6986045573180375	0.4595207767086864	9.186869965306912e-19	2.0306567211553777	0.0152509570469397	-0.3229816042831295	0.3382325613300693	71.27048416516311
3	2.0	ltm	214	diff_vonmises	-0.0460836987369189	-2.640401441977817	2.815443017228145	0.8614643664011478	0.3217973948304748	1.7740712653510344	0.1643910142318199	-0.2426257662922829	0.4070167805241028	71.97241583987392
4	2.0	perception	214	diff_vonmises	-0.044791420982538	-2.5663593806931484	6.70800426774165	1.15599402220921	0.1811687281986702	2.0898810681201563	0.7747622411324211	-0.3377180813728254	1.1124803225052466	51.1247116581614
5	2.0	wm	214	diff_vonmises	-0.0320839068909761	-1.838272455143634	3.9142955162136257	0.6281205504058629	0.2006914410951765	1.61563411764249	0.1661003558527488	-0.2456635272846427	0.4117638831373915	64.28519749195698
6	3.0	ltm	214	diff_vonmises	-0.0410404196937887	-2.3514428378996803	1.1767622339767363	83.74241950859808	1.141758523468761	84.55354848749816	0.2458403857617064	-0.2676849882660228	0.5135253740277292	80.68272295590052
7	3.0	perception	214	diff_vonmises	-0.0506349289657089	-2.9011677256798465	3.8564547769088	2.336796699638068	0.3012715363571545	3.1758975653344224	1.0931553639021454	-0.4569669035401481	1.5501222674422936	65.453910890841
8	3.0	wm	214	diff_vonmises	-0.1195012143226595	-6.846915227376695	1.2349682370171806	100.86608914345456	1.2031001931880458	101.81362076973848	0.23227011580056	-0.296544600276281	0.528814716076841	77.85631836036359
9	4.0	ltm	214	diff_vonmises	-0.1845976028856711	-10.57666355358094	2.393077546476553	1.3221079136846543	0.4535565045669142	2.449847423499588	0.1760490641746552	-0.301238371663957	0.4772874358386123	73.83453895752237
10	4.0	perception	214	diff_vonmises	-0.1076922897242909	-6.170313687301956	2.1106359601350047	3.114475198432172	0.259617466910455	4.336080391767512	0.7799179399941977	-0.5261017982984061	1.3060197382926038	85.43294275017908
11	4.0	wm	214	diff_vonmises	-0.168847632450679	-9.674256720200072	1.1429673314772693	317.06502159910906	1.131686321784988	318.4594287442721	0.1555236474618908	-0.372574258690733	0.5280979061526239	78.28127215422288
12	5.0	ltm	214	diff_vonmises	0.0003881673093649	0.0222403485715614	0.7043726490249476	65.30823070765514	0.6710679261743339	65.79318907774821	0.2790010816444592	-0.241390148875177	0.5203912305196363	108.01591781234136
13	5.0	perception	214	diff_vonmises	-0.016885475215256	-0.9674664649069264	1.5627099864531253	3.304343008183177	0.3625387281789344	3.743819469802255	0.638536037699175	-0.3444930427949997	0.9830290804941748	94.99708425834896
14	5.0	wm	214	diff_vonmises	-0.0377363527570525	-2.162133747195979	0.7069938115936446	135.31755890018243	0.6915297853357758	135.8812688257365	0.2393318071681349	-0.2369922106302056	0.4763240177983405	106.07649618701596
15	6.0	ltm	214	diff_vonmises	-0.1785857545331786	-10.232210015910448	0.3180144272739129	115.72405126891071	0.3063508619396934	116.20658441108132	0.1403982223241939	-0.2323482356526565	0.3727464579768504	143.21973598493582
16	6.0	perception	214	diff_vonmises	0.0050384640456388	0.2886827250435172	0.6524261933759116	212.35758238167844	0.6392386136684174	212.92487667868696	0.3772271766107309	-0.3190224718658054	0.6962496484765364	111.9230759115204
17	6.0	wm	214	diff_vonmises	-0.0834336368537263	-4.780395261145686	0.455323991694982	142.4745634211802	0.4432465517426003	142.98798016666305	0.1975748649848583	-0.2526566965984536	0.4502315615833119	129.02563487302797
18	7.0	ltm	214	diff_vonmises	-0.0171593468473079	-0.98315815355186	0.9921034433304876	145.9634554473155	0.9718101193089864	146.8992532986396	0.2464127937247653	-0.2960413850843402	0.5424541788091055	87.48593908023216
19	7.0	perception	214	diff_vonmises	0.0439130475733552	2.516032291510456	1.7949864871030878	1.94839654653888	1.2168696888438143e-16	2.9522970239652677	0.4713793635843448	-0.4438916511240628	0.9152710147084078	102.04596454690966
20	7.0	wm	214	diff_vonmises	0.0611192789778363	3.50187673231268	0.7791996519560979	45.88443111999421	0.734303834698299	46.813480862219656	0.1228181449904841	-0.2568567124402019	0.3796748574306861	97.56146438626268
0	1.0	ltm	335	diff_vonmises	-0.3160271756840229	-18.10702337813391	0.9531492670765324	20.88547123384341	0.9143944259707842	20.911391507161618	0.1454340343384084	-0.0631027769016374	0.2085368112400458	96.56383255965328
1	1.0	perception	335	diff_vonmises	-0.0888748826263079	-5.092155679208009	16.94899934400818	0.6672750880886221	6.500315271364235e-17	0.938093398559998	0.9383088948187092	-0.1493022014626971	1.0876110962814065	32.89159078103782
2	1.0	wm	335	diff_vonmises	0.0223402593542144	1.2800025742241448	4.066354509900886	0.3694866781128813	1.8497440307127814e-30	0.4346902553592349	0.2174458619736093	-0.0690988913159111	0.2865447532895205	67.88709180100884
3	2.0	ltm	335	diff_vonmises	-0.0217854355896783	-1.2482135141426651	4.149975358079936	0.5130794604926815	1.2167722291994327	0.4028566068360595	0.2484749397423835	-0.0439184912580245	0.2923934310004081	59.34752035926667
4	2.0	perception	335	diff_vonmises	-0.0298045466792509	-1.70767473502173	7.391795385535634	1.17855316493716	0.6911142688901711	1.0046151939294463	0.9708786777939652	-0.1730808576807754	1.1439595354747405	47.75617553185933
5	2.0	wm	335	diff_vonmises	0.0020765712717179	0.1189787697275534	3.347849535677541	17.777837711230966	3.2862839913947584	17.64474504218097	0.2200517598703086	-0.0319172488512859	0.2519690087215946	54.549704096293766
6	3.0	ltm	335	diff_vonmises	0.0458875503814447	2.6291629690507152	2.3106836357037634	76.22688454396403	2.2936461928670946	76.13212420836837	0.2413827767073755	-0.054290540391662	0.2956733170990375	63.57782866513693
7	3.0	perception	335	diff_vonmises	-0.0405337416306373	-2.322412323309241	4.419629830396905	1.9472271353075008	0.7664813750844617	1.7514433062411492	1.0597109735634658	-0.2360224716304777	1.2957334451939435	59.5167204137297
8	3.0	wm	335	diff_vonmises	-0.0825609365351972	-4.730393216114245	2.338157208016502	76.55545211539163	2.317160671040853	76.53360002151524	0.2440004379889373	-0.0767795333069045	0.3207799712958419	61.57075017140215
9	4.0	ltm	335	diff_vonmises	-0.1945962739113243	-11.149545204090613	2.206219748659993	95.62617753185224	2.185313401606674	95.75172798622796	0.2290290532070216	-0.1153763741887203	0.344405427395742	61.17558658903559
10	4.0	perception	335	diff_vonmises	-0.1197453592149365	-6.8609036992938455	3.126689401824288	1.8455144729700024	0.2219656704659225	2.0485888906658247	0.8353552382751395	-0.2800707167876258	1.1154259550627652	73.727112182702
11	4.0	wm	335	diff_vonmises	-0.172095703980011	-9.860357510387397	1.687972460610225	211.4546441653262	1.6774505895576448	211.78192463783185	0.2222059110575145	-0.157509212874551	0.3797151239320655	68.41845266198004
12	5.0	ltm	335	diff_vonmises	0.116134144285135	6.653996324901586	1.5084356904644898	1.5225428533921703	0.6567822552423234	1.3077688411493134	0.3003493588820211	-0.067391333839696	0.3677406927217171	93.95117735507176
13	5.0	perception	335	diff_vonmises	-0.0205571759935292	-1.1778394231368796	2.542869197059736	1.5371663643717228	0.0894459523059761	1.3331364300093624	0.6834532284039637	-0.1880890245334576	0.8715422529374213	84.31772605723268
14	5.0	wm	335	diff_vonmises	0.0813549548479135	4.661295555262822	0.9399598648070744	27.86708605390548	0.9034795547895784	27.647697203313378	0.2643329786512627	-0.0632672162127407	0.3276001948640035	102.05892748622507
15	6.0	ltm	335	diff_vonmises	-0.2654275793236751	-15.207880061620456	0.4424053205412742	68.38484542644089	0.4272605375323308	68.26246457454009	0.219913538570232	-0.1113259791981438	0.3312395177683758	133.99727501173825
16	6.0	perception	335	diff_vonmises	-0.0195933868234308	-1.1226183713498237	0.8005121916965374	191.61563942620657	0.7872791096778254	191.6803610716962	0.4647450376583322	-0.2197446721502771	0.6844897098086093	104.60002199982767
17	6.0	wm	335	diff_vonmises	-0.1816879393158439	-10.409952111226875	1.2277754207286553	1.2290538305727032	1.6265445957612536e-08	1.0811543118855222	0.300186713489706	-0.1315412718612445	0.4317279853509506	119.4991426935221
18	7.0	ltm	335	diff_vonmises	0.1129910107010854	6.473908036089718	1.2168010717877336	105.27820574319324	1.1976636376647338	105.41068316526656	0.3215571899434906	-0.1408985660437807	0.4624557559872713	84.26528849659638
19	7.0	perception	335	diff_vonmises	-0.0895860957044039	-5.132905186917419	2.5156878552751185	1.3759466752430458	2.4052155783581525e-17	1.565029408680734	0.5648264750710865	-0.243767416596197	0.8085938916672836	86.71805110861288
20	7.0	wm	335	diff_vonmises	0.2900472764861075	16.618484801918044	3.193447554158636	0.5303265047870129	4.830035544214612e-31	0.5668588451650799	0.2696270928053919	-0.089612510556002	0.3592396033613939	76.83012428030895
0	1.0	ltm	93	diff_vonmises	-0.0858469781398204	-4.918669531363552	2.293071920745094	0.4616934762145636	2.7303486416963824e-19	2.928275428658117	-0.2074993706565011	-0.4634143320442028	0.2559149613877017	90.7983602727694
1	1.0	perception	93	diff_vonmises	-0.0339870173643506	-1.9473126532151328	14.648319601261262	0.7085866112521295	5.883125193091297e-19	3.285674840522317	0.5494557396735705	-0.5229313922615989	1.0723871319351694	35.39747913870937
2	1.0	wm	93	diff_vonmises	0.0213212980326019	1.2216203910086791	3.2734067163739797	0.4562622056093053	2.702202819746449e-19	3.0620969242949228	-0.1734020025173619	-0.4868974278150261	0.3134954252976641	75.87739038214428
3	2.0	ltm	93	diff_vonmises	-0.027270978475752	-1.5625119698527008	3.6923923100488616	0.4884301296448823	5.405634555603334e-15	2.0034311608433466	0.0405038356919351	-0.3186328969389919	0.359136732630927	71.33652096469808
4	2.0	perception	93	diff_vonmises	-0.0349947623406879	-2.005052187184771	7.244599894076072	1.2397017601125857	0.1634025798298714	2.7194559035933	0.8002901188970488	-0.4435653406872454	1.243855459584294	49.19113047259117
5	2.0	wm	93	diff_vonmises	-0.0023503409164019	-0.1346646149267398	3.8876640199489305	0.6487724790757847	0.1068234013019904	2.28843323808448	0.0869748205646308	-0.3531147681419861	0.4400895887066169	65.60230724846016
6	3.0	ltm	93	diff_vonmises	-0.0222830195797684	-1.2767229767281083	2.7954889251940838	0.7516095848609535	0.0870233307715758	1.7387925493971053	0.1713962667627862	-0.2573988471353364	0.4287951138981226	78.27124932745065
7	3.0	perception	93	diff_vonmises	-0.0235756329135012	-1.350784265293334	3.5915908769910767	2.372723842581675	0.2749174461118094	3.234010238883164	1.0543282069981834	-0.4586623316642596	1.512990538662443	67.88760255998199
8	3.0	wm	93	diff_vonmises	-0.1242069554770277	-7.116534335003013	2.8790258693750888	1.01447646328107	0.2422895320163282	2.1086603389879346	0.2275678688027816	-0.2954723934744112	0.5230402622771928	73.21512118048116
9	4.0	ltm	93	diff_vonmises	-0.1006798790484093	-5.76853215136146	2.805306435229973	0.7210963855016261	0.134705572278773	2.4836206439961277	0.0042205450356255	-0.3675804483595746	0.3718009933952002	74.52288939784262
10	4.0	perception	93	diff_vonmises	-0.0953791443613723	-5.464822425475641	1.7229061305760986	5.06335538035983	0.5082121750419073	6.689175305486274	0.7250890632124032	-0.603722009638902	1.3288110728513052	85.31466106973932
11	4.0	wm	93	diff_vonmises	-0.1162861778365588	-6.662707205742553	0.8979454127213103	319.0995712917506	0.887993780765559	321.0659352749027	-0.0250986286244341	-0.4310700858168772	0.4059714571924431	83.74588078824536
12	5.0	ltm	93	diff_vonmises	-0.024547104634942	-1.4064454948482	0.9101313404701128	3.1182342624887047	0.3010360549092909	4.311922337860669	0.1056627354015573	-0.3325746378263309	0.4382373732278883	110.99624800434006
13	5.0	perception	93	diff_vonmises	-0.0099231663190632	-0.5685555494886934	1.8081482666932336	3.062534935483841	0.2497881279979753	4.130168737206613	0.6552486850136136	-0.4749826283863504	1.130231313399964	91.49342749827989
14	5.0	wm	93	diff_vonmises	-0.0345524100254579	-1.9797072664642512	0.555724542154513	193.57378522975063	0.5438259455912631	194.88968057681168	0.0980117570945324	-0.3615459138917032	0.4595576709862357	113.3916907552874
15	6.0	ltm	93	diff_vonmises	-0.1546963931584502	-8.863450433875661	0.3318051303291671	171.56864420456515	0.3231941630914827	172.79067126933018	0.0045185092237929	-0.3288483252588641	0.333366834482657	137.81940743145896
16	6.0	perception	93	diff_vonmises	-0.032371007822107	-1.8547221267917064	0.428854424891201	280.6565144696484	0.4179490786017779	281.8377343901556	0.290801257903027	-0.4868789770617603	0.7776802349647873	130.80568948488212
17	6.0	wm	93	diff_vonmises	-0.0846137191883617	-4.84800899839824	0.4161657734643502	216.55053555464056	0.4066025073170808	217.87449586825204	0.0771055638111803	-0.3863720953186593	0.4634776591298397	129.00377553576195
18	7.0	ltm	93	diff_vonmises	0.1048436674921441	6.0070996559728105	0.7772945888107358	143.58205323644472	0.7597451081386627	145.0497075321818	0.0467966211239954	-0.3440192565407756	0.390815877664771	93.18586782983785
19	7.0	perception	93	diff_vonmises	0.085618772421889	4.90559430686533	0.8334884888776998	22.262910829807293	0.6513571328115909	23.64025016621025	0.3942396744334351	-0.4771337892184264	0.8713734636518615	101.53409256207344
20	7.0	wm	93	diff_vonmises	0.0540674461068473	3.0978364709733848	0.7538082310504134	98.63395866239615	0.7300378999343997	100.17514918997408	0.0001125661836134	-0.3427150914036794	0.3428276575872928	93.16587941357564
0	1.0	ltm	191	diff_vonmises	-0.1161371669232053	-6.654169509306012	3.02935141851846	0.3155631527832027	3.3282798632548185e-19	1.7589342087615156	-0.0721246902792608	-0.2794572591620576	0.2073325688827968	78.94152454949574
1	1.0	perception	191	diff_vonmises	-0.0369800394084357	-2.118800184330832	13.532885050388913	0.7399672483837855	0.0180932909698668	2.3762305257487104	0.6904923492182049	-0.3806317147325984	1.0711240639508033	36.74765558623832
2	1.0	wm	191	diff_vonmises	0.0190246831219946	1.0900340494640657	5.764100824986782	0.3263527642701455	6.783604292138373e-19	1.8765765497611269	0.0064795015693595	-0.298663428743105	0.3051429303124645	56.77964064598075
3	2.0	ltm	191	diff_vonmises	-0.0471159641275482	-2.699545892198302	3.867626960521363	0.5270721071179979	0.2012997103425645	1.399511348163936	0.1281607007724924	-0.2127480215073804	0.3409087222798728	64.48632742281185
4	2.0	perception	191	diff_vonmises	-0.0259631882965044	-1.4875811120931604	7.595912527965061	1.230966686515773	0.2757642399295868	2.070949861011604	0.903190377928948	-0.3472044192806096	1.2503947972095577	47.75298427955093
5	2.0	wm	191	diff_vonmises	0.0263540880066539	1.5099780156976117	4.651026412265667	0.449039455906512	0.1296028478917737	1.387428246702777	0.1242167550776464	-0.2170839996766177	0.3413007547542641	60.33530318736402
6	3.0	ltm	191	diff_vonmises	0.0446850065950925	2.5602622854130503	1.5744281850108215	3.5012172300966315	1.0921483452204193	3.886482877348035	0.1662651568752036	-0.1447035827056877	0.3109687395808914	76.24745893182364
7	3.0	perception	191	diff_vonmises	-0.0168971571197261	-0.96813578872974	4.4722994122486766	1.8177119204439591	0.3676238783744993	2.1189704940282903	1.0137232055632612	-0.3118467706013762	1.3255699761646371	61.07147931622615
8	3.0	wm	191	diff_vonmises	-0.0829445570673342	-4.752373053540254	2.3553666327661658	1.2184279703273473	0.7504145701114165	1.6997137227154913	0.1932494539293843	-0.1713023853546707	0.364551839284055	71.42850048630328
9	4.0	ltm	191	diff_vonmises	-0.1359973294582368	-7.792073003007152	1.2894646173532305	103.42831143719192	1.2655187647454096	104.37896398298966	0.0800373110092778	-0.2538759057970221	0.3339132168062999	72.9422072567387
10	4.0	perception	191	diff_vonmises	-0.1005366753607317	-5.760327184446821	2.494918848899976	2.476472984969888	0.3044262383465212	3.569296314100771	0.7050863414954516	-0.4500190787825497	1.1551054202780011	78.50706720692412
11	4.0	wm	191	diff_vonmises	-0.143469395542032	-8.220190853851463	1.2144814756136502	231.7062494374352	1.2027286828804022	232.84879113897173	0.0686228674644837	-0.2920909626377543	0.3607138301022381	74.40881281945698
12	5.0	ltm	191	diff_vonmises	0.0328393727041358	1.8815574578041037	1.9022839362470656	0.8453888472086418	5.916293612939364e-15	1.3640673514766493	0.2059915488726183	-0.2076762795477979	0.4136678284204163	99.3364385197488
13	5.0	perception	191	diff_vonmises	-0.0411449605201947	-2.357432586039554	2.5378293460019927	1.9471677819366344	0.0829965547861693	2.2684264672707384	0.7660877108557148	-0.3252853991972536	1.0913731100529684	83.94930367557208
14	5.0	wm	191	diff_vonmises	0.0381908152429452	2.1881725295846564	0.7162617496587736	56.59507382085952	0.684231858272749	57.1194576734712	0.1978639095764478	-0.2084219623167724	0.4062858718932203	105.57405761649524
15	6.0	ltm	191	diff_vonmises	-0.1262635235488767	-7.234367005801317	0.4552942973940643	89.3772136361373	0.4418531878465099	89.78608569275809	0.1261021222230667	-0.1814528173745184	0.3075549395975852	128.54289538771377
16	6.0	perception	191	diff_vonmises	-0.0777381566257429	-4.4540682817820265	0.8386828407585963	3.2920300073657827	0.1576772582801903	3.732165173896554	0.3327603222638923	-0.3128672085029843	0.6456275307668766	127.02705360017023
17	6.0	wm	191	diff_vonmises	-0.1261817461604722	-7.229681506586139	0.5336921932177295	83.13607108855732	0.5152523093838689	83.5262141520226	0.1901842800720494	-0.2039422164009074	0.3941264964729569	122.03466760356602
18	7.0	ltm	191	diff_vonmises	0.1439424191165624	8.247293108282248	0.929270881688127	94.65425505046696	0.9069838655035712	95.31841088665358	0.1861753295522596	-0.2159947109045745	0.4021700404568342	90.8309742587125
19	7.0	perception	191	diff_vonmises	-0.0411019627681167	-2.354968996316938	1.5447634451307617	2.9097523532164744	0.3920951583582004	3.4445875902687324	0.50191199930616	-0.3087992772273997	0.8107112765335598	93.82927792472204
20	7.0	wm	191	diff_vonmises	0.1429612080814992	8.191073857161465	1.8179302796155623	0.8929503536859672	0.1979597827174691	1.4995656663668415	0.1466645553136176	-0.186176288479216	0.3328408437928337	91.25708316224978
0	1.0	ltm	312	diff_vonmises	-0.0441275398277229	-2.5283217924239705	4.459090939226575	0.3791486718500134	2.5005908334350115e-14	2.634318420313202	-0.1101058518588461	-0.4192233796262768	0.3091175277674307	64.75386046080337
1	1.0	perception	312	diff_vonmises	-0.0429754437510634	-2.4623115496378007	14.081639826170994	0.6919111821693554	1.200874343524884e-18	3.071244926084137	0.5370476126497208	-0.4888038114315901	1.0258514240813108	36.12120005240965
2	1.0	wm	312	diff_vonmises	-0.0006508044426554	-0.0372883478525232	5.752006769644591	0.4002256395960148	0.0019898752692479	2.8159170764694914	-0.0752529126905158	-0.4476960817585115	0.3724431690679956	56.71206919027958
3	2.0	ltm	312	diff_vonmises	-0.1177495833192265	-6.7465541636157225	2.647449519601897	1.0697613540990252	0.3303293938600288	2.451934490983283	0.1234767944196011	-0.3336435570589951	0.4571203514785962	72.47697578401684
4	2.0	perception	312	diff_vonmises	-0.0484443132108369	-2.775654688390814	7.056899968849871	1.138512478660367	0.1223392609927228	2.5820216208203512	0.7208621225463556	-0.4163205531291913	1.137182675675547	50.08818643677256
5	2.0	wm	312	diff_vonmises	-0.0019671455634601	-0.1127091384741493	4.064802980388052	0.6689519040689341	0.1523450974375119	2.112024127036526	0.1296588570395186	-0.3259702047331562	0.4556290617726748	63.5294956093941
6	3.0	ltm	312	diff_vonmises	-0.0581413722455593	-3.3312552447696158	1.435039500073818	3.496855106861268	0.6936794954667753	4.439727369741392	0.2166355997715521	-0.2837122783086007	0.5003478780801529	84.20427688938463
7	3.0	perception	312	diff_vonmises	-0.0374779584191918	-2.1473288421864827	3.748570070115828	2.1580377237792736	0.2693052659776249	3.0713248000636764	0.9727469419075756	-0.4425070855772419	1.415254027484817	66.5258640091568
8	3.0	wm	312	diff_vonmises	-0.0833017232558147	-4.7728371687249656	1.6634457351079022	3.200428539466499	0.7720894692616076	4.204850646111408	0.2218145300127147	-0.3002387510228343	0.5220532810355492	78.42872338503344
9	4.0	ltm	312	diff_vonmises	-0.1521594987681904	-8.71809709224336	2.0161245585567764	1.4714854104008983	0.36744285552479	2.9490555629233426	0.1073370829861924	-0.3545746380027285	0.4619117209889209	79.54444877248713
10	4.0	perception	312	diff_vonmises	-0.1211383556143932	-6.940716513859634	1.8623121325008076	3.9461419529732336	0.4161451306372242	5.450772523488656	0.6895235449013524	-0.5607269771223289	1.2502505220236813	85.12413631217788
11	4.0	wm	312	diff_vonmises	-0.1789437622147983	-10.252722345100516	1.0146789893910595	303.8713749451785	1.004000640460238	305.4863972959281	0.0602317509854515	-0.3857236812967244	0.4459554322821759	80.95610377044147
12	5.0	ltm	312	diff_vonmises	-0.0156503536085703	-0.8966992096584164	1.2436596788742311	1.8892965791526957	0.1266432810522029	2.769058346978077	0.2332767004391414	-0.3259232599582551	0.5591999603973965	111.39398445091346
13	5.0	perception	312	diff_vonmises	-0.0488565688328243	-2.799275195611233	2.1659493335859445	2.411388843365343	0.1517850285440782	3.1666906617389365	0.7219032805064661	-0.4177690156979689	1.139672296204435	87.96418219925664
14	5.0	wm	312	diff_vonmises	-0.0554518107269744	-3.1771547210139004	0.7267203214847999	206.41391832617217	0.7150455957742105	207.2739473075021	0.2124904662749429	-0.2854032644533717	0.4978937307283146	102.40922328799417
15	6.0	ltm	312	diff_vonmises	-0.0844472273291071	-4.838469717539665	0.8131255335754551	1.4446693614470243	1.5872995090895643e-16	2.158486537648049	0.0987516913842004	-0.2565509512640662	0.3553026426482666	136.70123118335027
16	6.0	perception	312	diff_vonmises	-0.0767541926027852	-4.397691296073837	0.895953731044394	2.4022083009797197	1.0075100652403056e-15	3.1203682479213555	0.2767572785418374	-0.3677389906004613	0.6444962691422987	132.99586494824013
17	6.0	wm	312	diff_vonmises	-0.1721230089756196	-9.861921971395391	0.5502766106686819	157.0889408053215	0.5391122473837198	157.7438523954325	0.1634828873007023	-0.246677541492799	0.4101604287935014	118.01896233830844
18	7.0	ltm	312	diff_vonmises	0.0724446544331488	4.15077294730314	0.7613786659497589	51.498225630612005	0.7117479757810721	52.47995354473693	0.206194098174846	-0.3070095820399796	0.5132036802148257	100.66165287299368
19	7.0	perception	312	diff_vonmises	-0.0205887713609742	-1.1796497043436425	0.9023734470583628	318.8896830425287	0.8891298396646808	319.69510259760705	0.5462463535454276	-0.3902472744037979	0.9364936279492256	95.03923916483105
20	7.0	wm	312	diff_vonmises	0.1042826020824555	5.974952975966871	1.809585871450296	1.4143750121969372	0.3198545332021633	2.300600729952885	0.1951774858302205	-0.2595901509123529	0.4547676367425734	86.94570209634006
0	1.0	ltm	70	diff_vonmises	-0.0768785504126107	-4.404816473726328	3.3292219359948567	0.3028304170701239	9.998851356865977e-18	1.6767154525092884	-0.0565111826479901	-0.266587603398602	0.2100764207506118	75.22495241721577
1	1.0	perception	70	diff_vonmises	-0.0385525878121255	-2.2089005709422924	13.557471672940046	0.6726432243948904	0.0054404367300207	2.249526568432273	0.6185701203105021	-0.3585571349317322	0.9771272552422344	36.77439341968994
2	1.0	wm	70	diff_vonmises	0.0376616609786036	2.1578542235265314	5.235722104764024	0.3449575427452345	2.669686544606644e-16	1.8115475043011984	0.0182244117711912	-0.2883080540396931	0.3065324658108844	59.63682756482285
3	2.0	ltm	70	diff_vonmises	-0.0370231395569383	-2.121269640936414	3.415386282996188	0.6565957002278366	0.3408747542152967	1.4879496936540273	0.1391358564565429	-0.2168043646928459	0.3559402211493888	65.81314997345993
4	2.0	perception	70	diff_vonmises	-0.0180196134430835	-1.0324477987458869	7.263586944833821	1.203113120985756	0.2814136820453967	2.014131836887618	0.8532592471344568	-0.3357317634076254	1.1889910105420822	48.73237657201892
5	2.0	wm	70	diff_vonmises	0.0521462013111019	2.987757252765704	4.8179069546650535	0.4556747490384096	0.1788203460278733	1.3448852051477642	0.1334594045461379	-0.2118625576826764	0.3453219622288144	58.64447593422332
6	3.0	ltm	70	diff_vonmises	0.0435000730853092	2.492370596298848	1.3954879076026838	94.00332272887763	1.3741187685784135	94.46128241071328	0.1713761987837969	-0.1659393309493211	0.337315529733118	74.10564264919208
7	3.0	perception	70	diff_vonmises	-0.0189834406660252	-1.0876710308002624	4.618832602372772	1.73314616865714	0.3160386584176266	2.169432642618041	0.9784392971498376	-0.325103321930049	1.3035426190798869	60.42102419805411
8	3.0	wm	70	diff_vonmises	-0.0488635182551354	-2.799673368179716	1.9480617688067787	2.028738116444263	0.9409317470772396	2.6034562951474243	0.1695887640800232	-0.1905244317941762	0.3601131958741995	72.43440623760577
9	4.0	ltm	70	diff_vonmises	-0.1455931748148486	-8.341874442801219	1.3095729701219767	136.57854418682683	1.2911659035154102	137.53108772005712	0.0798588809232754	-0.2558018126199748	0.3356606935432502	72.25432437770974
10	4.0	perception	70	diff_vonmises	-0.1050631474957986	-6.019674933869725	2.437905143087001	2.4285802091770963	0.2841740298996022	3.515705789171636	0.6816174121785841	-0.4443191635496792	1.1259365757282631	79.67741719209545
11	4.0	wm	70	diff_vonmises	-0.1379537364837301	-7.904166868577664	1.2401969557981911	238.1920220613716	1.2282494523313412	239.3437286940408	0.0802845041691142	-0.2994881042117328	0.379772608380847	73.8766459305223
12	5.0	ltm	70	diff_vonmises	0.035926137727266	2.0584160659780624	1.8040577843592	0.9780888779937222	0.0650812227053537	1.517500239285298	0.2165006776230997	-0.2132141108886633	0.4297147885117631	98.48800201279482
13	5.0	perception	70	diff_vonmises	-0.051051955816145	-2.9250616041534654	2.388295277676737	2.028984922708239	0.1476744628834871	2.430586311719637	0.7180407496357785	-0.3269279976943089	1.0449687473300877	84.6405449411931
14	5.0	wm	70	diff_vonmises	0.0559318431432155	3.204658552493981	0.7401347983877731	96.29897374744652	0.7204778899790311	96.83781739896612	0.20575320043001	-0.2113701051012304	0.4171233055312404	103.37927578348464
15	6.0	ltm	70	diff_vonmises	-0.1282078037446464	-7.345766055209794	0.4823371307809601	114.5891663988783	0.470433508475563	115.0420004120092	0.1447232957634519	-0.1996511419834181	0.34437443774687	125.7314068147523
16	6.0	perception	70	diff_vonmises	-0.0851158238501403	-4.876777476391996	0.5987010651322796	53.00941939264618	0.5507504581612278	53.52688023665879	0.3471989050448822	-0.3120616367152964	0.6592605417601787	118.18077196101468
17	6.0	wm	70	diff_vonmises	-0.1211590129901565	-6.941900094306684	0.588190942158725	76.82497530839998	0.5663887777197167	77.24992858197497	0.2061218490424856	-0.2116525644919038	0.4177744135343895	117.0501084054714
18	7.0	ltm	70	diff_vonmises	0.0911612941022134	5.223157407007673	0.9338870907215115	120.73572588341932	0.9131988527583608	121.57363389040708	0.202610222301061	-0.260036657527591	0.462646879828652	90.00945745159777
19	7.0	perception	70	diff_vonmises	-0.0655203649715863	-3.754040385028692	2.163797280297757	1.9149123075315893	0.1170092908322317	2.647944173655433	0.56367694910097	-0.3613919739840801	0.9250689230850502	88.89726304695512
20	7.0	wm	70	diff_vonmises	0.18272560013097	10.469405696499706	2.596158719321465	0.6708362470719491	0.0307291569718952	1.4115707979420429	0.1725532907309545	-0.2155850059910222	0.3881382967219767	83.74882893500018
0	1.0	ltm	145	diff_vonmises	-0.0087185820616977	-0.499537955473749	5.045532636680007	0.3261936680310727	2.7350840005098672e-14	2.798914143210616	-0.1612913929738171	-0.445449238334243	0.2841578453604258	60.78366948911963
1	1.0	perception	145	diff_vonmises	-0.00904541370583	-0.5182640292938541	11.853943243563805	0.7796450938459352	0.0332067563424127	3.4138703162857915	0.4971539988305987	-0.549800414623651	1.04695441345425	39.13550738835809
2	1.0	wm	145	diff_vonmises	0.0192912525711643	1.1053073538486122	4.483976152412279	0.4307972165433248	5.8921233085009745e-19	3.038318938724899	-0.1311845484890564	-0.4835185738621459	0.3523340253730894	64.56375587667424
3	2.0	ltm	145	diff_vonmises	0.0162139027842948	0.9289881989755092	2.7268383443171245	0.9817479731519284	0.3971326022453028	2.1643328261840105	0.1158902778613767	-0.2924349262915787	0.4083252041529554	70.32732538470043
4	2.0	perception	145	diff_vonmises	-0.0157276052194904	-0.9011254009247291	6.545689161728457	1.3903047029256286	0.3174577684761947	2.4801293677107714	0.8609219793051612	-0.4105073526355952	1.2714293319407564	50.80963418751651
5	2.0	wm	145	diff_vonmises	0.0299199659885941	1.7142877743214129	3.8996602546452297	0.7037049784677436	0.1867505163220381	1.975726928854606	0.1578318770596407	-0.3016576941846742	0.4594895712443149	64.34606052803451
6	3.0	ltm	145	diff_vonmises	0.0469012312754997	2.6872426060531134	3.631681971345	0.5183643988790065	0.0034481912365639	1.2854988303686077	0.1726272856181066	-0.2036237753388996	0.3762510609570063	71.78196080770383
7	3.0	perception	145	diff_vonmises	-0.0015549194564284	-0.0890903223361276	4.625498941457392	1.764658057360128	0.2041508524665292	2.4298066873002977	0.9983693277388604	-0.3685525605368008	1.3669218882756613	61.17708515726255
8	3.0	wm	145	diff_vonmises	-0.0488606277268939	-2.799507753110911	3.494503495555972	0.7365914564643562	0.164373336187246	1.602996307337123	0.2270172390379945	-0.238033619618718	0.4650508586567126	68.932315976431
9	4.0	ltm	145	diff_vonmises	-0.1623276306041173	-9.300688131974583	2.684939125074933	0.7153919836801106	0.0835830696753088	2.353422452268381	0.0330565328244006	-0.351415177788678	0.3844717106130786	78.54077382586362
10	4.0	perception	145	diff_vonmises	-0.0523580636642964	-2.9998960714414578	2.2069291211905977	2.765788834981123	0.1928865947656569	4.391544012508194	0.6740724839683684	-0.5735551879804773	1.2476276719488455	84.92455653755684
11	4.0	wm	145	diff_vonmises	-0.0722700987781337	-4.140771644980629	0.9388546070815218	320.47056976685053	0.928046068460137	322.31765450410336	0.0525464242391535	-0.4316120680365571	0.4841584922757107	83.9633122369174
12	5.0	ltm	145	diff_vonmises	-0.0579413015694114	-3.3197920394220084	1.4676991084703703	1.2507757534997264	4.549596861667251e-16	1.9105842233528767	0.2305947647077002	-0.2756813374674735	0.5062761021751737	111.46607515806168
13	5.0	perception	145	diff_vonmises	-0.02886303069573	-1.6537298428218774	1.7121334320914474	3.3083498210335973	0.3282220546202202	3.737840567154622	0.7487635880656901	-0.3758476454403568	1.124611233506047	92.8068884222229
14	5.0	wm	145	diff_vonmises	0.0460638161463041	2.639262253449804	1.15082089070975	2.479397575849256	0.2757445127588676	3.1002128915624296	0.2795146363189494	-0.275656612099891	0.5551712484188405	107.88680291265524
15	6.0	ltm	145	diff_vonmises	-0.0507217058500946	-2.906139674914442	0.4234480740372627	100.64342326353392	0.4087949269934731	101.02505644437136	0.1837705099668483	-0.2172602136683306	0.4010307236351789	132.94962879803978
16	6.0	perception	145	diff_vonmises	-0.0360932283989953	-2.067989656264159	1.003278727408456	3.0824414601497208	0.1212640417281396	3.4112323419656314	0.4445518739481526	-0.3372762039761852	0.7818280779243378	122.4596041637888
17	6.0	wm	145	diff_vonmises	-0.018126143369565	-1.038551513925119	0.4873101549848137	132.7449613949946	0.4722324010256791	133.08063849861026	0.2917807051122452	-0.2612640386119693	0.5530447437242145	127.5743387141946
18	7.0	ltm	145	diff_vonmises	0.0608626312734837	3.487171902031553	0.8009141931607692	83.29416918353844	0.770747607775463	84.44459665762777	0.1369243220417608	-0.3094445384334952	0.446368860475256	95.29505321778724
19	7.0	perception	145	diff_vonmises	0.0502001328491718	2.8762557432535885	0.8310902104366792	246.24557478248445	0.814134392437087	247.22566778994076	0.4969243476980409	-0.419531636808319	0.91645598450636	98.28025041814128
20	7.0	wm	145	diff_vonmises	0.0962508420390099	5.514767023415627	0.6913631868441281	132.8858897315923	0.6749194372509162	134.00213121313365	0.1038280252620964	-0.296364041134062	0.4001920663961584	101.73087668042596
0	1.0	ltm	24	diff_vonmises	0.0139750771377928	0.8007129383652963	7.228094924759019	0.2650158973333391	0.047263323300323	3.211406525839974	-0.2565861200489205	-0.5169345248385665	0.2603484047896459	48.735428066278274
1	1.0	perception	24	diff_vonmises	0.0020192554793023	0.1156948167226898	12.779527057905591	0.7127443926297355	0.0831552725475127	3.757779185890299	0.3573384316528541	-0.6218821428064143	0.9792205744592684	37.33761923812986
2	1.0	wm	24	diff_vonmises	-0.0071977212803648	-0.412399051476404	4.861729168952909	0.4045067210409019	0.0765890161245915	3.682572773281168	-0.2863162417086305	-0.5875433476207219	0.3012271059120914	57.72416303725524
3	2.0	ltm	24	diff_vonmises	0.0139249201971507	0.797839157353216	3.1560599719317506	0.6733521218249451	0.1989185147449188	2.131458234808372	0.0440615490496851	-0.3166587386305661	0.3607202876802513	69.3039473239061
4	2.0	perception	24	diff_vonmises	-0.0175733203122546	-1.0068770859237155	7.39663583432539	1.2974582465688609	0.3467466741832618	2.95858758161887	0.7358185756748401	-0.5105934424420322	1.2464120181168723	47.42014709797999
5	2.0	wm	24	diff_vonmises	0.0303575825557184	1.7393613566626362	3.682301026909916	0.7264687372552798	0.1892793214895143	2.550502898389249	0.0475795963924856	-0.3906621083812925	0.4382417047737781	64.88174490474213
6	3.0	ltm	24	diff_vonmises	0.0726233970922758	4.161014147290061	2.720853093840756	1.0314785432703255	0.5128838158334245	2.0944766316106342	0.116855042131078	-0.2742209625684458	0.3910760046995238	68.43078766129489
7	3.0	perception	24	diff_vonmises	-0.0064210250358239	-0.3678976347005507	4.973432791052755	1.9158719314455737	0.3269238241094408	3.023208438862764	1.0067011478659946	-0.4692810381606159	1.475982186026611	57.75724853842476
8	3.0	wm	24	diff_vonmises	0.0104290059598596	0.5975380260167393	4.04917999916297	0.6003962733413346	0.161461658980761	2.0651622679092374	0.0808921845567315	-0.3197608065792172	0.4006529911359487	63.1292841937705
9	4.0	ltm	24	diff_vonmises	-0.0714889218855915	-4.096013505984819	0.7649861533513967	109.06359837968505	0.7387332889009134	111.12452431655475	-0.0550724864978562	-0.4371590367035463	0.38208655020569	90.63240318116031
10	4.0	perception	24	diff_vonmises	-0.0285092714800755	-1.633460932801012	2.519749092156828	2.2855788579009837	0.1768912823149405	4.279028065285315	0.546715552642392	-0.5900791534156329	1.136794706058025	79.84056388522475
11	4.0	wm	24	diff_vonmises	-0.0828205794087538	-4.745269656949688	0.8274751821167171	236.5486331973699	0.8131017111979776	238.90568086337163	-0.0724347644104312	-0.4986559397503214	0.4262211753398901	86.27305600053751
12	5.0	ltm	24	diff_vonmises	0.0002380372107654	0.0136385275439285	2.14459078896223	1.1008044416843048	0.0584087531694429	2.1588714122744777	0.2283261664711391	-0.3157307446045543	0.5440569110756934	90.48479407251524
13	5.0	perception	24	diff_vonmises	-0.0402689834957684	-2.3072427995895004	2.134741313327376	2.5592392649481166	0.1852356255882537	3.5799951209662084	0.6932546543951598	-0.4603950585407939	1.1536497129359535	87.1616944424652
14	5.0	wm	24	diff_vonmises	0.0180527252692117	1.034344966635006	1.806782416053472	1.2526096431687437	6.981327867116268e-19	2.461051149446968	0.2158901313465903	-0.3753108098168102	0.5912009411634006	101.73822876256888
15	6.0	ltm	24	diff_vonmises	-0.0890607494805949	-5.1028050655100285	1.202273699222903	1.380239507492491	1.0494672900407105e-18	2.0948639544390075	0.1904705876340822	-0.2860982066457902	0.4765687942798724	120.56845826639996
16	6.0	perception	24	diff_vonmises	-0.0282033740359422	-1.6159343002883404	1.2558762009532751	1.8914524385632947	1.1553342966542348e-18	2.7264535331844195	0.3026097835429833	-0.374172812896887	0.6767825964398704	118.6472897801795
17	6.0	wm	24	diff_vonmises	-0.0385584709316923	-2.209237648863837	0.4714199780675354	187.08134895988715	0.460227538623817	187.8631006966949	0.2020482971703856	-0.3177484967270061	0.5197967938973918	126.3431328079654
18	7.0	ltm	24	diff_vonmises	-0.0024025451609976	-0.1376556978147459	0.8639937343894643	283.2656152521906	0.8537731924556607	284.655318969182	0.1160539052859945	-0.3509807074719688	0.4670346127579634	89.88770131395583
19	7.0	perception	24	diff_vonmises	-0.0287866710967954	-1.6493547600776095	0.6759318631817178	228.2924012716015	0.6600308872069833	229.5232012024401	0.349857509962348	-0.443247758959302	0.79310526892165	107.06327190310827
20	7.0	wm	24	diff_vonmises	0.1190446917363688	6.820758409929842	0.8154890324732427	148.4691364766787	0.7986827107484447	149.87261453141326	0.0506780927769128	-0.330371304343906	0.3810493971208188	91.00566131062804
0	1.0	ltm	433	diff_vonmises	-0.004986170173309	-0.2856865068646205	6.992783536860822	0.2414514338199542	7.521760105097819e-21	3.725524066466207	-0.3431322834961775	-0.5929353600109407	0.2498030765147632	51.45834116038915
1	1.0	perception	433	diff_vonmises	0.0261541760829207	1.4985239061933606	11.099514922227817	0.91354414908507	0.0943840246822782	4.405123898083939	0.4306491912365993	-0.7289120502052149	1.1595612414418142	39.960486112200726
2	1.0	wm	433	diff_vonmises	0.032215408000026	1.845806913693482	6.14459288128897	0.3242874359274812	4.519853833332652e-18	3.994277166496267	-0.322127747339372	-0.6357075122018587	0.3135797648624867	54.95884980273067
3	2.0	ltm	433	diff_vonmises	-0.0215704814549587	-1.2358975494343454	3.6161106175692783	0.5465025194109536	0.070952454986634	2.258463412554532	0.0121145693625445	-0.3490249209447413	0.3611394903072858	68.53215108432775
4	2.0	perception	433	diff_vonmises	-0.0230310477525307	-1.319581833984273	7.522885296541317	1.3670089450086162	0.2537604131624218	3.1273295039313336	0.8377643933153646	-0.5261902383383507	1.3639546316537152	47.66758646759999
5	2.0	wm	433	diff_vonmises	0.028905636935683	1.6561710005521066	3.7781107686363193	0.7224336566088958	0.1240775189310963	2.640760001591527	0.0643261452864992	-0.406451085151109	0.4707772304376083	65.82579530117425
6	3.0	ltm	433	diff_vonmises	0.042521549777599	2.436305340611872	3.537342730718822	0.4224700050756912	4.795838540148229e-13	1.1858089004120231	0.1148104512073189	-0.1884704238663382	0.3032808750736572	72.92298429058349
7	3.0	perception	433	diff_vonmises	0.0063495751734047	0.3638038591371377	4.346739176392909	1.8568484307438176	0.2537754273616989	2.597462149586946	0.9691181266193448	-0.3879780766847108	1.3570962033040557	62.43465636032889
8	3.0	wm	433	diff_vonmises	-0.0685897910070118	-3.929905542386146	3.640617938008073	0.6078735273046559	0.1068519857266633	1.536400879861599	0.1724854822683326	-0.2332148738176432	0.4057003560859759	68.52150311745606
9	4.0	ltm	433	diff_vonmises	-0.0611724958327088	-3.50492583349583	1.8967826757276056	0.9035544802864768	0.1199251699159138	3.010418407322223	-0.0868543068446946	-0.4234750648967272	0.3366207580520326	87.93587602094163
10	4.0	perception	433	diff_vonmises	-0.0539957021346098	-3.093725844158676	2.024130312514661	3.555862571214076	0.3814964787516698	5.512465271936715	0.6084208610382034	-0.6221343851664789	1.2305552462046825	82.27432485955836
11	4.0	wm	433	diff_vonmises	-0.0484273580840071	-2.774683231182356	0.756660999479969	267.6463538539056	0.745730163600047	269.90428339723974	-0.1037015666718872	-0.4633859764751022	0.359684409803215	89.01353718676478
12	5.0	ltm	433	diff_vonmises	-0.0460888182642362	-2.6406947692861995	1.6366030557479032	1.0628655513861802	4.146584545805309e-17	2.304571560314528	0.1186151021284083	-0.348393540595603	0.4670086427240114	106.37485389561957
13	5.0	perception	433	diff_vonmises	-0.0306888178199806	-1.7583397393307614	2.2465626147613715	2.643710752485617	0.1430110944286367	3.729002315325124	0.781249149130082	-0.5021809642213927	1.2834301133514747	86.46702489371182
14	5.0	wm	433	diff_vonmises	0.0137643331842003	0.7886381992665433	0.9626351070609654	3.3697075211039085	0.2913450882909606	4.678114288252707	0.1520459235424153	-0.3803001684855235	0.5323460920279388	110.15444307987424
15	6.0	ltm	433	diff_vonmises	-0.0330002065964884	-1.890772561038564	0.9270674179441613	1.688411014254692	0.1022236708350801	2.6357562864583834	0.0901532103790204	-0.2910576385900182	0.3812108489690386	123.99675117306
16	6.0	perception	433	diff_vonmises	-0.0716431725742952	-4.104851419434526	0.6370179104987125	3.8750760335759047	1.907730132532188e-14	4.775160504806301	0.2962541810868271	-0.4645576104185598	0.7608117915053869	145.13351021073822
17	6.0	wm	433	diff_vonmises	-0.0686498908618612	-3.933349010418366	0.4554060057537739	191.16054091516955	0.4442440782231284	192.15823218574485	0.1595817430520227	-0.3482066518743743	0.507788394926397	126.78810188437288
18	7.0	ltm	433	diff_vonmises	0.1733107117997296	9.929972330532667	0.8722700494235212	5.593669657651782	0.5281356625650997	6.847871774427155	0.0499244193083814	-0.3017334526489397	0.3516578719573211	98.88513232973568
19	7.0	perception	433	diff_vonmises	0.0417692068303364	2.393199264987288	0.8283572806734107	302.97506193512294	0.8157532713929169	303.99840639462417	0.4152508562951453	-0.3943630415489103	0.8096138978440557	97.54175052656072
20	7.0	wm	433	diff_vonmises	0.0917691566490852	5.2579853654675	0.7715378560979721	136.37822366833183	0.7550068842352538	137.66256156859885	0.0515152228687583	-0.305424390094414	0.3569396129631723	93.91295759395314
0	1.0	ltm	364	diff_vonmises	0.0207272013349685	1.1875811576116229	6.925724637119632	0.3209404615483031	0.0443953124325825	3.9077218506537066	-0.3194516844399256	-0.6277158409758855	0.3082641565359598	49.79605001465077
1	1.0	perception	364	diff_vonmises	0.0327865585308609	1.878531428576977	11.183475677422395	0.7842799893440081	0.0961566190648369	4.360050632332304	0.2719035346083045	-0.7231941139847682	0.9950976485930728	39.6959591444558
2	1.0	wm	364	diff_vonmises	0.0705138371234188	4.040145264444803	3.4432948483275183	0.5606173683606165	0.0664885707381498	4.351230282493925	-0.3424715298546761	-0.6790901910119335	0.3366186611572573	68.02817416480704
3	2.0	ltm	364	diff_vonmises	0.0346853047095016	1.987321570979684	3.1922718175100937	0.6303307298054608	0.1691569343999623	2.073781679099226	0.0395412986109249	-0.3101373882932973	0.3496786869042222	69.7082768466527
4	2.0	perception	364	diff_vonmises	-0.0092018718138218	-0.5272284185523839	6.890109534728621	1.326260642569924	0.3499138490982968	2.799266506220856	0.7481501087403591	-0.4755463543026075	1.2236964630429668	49.09870347746346
5	2.0	wm	364	diff_vonmises	0.0558520502423475	3.200086756039141	3.749468427914676	0.8168900961785842	0.2250858006618608	2.517446248315188	0.1106701432534431	-0.3841950817260322	0.4948652249794754	64.15144500091898
6	3.0	ltm	364	diff_vonmises	0.0266539706068575	1.5271600230386873	3.595988850216571	0.5499351632066137	0.1688502155385827	1.5133403904161165	0.1155951669056497	-0.2282120187069582	0.3438071856126079	67.12339340194262
7	3.0	perception	364	diff_vonmises	0.0038872642308857	0.2227238342819234	4.595753710612423	1.7292353510857426	0.2414410941648196	2.664143083254789	0.9012663091263786	-0.4052005765380507	1.3064668856644293	60.75443697351298
8	3.0	wm	364	diff_vonmises	-0.0073902489801833	-0.4234300761153647	3.824265594348925	0.6304745698457049	0.126087008928395	1.858067582272344	0.138787853479455	-0.2842382027295764	0.4230260562090314	66.12080010326665
9	4.0	ltm	364	diff_vonmises	-0.0578093814011267	-3.3122335705466406	1.171334394233982	2.545458165049673	0.3505017052359075	4.559742634421663	-0.0478514929501223	-0.4272343057197714	0.379382812769649	93.7224012011165
10	4.0	perception	364	diff_vonmises	-0.0447610019643286	-2.5646164993328218	2.1258271370024704	3.091611894944424	0.3012926051505637	4.793651910146018	0.6463908308405051	-0.5774289874726817	1.2238198183131868	83.11242394232602
11	4.0	wm	364	diff_vonmises	-0.0350945092556212	-2.010767264429901	0.8072787687456295	245.50839819516884	0.7930488937135425	247.7643424635604	-0.0148511112310245	-0.4954836990667957	0.4806325878357711	89.10587648795996
12	5.0	ltm	364	diff_vonmises	-0.0438640379280576	-2.5132242456794707	1.1787455652403964	2.3626547220445078	0.2362888577354001	3.821806212236672	0.1267048626100853	-0.3905852125344782	0.5172900751445635	104.4907895138262
13	5.0	perception	364	diff_vonmises	-0.0176863706810209	-1.013354394926422	1.541186575444636	4.405711140948571	0.407918105083184	5.775704970609737	0.6134754876312585	-0.5271759682740033	1.1406514559052616	91.71189604751471
14	5.0	wm	364	diff_vonmises	0.0460621273954615	2.639165495153874	0.603042853946667	138.5661999964635	0.5812831085926408	140.08485989002648	0.1723024294943371	-0.4378477450430722	0.6101501745374094	110.37214716241526
15	6.0	ltm	364	diff_vonmises	-0.0593888937544232	-3.4027329620793045	0.4872430722783228	227.3858706676112	0.4760478279583564	228.6683663735985	0.1636598483638707	-0.4116278963985778	0.5752877447624485	122.61063461445367
16	6.0	perception	364	diff_vonmises	-0.0268824889031005	-1.5402531569549311	0.7318798501516436	10.662469784090122	0.3867447472360475	11.939014197620656	0.4032571452190616	-0.5267792861206843	0.930036431339746	118.02993128039336
17	6.0	wm	364	diff_vonmises	-0.0464662197013834	-2.6623182788169064	0.4847480658318991	228.2740936143178	0.4713260772560261	229.6033435060824	0.2497350362184107	-0.4772044067386076	0.7269394429570184	124.14079505911394
18	7.0	ltm	364	diff_vonmises	0.0254085965077989	1.4558053432477218	0.6572614795754211	249.26305543163744	0.6460145102618443	251.26002077525604	-0.0148654264145591	-0.4430281127717173	0.4281626863571581	99.30189082659749
19	7.0	perception	364	diff_vonmises	0.0276025160468499	1.5815076734266296	1.3673831821030218	3.9740049733719287	0.3271577541056644	5.762992126201193	0.3890494728670846	-0.5515507541431908	0.9406002270102752	96.73707392298836
20	7.0	wm	364	diff_vonmises	0.19606035783615	11.233431033836077	0.7586607091432601	171.76182727272746	0.7406424070862214	173.74553802638704	0.0109394288657185	-0.4451240895911361	0.4560635184568546	92.98921344283764
0	1.0	ltm	1	diff_vonmises	-0.025994212454891	-1.489358665431658	5.890124712576027	0.3547816442708043	4.6564406579728784e-05	2.8457444011185977	-0.1174759971277238	-0.4528908079084519	0.335414810780728	56.16066302103954
1	1.0	perception	1	diff_vonmises	-0.0278582828586021	-1.596162032279547	13.005785281640453	0.7574409788168277	0.0291774292366253	3.406122658087698	0.5205111982720716	-0.5483830309602082	1.0688942292322798	37.39146568749436
2	1.0	wm	1	diff_vonmises	-0.0115688649723348	-0.6628471366715211	5.275613830334452	0.4257096950896442	2.4902828886064064e-17	3.108703429981653	-0.1149649762312112	-0.4947555795804936	0.3797906033492824	59.40922600411224
3	2.0	ltm	1	diff_vonmises	-0.0340606472677003	-1.951531335923028	2.454808266768672	1.1932682773880212	0.4437324751171715	2.3784097281619	0.1338092310737958	-0.3011004380516463	0.4349096691254421	72.63324373387059
4	2.0	perception	1	diff_vonmises	-0.0333596656872803	-1.9113680498485557	6.753882544407064	1.2815336934818888	0.2750827710202414	2.4322510784436138	0.8019638270581413	-0.4021549000600914	1.2041187271182328	50.25476992452207
5	2.0	wm	1	diff_vonmises	0.000343014421217	0.0196532786478603	3.715308381467093	0.7815283052668356	0.2192803440900088	2.066077441533667	0.1724625521365278	-0.3117564332375745	0.4842189853741023	65.23584436781275
6	3.0	ltm	1	diff_vonmises	-0.0111123447719131	-0.6366904559248877	2.720914773474839	0.8269137776486541	0.1748380936673349	1.645719492143285	0.2024138659406955	-0.2317837764097774	0.434197642350473	77.01259538970626
7	3.0	perception	1	diff_vonmises	-0.0182079344519619	-1.04323779774827	4.308514745782512	1.9134358394824011	0.2676531673127623	2.634929071696195	0.9933973736080776	-0.3919422677300245	1.385339641338102	62.5811623069803
8	3.0	wm	1	diff_vonmises	-0.0670945078219116	-3.844232126703027	2.812566212120063	1.0625235176450107	0.3367061101294292	1.9784166274039632	0.2419481760221942	-0.2660538008054261	0.5080019768276204	72.402974681089
9	4.0	ltm	1	diff_vonmises	-0.1794814159580504	-10.283527635428271	2.3916722470761056	1.0232403722359589	0.1549975320679147	2.504045851655809	0.1249325139382504	-0.3519856641420511	0.4769181780803015	80.77502885800806
10	4.0	perception	1	diff_vonmises	-0.07144781953181	-4.093658514585087	2.2740602135726222	2.739113811496867	0.1969452235041776	4.208070455959111	0.7186578441938057	-0.5507383836128893	1.269396227806695	83.93373258756739
11	4.0	wm	1	diff_vonmises	-0.126708345241386	-7.259853411417966	0.9768876449739426	349.6488572582275	0.9667089787802852	351.3238614822841	0.1129920275850508	-0.4145329162844504	0.5275249438695013	83.71260507452965
12	5.0	ltm	1	diff_vonmises	-0.0480998904053917	-2.75592071527075	1.3817091656241016	1.551908469427007	0.0325042836691161	2.1919216611170023	0.2794187768307867	-0.2972582471056414	0.5766770239364282	112.48668888581194
13	5.0	perception	1	diff_vonmises	-0.027363835919621	-1.5678323094827675	1.8118987492125416	2.9603773004409377	0.2690117449181565	3.4224741123725635	0.738221236709276	-0.3770642818297988	1.1152855185390749	92.20788079856568
14	5.0	wm	1	diff_vonmises	-0.0015417522783088	-0.0883358986017749	0.7179638208689288	148.59077328756575	0.70144460703631	149.18158609765217	0.2997567122298221	-0.2699582702364225	0.5697149824662446	105.90230317601798
15	6.0	ltm	1	diff_vonmises	-0.0572013682217637	-3.277396981480812	0.7512583207862559	2.0889194256487325	0.0675820974365052	2.442010053146832	0.1994833795736063	-0.2259982931277741	0.4254816727013805	135.70404212567166
16	6.0	perception	1	diff_vonmises	-0.0203226693686427	-1.1644031832630262	1.133630047054619	2.283900989028275	1.6582260249011392e-19	2.636231468592423	0.4182048422223977	-0.332778719168427	0.7509835613908248	123.21405344109128
17	6.0	wm	1	diff_vonmises	-0.0763393877549398	-4.373924728970729	0.4887272720079949	140.5090989690993	0.4748210549119813	140.79975853672488	0.2937666290428566	-0.2511031111014734	0.5448697401443301	127.58252910019712
18	7.0	ltm	1	diff_vonmises	0.0476948524016047	2.732713747111352	0.770574339302832	127.30471704746029	0.7509867732957608	128.23925953085157	0.2010800770187799	-0.291568049017421	0.492648126036201	99.07422287218672
19	7.0	perception	1	diff_vonmises	0.0274901521182646	1.5750696945491824	0.848489488535565	220.08777735142485	0.8307801728554415	220.8579310407816	0.5054936536893422	-0.3754188576637851	0.8809125113531273	98.0967534667607
20	7.0	wm	1	diff_vonmises	0.1158079577843736	6.635307215073817	0.7764682644592698	118.6695145604788	0.7574755103438371	119.54339404539782	0.1721037310967759	-0.2651294837204521	0.437233214817228	98.3245781469662
0	1.0	ltm	410	diff_vonmises	0.0012608817003656	0.0722431998962284	3.4682506608935766	0.2863300785215944	1.9981256169142893e-15	2.575892952565918	-0.2064665216996385	-0.4097683621395484	0.2033018404399098	73.66041956127196
1	1.0	perception	410	diff_vonmises	-0.0056033294748765	-0.3210471301316844	12.429503511773463	0.7219514113265725	0.0342016401163256	3.158940897966824	0.4845143142875056	-0.5093739054456294	0.993888219733135	38.21519501079524
2	1.0	wm	410	diff_vonmises	0.0499687090579207	2.8629961367359877	4.16753981822547	0.3713400190371118	1.950336788035186e-23	2.774501546206666	-0.1496208815964214	-0.4415055794575802	0.2918846978611588	67.03453560168231
3	2.0	ltm	410	diff_vonmises	0.0415177685023837	2.378792909987773	3.8407301825995153	0.5187029152952959	0.1312369329414572	1.8021577971963767	0.0643632051670938	-0.2773262498365576	0.3416894550036515	65.33051236420593
4	2.0	perception	410	diff_vonmises	-0.0070229663242855	-0.4023863300440688	6.992856826436726	1.352597098772542	0.299041823760564	2.592892660216205	0.8549970213806354	-0.4338652254025312	1.2888622467831663	49.28916487651245
5	2.0	wm	410	diff_vonmises	0.0606526300473571	3.475139718081926	4.222135270485252	0.5718485250778601	0.1365190337301105	1.9977210691004383	0.0899637224871289	-0.3106895071809896	0.4006532296681186	62.52518442218488
6	3.0	ltm	410	diff_vonmises	0.0716529632345654	4.105412382946653	3.321820481832264	0.570692090759596	0.217008892616124	1.3531982152340405	0.131498673324814	-0.1985686149561931	0.3300672882810072	68.92768329065902
7	3.0	perception	410	diff_vonmises	5.229575543162303e-05	0.0029963260726803	4.658004693385096	1.8108076697158724	0.2184960483562921	2.543079071392952	1.0142055684912197	-0.3862566670631012	1.400462235554321	60.80145059338557
8	3.0	wm	410	diff_vonmises	-0.039193018244495	-2.2455945317887998	3.680435986471757	0.6253179527576797	0.1706298179856235	1.5910502808079756	0.1611238067144252	-0.2398103218824437	0.4009341285968689	66.6986185850636
9	4.0	ltm	410	diff_vonmises	-0.09064084587003	-5.193337919848518	1.9376571945695829	1.042565186013586	0.3295683369371625	2.75216036488577	-0.0651732273463882	-0.3504594832633065	0.2852862559169183	77.84883587378329
10	4.0	perception	410	diff_vonmises	-0.0617101801688	-3.5357328766641545	2.146140502960752	2.962032277470808	0.2892566237209384	4.647135249473612	0.6269154513541165	-0.5666705954737271	1.1935860468278436	83.05311799189414
11	4.0	wm	410	diff_vonmises	-0.0501459657208501	-2.873152195412412	0.940941936397081	296.70137111770606	0.9303616568075174	298.6555197480135	-0.0452338865302692	-0.4250132911991073	0.3797794046688381	81.07708111710178
12	5.0	ltm	410	diff_vonmises	-0.0142258438055539	-0.8150808100705661	1.887713709313388	0.8750730843185052	1.6919813611285432e-14	1.8128922680026365	0.147373602129676	-0.2785364638102183	0.4259100659398944	99.69743820334432
13	5.0	perception	410	diff_vonmises	-0.0320886283883275	-1.8385429770148496	1.9197597791842425	2.8504234624742413	0.2598467136965882	3.646949562717182	0.6943587275969202	-0.4218778336510009	1.116236561247921	89.4664463978576
14	5.0	wm	410	diff_vonmises	0.0709992435226358	4.067957002468579	1.3101070925509457	1.564086938504527	0.1120635606083733	2.5950535755231594	0.1639949400483676	-0.3226156086280827	0.4866105486764503	109.14860793191534
15	6.0	ltm	410	diff_vonmises	-0.1035618910422949	-5.933659275117187	0.4668235415047096	165.76597226889018	0.4568775895422224	166.58809632251138	0.1099461256870597	-0.2708538509351648	0.3807999766222245	124.93387015047593
16	6.0	perception	410	diff_vonmises	-0.0622883613821038	-3.568860219980216	0.5359393334017423	207.41200553788343	0.5214788098843309	208.23375707493128	0.3568537484968601	-0.4023890273192876	0.7592427758161477	121.35993967549555
17	6.0	wm	410	diff_vonmises	-0.0053540403534299	-0.3067639155942655	0.4807033018151945	158.49951526487192	0.4675444200416997	159.3851863050347	0.1749996254645225	-0.3242361511644329	0.4992357766289554	124.71650247710149
18	7.0	ltm	410	diff_vonmises	0.0708705332630042	4.06058244781166	0.8612510351497882	170.89529643113738	0.8454448522855497	172.37869195574012	0.0520912208327146	-0.3483562195582692	0.4004474403909839	88.32573665548856
19	7.0	perception	410	diff_vonmises	0.0299845523071487	1.7179882977888807	1.3750954595501146	3.514813770947574	0.294897977502937	4.884562448587663	0.4229463755955276	-0.4795996527557484	0.902546028351276	98.85592382753316
20	7.0	wm	410	diff_vonmises	0.1008804155954511	5.7800220491450816	0.709863297160521	71.70867632476224	0.6791035298708046	73.21475086829852	-0.0022659564697029	-0.3355585900873699	0.3332926336176669	96.39044304761264
0	1.0	ltm	220	diff_vonmises	-0.0030090309908587	-0.1724047762002727	5.866862221216672	0.2467592898519343	1.073864844651505e-25	3.901241497386266	-0.3880234966776682	-0.6209000010049491	0.2328765043272809	56.26912996497566
1	1.0	perception	220	diff_vonmises	0.0180506523939908	1.0342261996333926	12.68151927099029	0.8176750499800871	0.0740949144771134	4.449592590830038	0.3881733918732193	-0.7328270193193228	1.1210004111925422	37.5181039857103
2	1.0	wm	220	diff_vonmises	0.0361902866806286	2.073550686168541	3.926945483335816	0.3654982025361921	1.488129656532074e-21	4.2266298340182695	-0.3944907994541414	-0.6725810227677701	0.2780902233136287	69.11204668485041
3	2.0	ltm	220	diff_vonmises	0.0353011282049569	2.0226056581942644	3.5219765195661354	0.4576696110742769	3.946611443917612e-16	2.2386451309376576	-0.0282239083413376	-0.356005143557068	0.3277812352157304	73.08300910947509
4	2.0	perception	220	diff_vonmises	-0.0216165763969757	-1.2385385950688217	7.572140860803	1.3509902858534892	0.2665809318442972	3.152027852000414	0.8134226796167586	-0.5332682599466275	1.346690939563386	47.40708826283529
5	2.0	wm	220	diff_vonmises	0.0242977159731438	1.3921565770687467	3.60017653320262	0.7800000342554879	0.1364232481337453	2.870644120599564	0.044698299532765	-0.4393976259959957	0.4840959255287608	66.80728296604337
6	3.0	ltm	220	diff_vonmises	0.0301186741327961	1.725672912339066	3.869593422507102	0.4459182567940387	1.5771447206415153e-18	1.4128913002953931	0.1118031736564299	-0.2247220259987049	0.3365251996551348	69.6372346094357
7	3.0	perception	220	diff_vonmises	0.0012967012794651	0.0742955106025671	4.060388811093205	2.1036346346607004	0.270070389412949	3.004645156866088	1.0154563253947764	-0.441656419112671	1.4571127445074474	64.15824337293498
8	3.0	wm	220	diff_vonmises	-0.0845720257410677	-4.845620139834938	3.864527906627016	0.645500979296931	0.0631665385069991	1.875218138284192	0.1694296940328227	-0.2896950599045495	0.4591247539373723	67.46460950661069
9	4.0	ltm	220	diff_vonmises	-0.0242865199396765	-1.3915150916037853	2.0676060725358845	0.7841566265481588	0.0744254815699516	3.030697097229893	-0.1061859716869594	-0.4456208012060202	0.3394348295190608	87.53334319961544
10	4.0	perception	220	diff_vonmises	-0.0510622202444369	-2.9256497125737067	1.8617283197319945	4.430961691456464	0.4639773323590158	6.354843366695844	0.6634119053832583	-0.640483756626815	1.3038956620100732	83.22466120706895
11	4.0	wm	220	diff_vonmises	-0.0269870359736741	-1.5462432628592544	0.7103014887610202	238.82834129286005	0.6974490301993985	241.31747483910377	-0.1219593647031729	-0.5071965223679626	0.3852371576647897	91.81272926023264
12	5.0	ltm	220	diff_vonmises	-0.0391933000700696	-2.245610679204785	1.3674970738184005	1.4322032026198803	0.1200534188336516	3.051367162083462	0.0410920505458711	-0.3910787440048383	0.4321707945507095	104.30223581223692
13	5.0	perception	220	diff_vonmises	0.0004051457511838	0.0232131416304906	1.875544283534453	3.19354167046986	0.231896204217367	4.737112015514911	0.6465456921405143	-0.5684595462631956	1.2150052384037098	89.93015913802336
14	5.0	wm	220	diff_vonmises	0.001689083724359	0.0967773686500093	0.4994502887799099	133.07230067225024	0.4794326166397153	134.91955172275954	0.0483392090732337	-0.4752033461550269	0.5235425552282607	118.14554511727864
15	6.0	ltm	220	diff_vonmises	-0.0977663166368055	-5.601597321828604	0.423266290526894	193.94567222418496	0.4127011313648838	195.55065546854604	0.0073203406976745	-0.4097802900389276	0.4171006307366021	125.9851596358322
16	6.0	perception	220	diff_vonmises	-0.0193390131844388	-1.1080438354162003	0.3855656103684	192.5492311804582	0.3677601213329934	194.09723080221187	0.2815224217082175	-0.5932924247060605	0.874814846414278	135.41944247242162
17	6.0	wm	220	diff_vonmises	-0.0462943658341564	-2.6524717775318005	0.3900680177689383	315.3746691025698	0.3818181626179303	317.18806030150523	0.0680202705817407	-0.5127271513666898	0.5807474219484305	131.5488297513382
18	7.0	ltm	220	diff_vonmises	0.15717453899927	9.005437731572536	0.6936413037781767	181.0963476273164	0.6804536575180898	182.9052541971436	-0.0530766490254634	-0.3825914292013266	0.3295147801758631	94.84393138727924
19	7.0	perception	220	diff_vonmises	0.1052292445133458	6.029191591964889	0.7124938680950662	203.55010029764705	0.6924940602373016	205.188426617638	0.3121610718299479	-0.5054205525479958	0.8175816243779437	102.77878247903308
20	7.0	wm	220	diff_vonmises	0.0941587081917686	5.394896583792236	0.7194104712787532	181.0009431055337	0.7052533920276182	182.98357442403136	-0.0775214661836329	-0.4113648486727506	0.3338433824891176	92.19045409987515
0	1.0	ltm	318	diff_vonmises	-0.0052755552429103	-0.3022670500068777	7.176074867532098	0.3238309415868985	0.0354774135210937	3.8024010988818326	-0.287254107966763	-0.6093418616366435	0.3220877536698804	49.32112850968886
1	1.0	perception	318	diff_vonmises	0.0162455325918456	0.9308004534549836	11.340860085482786	0.8699453821423443	0.0932685197610058	4.366581739671795	0.3940725391247301	-0.7230031698163216	1.117075708941052	39.51751610466314
2	1.0	wm	318	diff_vonmises	0.0108548816189959	0.6219389038826021	5.126171959086503	0.4431769008170723	0.0499650113717857	4.166355111858758	-0.3072483287393991	-0.6628902950425563	0.3556419663031571	57.43711095875128
3	2.0	ltm	318	diff_vonmises	-0.0345293098497064	-1.9783837238876836	2.996992101708734	0.7681636399531171	0.1988856853135572	2.346859397017906	0.0515968386294276	-0.3447387691622015	0.3963356077916292	70.94450332246024
4	2.0	perception	318	diff_vonmises	-0.0282375359855575	-1.6178916358212343	7.313190171356253	1.3116665741226514	0.2742254144441894	2.957535651761374	0.7812262419574714	-0.4983997876313529	1.2796260295888242	48.18011748808851
5	2.0	wm	318	diff_vonmises	0.0183442612311818	1.051048746832178	3.667669751838308	0.8038658080942	0.177335570395638	2.5895807985204518	0.1010456015135611	-0.3945789233133169	0.4956245248268781	65.69619812028822
6	3.0	ltm	318	diff_vonmises	0.0169031757551411	0.9684806311374452	3.135737643374013	0.5875122427022178	0.1074333203063742	1.4526283031911125	0.1379161662516085	-0.2165876713598553	0.3545038376114638	73.40309818364625
7	3.0	perception	318	diff_vonmises	-0.0028241403401625	-0.1618113222439546	4.404157644636458	1.843549443294272	0.276073069501568	2.6680432537217307	0.9442897006566258	-0.3999975220212931	1.3442872226779188	61.74355343417665
8	3.0	wm	318	diff_vonmises	-0.0508893918465935	-2.915747374797274	3.328754309605256	0.736476985313113	0.1805704480661813	1.7698742180286704	0.1768623833220609	-0.2613737853264688	0.4382361686485297	69.65927829489581
9	4.0	ltm	318	diff_vonmises	-0.1078303576331947	-6.178224395768341	1.754688424102559	1.246804303693703	0.1627498990752386	3.2239486673201387	-0.0057295494364756	-0.4271652468820167	0.421435697445541	89.97031627413708
10	4.0	perception	318	diff_vonmises	-0.0546738427064539	-3.1325804368419274	2.175721748395593	3.0405242837728155	0.2970637278104435	4.868411062773761	0.62990112738512	-0.5958991128183165	1.2258002402034367	82.2094958001195
11	4.0	wm	318	diff_vonmises	-0.0902430603963715	-5.170546491056277	0.8079393102747452	321.2783575754021	0.7977964184178327	323.4094105029976	-0.0238898377819225	-0.4645827329934562	0.4406928952115336	88.64828748023206
12	5.0	ltm	318	diff_vonmises	-0.0449661738129107	-2.5763719803314724	1.622603263575623	1.2615254126514035	4.592189191135355e-16	2.396792464522154	0.1916524519029399	-0.3591305767868421	0.550783028689782	106.7780865506918
13	5.0	perception	318	diff_vonmises	-0.0328124664544534	-1.8800158432547769	2.121305420246216	2.726445237728697	0.1762398322270652	3.7051190082628063	0.7594401887437052	-0.4778055001394513	1.2372456888831564	87.8434944695918
14	5.0	wm	318	diff_vonmises	-0.0028586585712012	-0.1637890711987275	0.6617264627617048	109.65391213400432	0.6363411982351884	110.78386749500724	0.221160075538183	-0.3616786009822981	0.5828386765204812	107.19735096478225
15	6.0	ltm	318	diff_vonmises	-0.0326106892506082	-1.868454861072496	1.069633473767142	1.433089327975338	2.8033840670545853e-18	2.1911049032432564	0.1597909131831205	-0.2888515837841284	0.448642496967249	125.7300541779169
16	6.0	perception	318	diff_vonmises	-0.0501005058717863	-2.870547537923758	0.8169784123877447	3.072929636732103	3.5151768049379965e-18	3.819664996271159	0.3351205821926438	-0.4238781941299548	0.7589987763225987	136.57123197408214
17	6.0	wm	318	diff_vonmises	-0.0893820536691116	-5.121214439451912	0.4792418186191722	187.76605091730167	0.4674528506465853	188.51313883410023	0.2321229405428511	-0.3260714026683473	0.5581943432111984	126.00753467461163
18	7.0	ltm	318	diff_vonmises	0.0993636040841825	5.693115151232527	0.6892067830646343	127.1679564958023	0.6710170610424783	128.36199064909587	0.107271392767771	-0.3156085253233041	0.4228799180910751	101.85731156954448
19	7.0	perception	318	diff_vonmises	0.0171826407515604	0.9844927959539126	0.8363673829555915	297.9152417425802	0.8234764596795908	298.8596939928205	0.4421351979079873	-0.3874988754776005	0.8296340733855878	97.56795496327209
20	7.0	wm	318	diff_vonmises	0.1217437362067422	6.97540226680036	0.8014876213010076	163.3612120929437	0.7866531044267989	164.52105834757808	0.1135749772205585	-0.3015119158359525	0.415086893056511	94.14350579636827
0	1.0	ltm	485	diff_vonmises	-0.1252989646879084	-7.179101853975889	3.3060330619297766	0.3335144924603446	2.8451941942042004e-21	1.8466074191186876	-0.0631278846556716	-0.2935865233277216	0.23045863867205	75.49054298875498
1	1.0	perception	485	diff_vonmises	-0.0494071474073857	-2.8308210242239324	15.042151541179823	0.7077847715745549	3.0496344051608064e-12	2.4394162760895624	0.6974290677180215	-0.3882451585972001	1.0856742263152217	34.929481852807385
2	1.0	wm	485	diff_vonmises	-0.0062255438910173	-0.3566973901287453	4.769731942208112	0.359831314941238	8.684012695083373e-18	2.020474137047008	-0.0173345133728771	-0.321546550974611	0.3042120376017339	62.554762517363685
3	2.0	ltm	485	diff_vonmises	-0.0102975301476676	-0.5900050168700809	3.903188839237503	0.5011518558502802	0.147082378018878	1.347648848322665	0.1330183034218671	-0.2056671927194909	0.338685496141358	65.31528666306187
4	2.0	perception	485	diff_vonmises	-0.0298009925690024	-1.707471099504571	7.403178082434723	1.2534286355816402	0.3363001742257751	2.0528118408731637	0.8911906073948858	-0.3476917502918514	1.2388823576867372	48.04507692711476
5	2.0	wm	485	diff_vonmises	-0.0053788807068234	-0.3081871630053291	4.104245058999318	0.5430845823632032	0.1825105082057567	1.4876721348445807	0.1416001286808491	-0.2286013117199567	0.3702014404008058	63.1072430249672
6	3.0	ltm	485	diff_vonmises	0.0363565620824494	2.0830775649297117	2.248005388364615	1.1839123338202842	0.6942042374520159	1.6534643248484724	0.1865198245361258	-0.1649926754900411	0.3515125000261671	73.52333750046782
7	3.0	perception	485	diff_vonmises	-0.0222353205462629	-1.2739900234213932	4.3985737350230565	1.9892711950332411	0.4034459674651122	2.3618879641152435	1.0698072665929177	-0.3454306633630712	1.4152379299559887	61.17861837666084
8	3.0	wm	485	diff_vonmises	-0.0931484224672926	-5.337011475677442	2.65336375931732	1.0893682607747424	0.6020457286330336	1.6990184435575686	0.2129075908047884	-0.2018104132136505	0.414718004018439	70.15024543033408
9	4.0	ltm	485	diff_vonmises	-0.1589471554520105	-9.107001173010016	1.307459908590987	12.854489594264797	1.109473725527378	13.840285746010537	0.1121795527416988	-0.2672778516424612	0.3794574043841601	75.90804388436396
10	4.0	perception	485	diff_vonmises	-0.0845018408272486	-4.841598840487615	2.6023487394120277	2.3846581013422505	0.2280223192096491	3.4615081909647403	0.7557222829565967	-0.4592445471042619	1.2149668300608587	78.76491768670425
11	4.0	wm	485	diff_vonmises	-0.1395480268070358	-7.995512975421628	1.1754709180922067	291.5391553769444	1.1649601780800682	292.7658960458476	0.111341710719202	-0.3219507183101413	0.4332924290293434	76.57911053817256
12	5.0	ltm	485	diff_vonmises	0.018241095535865	1.045137787899994	1.602437410157106	1.1767052829377722	0.1261386798665201	1.6622069761385907	0.2316275995510121	-0.2107513698607498	0.4423789694117619	101.05820160117004
13	5.0	perception	485	diff_vonmises	-0.0177386148669068	-1.0163477662817797	2.1975072358504275	2.143164156093954	0.1429307635320575	2.48278800962619	0.7165342808586075	-0.3282569347767547	1.0447912156353625	88.20462546266702
14	5.0	wm	485	diff_vonmises	0.0208835403869679	1.196538725464268	1.1280600006170955	2.1324717940986253	0.2949061857329982	2.651518759283482	0.225386715975743	-0.2257898410006283	0.4511765569763713	107.6593693733207
15	6.0	ltm	485	diff_vonmises	-0.1495517655738613	-8.568684986112132	0.4152138553330605	125.72181055742702	0.4045904662306253	126.0989008623731	0.1591607830377661	-0.2009635442593182	0.3601243272970844	133.22644908295916
16	6.0	perception	485	diff_vonmises	-0.0183159560869947	-1.049426981531751	0.5844374322436627	78.396639264852	0.5506929087620389	78.82990202153404	0.3879497739427933	-0.3176716939573616	0.7056214679001549	119.48080019215422
17	6.0	wm	485	diff_vonmises	-0.0866021397444156	-4.96193710415718	0.4502603670301437	107.22471665116711	0.4342801726399142	107.60925953763704	0.2268884671082105	-0.2408556849623551	0.4677441520705656	130.5865956553557
18	7.0	ltm	485	diff_vonmises	0.1001253984386465	5.736762752600211	0.9670939241601392	145.7761846961243	0.9513564810847128	146.50069635242926	0.1944886495874627	-0.2310573616724838	0.4255460112599465	88.63053125473414
19	7.0	perception	485	diff_vonmises	0.0054917248424923	0.3146526557219561	1.8418073621669844	1.7456132962021649	0.0527453151151038	2.410433669893636	0.4525000439276609	-0.3421393469218042	0.7946393908494652	98.48889941817772
20	7.0	wm	485	diff_vonmises	0.1245279098283641	7.13492366475095	0.772946998659418	62.93133771308951	0.7452557996702097	63.64074066192335	0.124727719790453	-0.2093076971975334	0.3340354169879864	98.42469918782288
0	1.0	ltm	53	diff_vonmises	-0.0227400937496283	-1.3029113975855282	3.410844103663605	0.3229521329086384	8.604358744524108e-20	2.645404409152095	-0.1936381917737666	-0.4207813357974444	0.2271431440236777	74.29677395546335
1	1.0	perception	53	diff_vonmises	-0.0272096131175306	-1.5589959938183096	14.73312620348107	0.6348154528150505	0.0041162482746816	3.105527354004439	0.4668576252326764	-0.4949328407070604	0.9617904659397368	35.27270338749051
2	1.0	wm	53	diff_vonmises	0.0264772181459102	1.5170328530078558	3.414049867803069	0.4170129685548041	1.3862174481861363e-17	2.899246006811179	-0.167677577890434	-0.4611111481626568	0.2934335702722228	74.26548160656981
3	2.0	ltm	53	diff_vonmises	0.0482519579655115	2.7646335446664683	4.12007466374429	0.4601912989453764	0.0460706774684336	1.771127231839547	0.0645401743714758	-0.2766457646992691	0.3411859390707449	65.49485995603473
4	2.0	perception	53	diff_vonmises	-0.0145568680682935	-0.8340471032419746	6.979631306992245	1.2846277826988024	0.2861200906083901	2.575734369817693	0.7931021170369974	-0.4303017202193205	1.2234038372563178	49.33609198345155
5	2.0	wm	53	diff_vonmises	0.0364597760985065	2.0889912924363814	3.972403774777907	0.6399938194995549	0.1649246468561985	2.141233069719746	0.091031173560536	-0.3303893484749023	0.4214205220354384	63.66529671534286
6	3.0	ltm	53	diff_vonmises	0.031736819003952	1.81838578409704	3.073705366362122	0.7764058358783484	0.2884477418094224	1.789464957506118	0.1433318076690346	-0.2552459697462767	0.3985777774153113	69.59459007478685
7	3.0	perception	53	diff_vonmises	-0.0145282178093269	-0.8324055643212311	4.332535442411268	2.047859191460445	0.2469359896734168	3.001384496517196	1.04202662258279	-0.4495106695044861	1.4915372920872765	62.480749887960286
8	3.0	wm	53	diff_vonmises	-0.0505084400555287	-2.893920444971311	3.4652822547490008	0.7495488256441146	0.1956590567441217	2.010520344891109	0.147022308719409	-0.3003442619963275	0.4473665707157366	67.64307453435566
9	4.0	ltm	53	diff_vonmises	-0.1012110262717673	-5.798964645559964	2.0415732674239435	1.073404797158542	0.2885739079261361	2.8245434791887263	-0.0269533893658768	-0.368464524806128	0.3415111354402511	78.77711180043784
10	4.0	perception	53	diff_vonmises	-0.0658563097158496	-3.773288601024584	2.0631695749916217	3.242323941689848	0.3066207085228747	4.881898849863193	0.6729409254484409	-0.5766987342728912	1.249639659721332	84.17996763491584
11	4.0	wm	53	diff_vonmises	-0.0753833661173166	-4.319148724011737	0.9296613304369944	296.3379177406056	0.9181160285685488	298.37552509644706	-0.0138318820602876	-0.4524817264871927	0.4386498444269051	82.62425696581755
12	5.0	ltm	53	diff_vonmises	-0.0049037516891494	-0.2809642755684129	1.2914026609564735	1.89400055170279	0.261075751344362	2.975590103702099	0.1453113024280516	-0.3045688997094418	0.4498802021374935	100.54085489580376
13	5.0	perception	53	diff_vonmises	-0.0127229858623625	-0.7289733927179853	1.5518568857796724	3.841339382258423	0.3812805465493989	4.853455491625131	0.6075410144428199	-0.4510035359426501	1.05854455038547	93.02677909849452
14	5.0	wm	53	diff_vonmises	0.0327404155518524	1.8758876306256291	0.9999798623592386	2.677282339958874	0.2387886059794423	3.916255675848052	0.1346060850261318	-0.360153271192515	0.4947593562186468	111.740576675855
15	6.0	ltm	53	diff_vonmises	-0.1531292893049956	-8.773661997014024	0.4275891730149522	213.53716591872532	0.4188734415451973	214.61083122662404	0.0943594159000582	-0.3316391458298113	0.4259985617298696	128.3030177994915
16	6.0	perception	53	diff_vonmises	-0.0172933502500347	-0.9908359829684988	0.6051376574312056	277.7546371462807	0.592714863218934	278.8751468897994	0.3569953642387702	-0.4460911759958392	0.8030865402346095	113.65154221377892
17	6.0	wm	53	diff_vonmises	-0.0119936255040862	-0.6871841224446085	0.44455314250457	199.96085454792112	0.4329911272645365	201.1644701232596	0.1455357132896395	-0.3933413382409227	0.5388770515305623	127.3459926372324
18	7.0	ltm	53	diff_vonmises	-0.0055024577970482	-0.3152676087197156	0.8921043100894436	194.51637573826295	0.8763700101658362	196.241220959671	0.0344289011782663	-0.3964315642647769	0.4308604654430432	85.9880587697057
19	7.0	perception	53	diff_vonmises	0.0640203577049429	3.668096299411069	1.7497752379303475	1.9722665367106096	8.081988968718993e-16	3.680894495647349	0.3523055057459725	-0.5574888375215697	0.9097943432675424	103.22929300873815
20	7.0	wm	53	diff_vonmises	0.1114349474852719	6.38475218116805	0.71199491477073	119.74507316141442	0.6920499505756749	121.54392831616018	-0.0539116092094786	-0.3796772687299015	0.3257656595204228	93.71453906204746
0	1.0	ltm	30	diff_vonmises	-0.0636401635493921	-3.64631277890247	5.755650648001822	0.444491580824416	0.0597711267393742	1.9974561117640903	0.0780596834451271	-0.3173724349277929	0.3954321183729201	55.298978272384176
1	1.0	perception	30	diff_vonmises	-0.0674939680767975	-3.86711951339121	14.961063498027352	0.7467063392766841	0.016917840105	2.546435783329309	0.7300953842387311	-0.408074408211018	1.1381697924497491	34.94751979499995
2	1.0	wm	30	diff_vonmises	-0.0550718750541572	-3.1553860104750107	7.692379222843871	0.4085991858692379	0.0015629396492554	2.161198588118387	0.09974887779701	-0.3438209173672265	0.4435697951642365	48.97683912063553
3	2.0	ltm	30	diff_vonmises	-0.1071958683246149	-6.141870836240544	1.4254047585640843	68.4341550344253	1.3825424668774906	69.10637190806254	0.24592208558688	-0.2425807332194827	0.4885028188063627	73.48812245503751
4	2.0	perception	30	diff_vonmises	-0.059772054404123	-3.4246864501825947	7.065475125568186	1.1293266156389612	0.2836638181731538	1.8491597466300016	0.7914964370043243	-0.30671108772828	1.0982075247326044	49.39111233633568
5	2.0	wm	30	diff_vonmises	-0.0397529655870785	-2.277677151268403	3.683359284956511	0.780493407091892	0.3604923081981558	1.5097115028777617	0.2398670301823355	-0.2205544114681771	0.4604214416505127	64.43558274804948
6	3.0	ltm	30	diff_vonmises	-0.0620041430220259	-3.5525757074876227	1.2591020616084887	116.24362192991316	1.2383989841336562	116.63683270189792	0.2893088222020878	-0.1873237186236309	0.4766325408257188	80.37882586298599
7	3.0	perception	30	diff_vonmises	-0.044947824662945	-2.575320651480784	4.17450395082072	1.9496967816153643	0.4698651479665535	2.3291777238133946	0.972519212483026	-0.332566767804889	1.305085980287915	62.00717393295085
8	3.0	wm	30	diff_vonmises	-0.0862229722167289	-4.940212405092322	1.4489184406789946	137.2207438729446	1.428830488776638	137.69870394902142	0.2872131176800465	-0.2092237555143068	0.4964368731943533	74.03911150021653
9	4.0	ltm	30	diff_vonmises	-0.2209469823795125	-12.659329586497432	1.2711214185544328	51.57879230602198	1.2122336489049732	52.198119549783584	0.3212279734549099	-0.2498479898773418	0.5710759633322517	79.57635692450222
10	4.0	perception	30	diff_vonmises	-0.1083266330982936	-6.206658885394399	2.73187224462097	2.152188137585727	0.1290717246609117	2.940745556084944	0.8054419052108055	-0.4148329746554099	1.2202748798662155	79.53353098257915
11	4.0	wm	30	diff_vonmises	-0.2008095387881366	-11.505539058528829	1.2589574203651428	256.73700435705547	1.2465833683925494	257.56686056384234	0.2602483810643576	-0.2791571907129544	0.5394055717773121	77.56315597561368
12	5.0	ltm	30	diff_vonmises	-0.0209321984529242	-1.1993266272828296	0.8879081328907071	5.079468125536942	0.4426786173685702	5.088900038389443	0.426187173042994	-0.2200243989946121	0.6462115720376063	114.299213717885
13	5.0	perception	30	diff_vonmises	-0.0390173712104525	-2.2355306980541747	2.2843876670441947	1.9899721096519083	0.0910986700443316	1.958220422479349	0.7711808633911927	-0.2724031174836026	1.043583980874795	88.52606514030563
14	5.0	wm	30	diff_vonmises	-0.0421625337284095	-2.4157352362158497	0.9005187756740581	147.66422623494682	0.8867839722536283	147.65732227639506	0.3885751797813697	-0.1575890410081299	0.5461642207894997	99.3878939043552
15	6.0	ltm	30	diff_vonmises	-0.0700644776914983	-4.014398865511362	0.7534618634656638	1.7304653768814642	1.515886283060923e-12	1.6122099967070498	0.253476736816112	-0.1435649249891866	0.3970416618052986	139.49817241680196
16	6.0	perception	30	diff_vonmises	-0.0136635623790536	-0.782864457433502	1.179542154360246	1.7740754889975583	1.9585835486395016e-19	1.7627196743844782	0.3853522390357581	-0.2176126657932934	0.6029649048290516	121.46211383273744
17	6.0	wm	30	diff_vonmises	-0.1841572420766831	-10.551432737762966	0.5921243147255963	88.58681678892752	0.5760394303839652	88.36062666166623	0.3282813797720507	-0.1302660283001762	0.4585474080722269	122.4575543562814
18	7.0	ltm	30	diff_vonmises	0.0648327425499318	3.714642522369326	0.8313889820191654	102.02794773085974	0.8106928904114088	102.17864446349996	0.3570865480940739	-0.1855610510457044	0.5426475991397783	101.96935902498429
19	7.0	perception	30	diff_vonmises	-0.0549506231730608	-3.1484387894301658	1.0001146974369588	148.4695350731317	0.979834140842088	148.50963381909847	0.5565382271928669	-0.2219559764345984	0.7784942036274654	94.24280145364716
20	7.0	wm	30	diff_vonmises	0.1661771107264123	9.521247096301588	1.866463724947205	1.0583581024792277	0.2086963879536596	1.1262383437576526	0.3051069822607878	-0.1319157624744392	0.437022744735227	93.4326952604795
0	1.0	ltm	128	diff_vonmises	-0.021288261256838	-1.2197275231886875	6.576363399209432	0.5310995864200913	0.055989283373681	4.004333462836327	-0.1413257685206221	-0.6422691574211209	0.5009433889004987	51.35833106240602
1	1.0	perception	128	diff_vonmises	-0.0487903410434921	-2.79548062279602	15.59224078106032	0.7051514576561784	0.0276955100800917	4.200496854024931	0.4143723224280794	-0.6776952210010578	1.0920675434291374	34.12602699256422
2	1.0	wm	128	diff_vonmises	-0.0566296390828754	-3.244639314797862	4.141382094640799	0.7409340588299423	0.1292237050312565	4.6106262673367775	-0.2510200009237058	-0.728866857890968	0.4778468569672621	61.08242549141437
3	2.0	ltm	128	diff_vonmises	-0.117419576709634	-6.727646177674647	2.0359276979690737	1.8315933891003515	0.4392433986926211	3.497794742989616	0.1315681437434267	-0.4066199463464761	0.5381880900899029	77.50771480182601
4	2.0	perception	128	diff_vonmises	-0.0737495156281063	-4.2255359866246	7.017694290758143	1.1068056062049612	0.1609122393213859	2.8534709170336137	0.6172597310347843	-0.4654215871885378	1.082681318223322	49.76944799520925
5	2.0	wm	128	diff_vonmises	-0.0553142540285008	-3.1692733027476083	3.1053979420510283	1.182721594385165	0.2727019635287158	3.039644991492319	0.1661856328773495	-0.4400917648816281	0.6062773977589777	68.98665972010775
6	3.0	ltm	128	diff_vonmises	-0.1135597942950277	-6.506496935478892	1.652037302115124	2.8374485616752687	0.4579255754597668	4.331230009611111	0.2684985508132356	-0.4185395018969806	0.6870380527102162	85.34436752238304
7	3.0	perception	128	diff_vonmises	-0.0546082995074147	-3.128825088161196	3.601343190189965	2.4875511101586145	0.3146063133821037	3.863061545406376	0.9836133364019606	-0.5507354724816129	1.5343488088835735	66.76818308988243
8	3.0	wm	128	diff_vonmises	-0.0873982509640226	-5.007550917063678	1.957111157889163	2.524608520320692	0.508672446107515	4.153733139115233	0.2538165454864753	-0.4402959832471002	0.6941125287335755	78.51113926833287
9	4.0	ltm	128	diff_vonmises	-0.1751303056950679	-10.034227381163316	2.1092575295945024	1.531804286762586	0.045359424028201	3.4389715394454066	0.2435551575797855	-0.5107767283376832	0.7543318859174687	91.56033258067
10	4.0	perception	128	diff_vonmises	-0.0917200300920706	-5.255170621088555	1.9726737802914285	3.565155352493087	0.2724433690276641	5.319709327572897	0.7324817625596867	-0.6308904149031146	1.3633721774628014	86.77129754880471
11	4.0	wm	128	diff_vonmises	-0.1969259901699954	-11.283028113175478	0.8543037001112849	273.51939206106465	0.839223503985584	275.5832633272709	0.1449776789086314	-0.5113487677432893	0.6563264466519207	90.1050406098144
12	5.0	ltm	128	diff_vonmises	-0.0500943072112661	-2.870192380837312	0.6057445843977614	134.52046408349943	0.581328743664746	135.5088028425804	0.3622706670590077	-0.4212056371035277	0.7834763041625354	114.65996069115144
13	5.0	perception	128	diff_vonmises	-0.0248145757883854	-1.4217704630820058	1.724197879074552	3.261489101232124	0.2506541224430075	4.185024697138654	0.6949874956812864	-0.4682229316367301	1.1632104273180164	93.68096198058883
14	5.0	wm	128	diff_vonmises	-0.1073664378599419	-6.151643750728286	0.7569524629686116	290.958686048974	0.7460179829607567	291.9070146987221	0.3291831166910839	-0.352780385258324	0.6819635019494079	101.53007785349496
15	6.0	ltm	128	diff_vonmises	-0.0574695681322778	-3.2927637044190545	0.6733489008897904	2.407546045197232	2.8017311026325413e-15	2.998023945214616	0.1957086386501875	-0.3021381575419965	0.4978467961921841	143.3671635673469
16	6.0	perception	128	diff_vonmises	0.0126165777050823	0.7228766544000659	0.9906174958836595	2.352559166242555	7.474403656242597e-17	3.0006035971576863	0.3221466832759979	-0.3672796011853336	0.6894262844613315	128.97228963496173
17	6.0	wm	128	diff_vonmises	-0.1685039470399868	-9.654564996687188	0.4724799018947971	176.57354933906294	0.4607335553603937	177.10750154605037	0.2576691032036038	-0.2916319145837853	0.5493010177873892	127.63560529980678
18	7.0	ltm	128	diff_vonmises	-0.0246761888970157	-1.4138414782665816	0.6589119393231493	189.075616504473	0.6439801006044252	190.01890778811628	0.2782573106777448	-0.3486991102335945	0.6269564209113394	108.59547112257538
19	7.0	perception	128	diff_vonmises	0.0253866266080881	1.4545465607179673	0.802796450702826	237.24079357153897	0.7870570179828049	238.0178220997337	0.479028768387181	-0.3742321498582406	0.8532609182454216	100.64087594200709
20	7.0	wm	128	diff_vonmises	0.094513607893921	5.415230838876015	0.9236086063198068	124.79383692486162	0.9008340889868908	125.67631241095314	0.2560025755120563	-0.2906108316571636	0.5466134071692199	91.2635405731736
0	1.0	ltm	226	diff_vonmises	-0.0048439348917492	-0.2775370255333891	4.165924143347516	0.3488665052999826	8.1346277362259285e-19	3.660498581501765	-0.3083687022284136	-0.5825204254417508	0.2741517232133371	67.0490232829172
1	1.0	perception	226	diff_vonmises	0.002666670923771	0.1527889892823342	11.770181007714678	0.849783957455561	0.0449994033380008	4.166328328696776	0.456913399950691	-0.6747005150697183	1.1316139150204094	39.15409186824715
2	1.0	wm	226	diff_vonmises	0.0163681236747747	0.9378244051127572	5.92388139299119	0.3671697132654423	1.8937156628731635e-12	3.8180246472134263	-0.2593652301160261	-0.6076550035596047	0.3482897734435785	55.99015231884553
3	2.0	ltm	226	diff_vonmises	-0.0935604403571791	-5.360618361851827	3.2457175632121924	0.708365218492093	0.095153525697651	2.686587760090228	0.0158664965953256	-0.4089849108793961	0.4248514074747218	71.22451167560914
4	2.0	perception	226	diff_vonmises	-0.0386435456393445	-2.214112070555617	7.301844964550605	1.288415987294498	0.1183827282003342	3.3076166082633565	0.772882428807696	-0.5353492479742069	1.3082316767819029	49.19262252025706
5	2.0	wm	226	diff_vonmises	0.0060706599727401	0.3478231952970134	3.8113960238920463	0.7155912361994612	0.0805426068967317	2.788500326040663	0.0555406570063052	-0.431520877629679	0.4870615346359842	66.7253972835926
6	3.0	ltm	226	diff_vonmises	-0.0254523844344366	-1.4583142066376884	2.493627913886052	0.7431638679833741	6.380610366444696e-16	1.802967831866937	0.1503495981350476	-0.2839664654644812	0.4343160635995289	87.10772302539596
7	3.0	perception	226	diff_vonmises	-0.0091144089387349	-0.5222171649458242	3.664592330491833	2.198548190909977	0.2119990097281005	3.1831817422791624	0.9915295068034956	-0.461855299253976	1.4533848060574717	67.93100520799854
8	3.0	wm	226	diff_vonmises	-0.0982091254955624	-5.626968400566377	3.0054560499872167	0.9004095659862623	0.1473206241975911	2.00435182871165	0.2226658968656445	-0.2920698943138109	0.5147357911794554	74.02650372496078
9	4.0	ltm	226	diff_vonmises	-0.07623285235947	-4.367820700441556	2.6116095160628645	0.6383325965023253	8.915726382330564e-15	2.939793258376596	-0.0819508006751916	-0.465802251295039	0.3838514506198474	85.10878749746576
10	4.0	perception	226	diff_vonmises	-0.0891212479304456	-5.10627137135356	1.4953368926785746	6.6882335362328895	0.5647119358609983	8.879516982424112	0.5927531043302152	-0.6893741741360568	1.282127278466272	86.76154960976834
11	4.0	wm	226	diff_vonmises	-0.1039423576578174	-5.955458406432252	0.7267212728889274	244.4069346623325	0.714965498883668	246.7827561956109	-0.134759296629511	-0.477716671351331	0.34295737472182	89.84975868768996
12	5.0	ltm	226	diff_vonmises	-0.059313842324399	-3.398432831892499	1.357160428670659	1.3025025470114084	3.756147192038652e-15	2.576757614959489	0.1210434731716705	-0.3749129378386572	0.4959564110103278	115.09318569941028
13	5.0	perception	226	diff_vonmises	-0.0432951729463999	-2.480630683117699	2.2228382970130083	2.688736550262171	0.1250800622272896	3.784562508863183	0.797995733228837	-0.5160412161608795	1.3140369493897164	87.47055523637079
14	5.0	wm	226	diff_vonmises	-0.0391657340614164	-2.2440312632509354	0.6192966283040686	227.74940234705176	0.6081564591946272	229.03628018976607	0.1370958993095428	-0.3615198770798891	0.4986157763894319	108.09037525154312
15	6.0	ltm	226	diff_vonmises	-0.0243684120752553	-1.3962071653477637	0.9344437062117072	1.0818295730380514	1.7402177100747092e-16	2.0629024445157205	0.0278924973061848	-0.2733566018176965	0.3012490991238813	131.36501743094593
16	6.0	perception	226	diff_vonmises	-0.1056376408901453	-6.052590980723936	0.4267954546359294	4.996981526257133	2.113610253592474e-15	5.903748670214005	0.2253900959388214	-0.443456679988368	0.6688467759271894	155.8863142522768
17	6.0	wm	226	diff_vonmises	-0.1035486454418654	-5.932900358115459	0.4739514670167571	196.74566731237613	0.4650082907693441	197.7239618475776	0.0922131431172559	-0.2964666495604682	0.3886797926777241	123.12921481776952
18	7.0	ltm	226	diff_vonmises	0.1734184073563786	9.936142831400964	1.9062162146823776	0.805191969752535	1.262528732738161e-13	2.0710520063380646	0.0738605394155714	-0.3207035351159466	0.394564074531518	99.18461923066988
19	7.0	perception	226	diff_vonmises	0.0543820372404444	3.115861215200736	0.8650297270067457	360.0330327314914	0.8535069025363174	361.0476129410716	0.4729723440589168	-0.41062794078357	0.8836002848424869	95.84191162475196
20	7.0	wm	226	diff_vonmises	0.0245436199766369	1.4062458386342755	0.8497375815503228	73.49232415907183	0.8169027782827514	74.75327463168608	0.0736622068043253	-0.3070391892747279	0.3807013960790533	90.42702913275062
0	1.0	ltm	347	diff_vonmises	-0.0258431636713625	-1.4807042076348873	2.5614276622940277	0.3946382717974534	1.5450115324972595e-20	2.7260488263568523	-0.1979666218679683	-0.4324581828441837	0.2344915609762154	85.94862291438096
1	1.0	perception	347	diff_vonmises	-0.0146576500595247	-0.8398214859904485	12.593976110863252	0.7207128346276611	0.00959043339044	3.167120819179265	0.5008891822942778	-0.5054819119455564	1.0063710942398345	38.11999208609967
2	1.0	wm	347	diff_vonmises	0.0634531189529196	3.635595912943868	3.9805479237579178	0.4187553374477414	3.19529539784368e-16	2.8246157465790223	-0.1284702492197229	-0.4494395566152195	0.3209693073954965	68.6349591066313
3	2.0	ltm	347	diff_vonmises	-0.0230104062654248	-1.3183991638902317	3.56252100165445	0.5819572466980905	0.1200635046959805	2.0082500301124964	0.0606950357635477	-0.306627109871092	0.3673221456346398	67.86491622774642
4	2.0	perception	347	diff_vonmises	-0.0182960284492917	-1.0482852119957025	6.911096832750743	1.2809621212525588	0.1807847296436959	2.658041864360018	0.8145339219002736	-0.4326057951723299	1.2471397170726035	50.24081482921562
5	2.0	wm	347	diff_vonmises	0.0498119410977108	2.854013994253084	4.346478463214068	0.5730670822214512	0.1052752285399077	2.063403216287509	0.0970866176873116	-0.3218223622014139	0.4189089798887256	62.36716348431625
6	3.0	ltm	347	diff_vonmises	0.0121541265299238	0.6963801538326232	2.754973892192113	0.7034802466604694	0.1449766024257641	1.5693423721347255	0.1515118190583022	-0.2256775551534386	0.3771893742117408	76.9496801380721
7	3.0	perception	347	diff_vonmises	-0.0093146995420389	-0.5336929711912712	3.99574870933104	1.9727806614157428	0.1946975734118237	2.766936193521541	0.9857173217558952	-0.4092366359294753	1.394953957685371	65.57849030193276
8	3.0	wm	347	diff_vonmises	-0.0752854715520295	-4.313539778583514	2.85372834968729	0.9008316184690988	0.2678734701247661	1.8447483740822797	0.1963440818764967	-0.2559916696078136	0.4523357514843103	72.93684850517405
9	4.0	ltm	347	diff_vonmises	-0.0912814657262965	-5.230042733884868	2.464179274014995	0.7748030086733887	0.228392004148677	2.49641641538271	-0.0400410018387805	-0.3537307358412473	0.3136897340024668	74.6331044770709
10	4.0	perception	347	diff_vonmises	-0.0961747581642575	-5.510407738503316	1.7531375290614994	4.460932695504076	0.4630723481193813	6.126957733624278	0.6547473088361113	-0.5875005460978842	1.2422478549339957	85.53269131907444
11	4.0	wm	347	diff_vonmises	-0.0843232300198096	-4.831365195045939	0.9363953961162544	300.0762644086348	0.9262772545447324	301.9705571425513	-0.0435211191169742	-0.411775971250897	0.3682548521339228	81.28326277444191
12	5.0	ltm	347	diff_vonmises	-0.0242437441921783	-1.3890642218066227	1.521233454675119	1.0596515339549952	0.0079049434725354	2.1412875755790384	0.119406544638885	-0.3160180534249902	0.4354245980638752	109.2148908447254
13	5.0	perception	347	diff_vonmises	-0.0377963449872453	-2.1655710487896016	1.9457237006520447	2.8585698334922327	0.2417051353911984	3.7810906646703537	0.695088175488274	-0.448541630934973	1.143629806423247	89.25239776030023
14	5.0	wm	347	diff_vonmises	0.0290150106506982	1.662437652812143	0.6061071566359372	176.21961797424436	0.5932636397061926	177.34872447026328	0.1299462378695182	-0.3249542639120584	0.4549005017815766	109.68831743424587
15	6.0	ltm	347	diff_vonmises	-0.0948913345168749	-5.436872980181006	0.4109275884890183	139.1144061395324	0.4000397729982792	140.15738555658086	0.0401657204297656	-0.2918986285402187	0.3320643489699844	129.07959088806834
16	6.0	perception	347	diff_vonmises	-0.0876254667123293	-5.020569420480559	0.4464719852301774	232.2034209629161	0.4339702173186588	233.188317051754	0.3060489018657932	-0.4414855260071988	0.7475344278729921	129.48887723740853
17	6.0	wm	347	diff_vonmises	-0.0642300153487127	-3.68010879754174	0.503266737955926	176.74852251355532	0.4917234079779694	177.81514804766985	0.1196472742376073	-0.3284257062458948	0.4480729804835022	120.4582350438648
18	7.0	ltm	347	diff_vonmises	0.1089949545174368	6.244950882069496	0.7654283489523955	68.87438077639335	0.7285007980720721	70.37934478513257	0.0490535945252474	-0.3540488100897301	0.4031024046149776	94.63761244960504
19	7.0	perception	347	diff_vonmises	0.0298208073593407	1.7086064033628925	0.8495545065941776	194.17891156951555	0.8254249539436527	195.52857261571936	0.4779348128559491	-0.4880916594823894	0.9660264723383384	96.12505697916684
20	7.0	wm	347	diff_vonmises	0.087292267055224	5.001478486393216	1.3811460074481672	1.8327743784032435	0.341348061378627	3.317518578638292	0.0336654918622782	-0.3382560031891136	0.3719214950513919	91.14170545437892
0	1.0	ltm	393	diff_vonmises	-0.0432193131066133	-2.476284234463389	6.304410631060817	0.3227939370259782	0.0218284711765425	2.8246969912883797	-0.1431220612465223	-0.4494962124952998	0.3063741512487775	53.2699809319036
1	1.0	perception	393	diff_vonmises	-0.0266775640624152	-1.5285118284662724	13.927133432005522	0.7361546497082754	0.064123421235656	3.354106481785782	0.516725597598184	-0.5504097333451993	1.0671353309433833	35.96784223060186
2	1.0	wm	393	diff_vonmises	0.0103716425923182	0.594251347157962	5.367380492875223	0.3847145205383482	0.0118863324438531	3.109582710429195	-0.1544405313594128	-0.4933660148061936	0.3389254834467807	58.14897493232402
3	2.0	ltm	393	diff_vonmises	-0.0666356219127529	-3.817939900830208	3.377439709493436	0.6035974827284725	0.1321869376741409	1.835290176563266	0.0907528129932543	-0.2767553705832735	0.3675081835765279	69.56488172203228
4	2.0	perception	393	diff_vonmises	-0.0381820365154269	-2.1876695455483626	7.638509587607451	1.1598399524264644	0.274297611949946	2.428031935262461	0.757472310971222	-0.4106102346328494	1.168082545604071	47.33107728303708
5	2.0	wm	393	diff_vonmises	0.003934590696645	0.2254354410291983	3.864198629469856	0.7259055224874092	0.2240830123368883	2.121839382676788	0.130385217950358	-0.3243948074456712	0.4547800253960292	63.633143854690445
6	3.0	ltm	393	diff_vonmises	-0.0267803407597033	-1.534400499453172	2.031079200513993	1.5186924119335306	0.6376212397795379	2.2641287319147985	0.1733603567963699	-0.2225904459960812	0.3959508027924512	75.84345045750035
7	3.0	perception	393	diff_vonmises	-0.0266196651205061	-1.52519446345661	4.068919864907672	2.016645928287589	0.3871567191998121	2.697238581554305	0.9556206982568336	-0.3897583253834971	1.345379023640331	63.06117384255117
8	3.0	wm	393	diff_vonmises	-0.0734839853911045	-4.210322224711286	2.3880121631988795	1.3210904939465762	0.558421309754996	2.2398330376186397	0.180620279480259	-0.2611854375059622	0.4418057169862213	72.3996485512371
9	4.0	ltm	393	diff_vonmises	-0.1390432739415978	-7.966592766534894	1.0136673931755098	100.85192449766284	0.9850493507674264	102.13309686427156	0.1118513988411962	-0.3262926230353855	0.4381440218765817	83.11988855001749
10	4.0	perception	393	diff_vonmises	-0.0931064701433433	-5.3346077845743824	2.3218581110606378	2.88085307138142	0.3487061063348908	4.05977856626455	0.7367383591445867	-0.4854252196865435	1.2221635788311302	79.95988401402352
11	4.0	wm	393	diff_vonmises	-0.1515539151294459	-8.683399705601126	1.0333967721462949	315.64176047277994	1.0232877998820116	317.1059494530491	0.0952654938824935	-0.3635360909685303	0.4588015848510238	81.1794496542536
12	5.0	ltm	393	diff_vonmises	0.0045067910160846	0.2582201043691255	0.6772628616592267	122.54700219465936	0.6567605038702639	123.58946120269157	0.1899948702435807	-0.3233025878540303	0.5132974580976111	105.4114733604418
13	5.0	perception	393	diff_vonmises	-0.0204991095585473	-1.1745124614810487	2.15639026910625	2.406798973419986	0.1801158361913257	3.383245394675369	0.6596818168740436	-0.4381903561958295	1.097872173069873	86.90961913486043
14	5.0	wm	393	diff_vonmises	-0.0357577422406301	-2.048767715304774	0.6686858776916975	214.8826347305516	0.6569006728452801	215.94813138407773	0.1872783779652351	-0.3278195512007862	0.5150979291660214	105.61784822624227
15	6.0	ltm	393	diff_vonmises	-0.111367414137774	-6.380882805380029	0.429376378745593	150.77240310580717	0.4169275930959329	151.66887014201086	0.1386335018169546	-0.3160024656069957	0.4546359674239504	129.67165497372514
16	6.0	perception	393	diff_vonmises	-0.021315949852595	-1.2213139628662038	0.9381157132441152	3.4265842373268187	0.1257820968358697	4.398987333975144	0.3398495648558823	-0.4417528539536004	0.7816024188094828	123.65787709528132
17	6.0	wm	393	diff_vonmises	-0.1812015838061795	-10.382085993180173	0.5067573922181056	156.034753834298	0.4918647606912947	156.9291531633207	0.2149349354441128	-0.3442438054246981	0.5591787408688109	122.50691205053651
18	7.0	ltm	393	diff_vonmises	0.0962166021800342	5.512805224005196	0.7514763343620938	205.7872955291059	0.7393824213810616	206.83396256115208	0.169335863134755	-0.3038356267187225	0.4731714898534775	99.0520812593664
19	7.0	perception	393	diff_vonmises	-0.0287309172165408	-1.6461602980475445	1.4108420102541743	3.422931094584368	0.3793814661790822	4.337378350457507	0.4552770970124806	-0.3812442781586086	0.8365213751710893	96.03411514809405
20	7.0	wm	393	diff_vonmises	0.1824194768432458	10.45186612410244	1.2108393493011302	3.7419212414137744	0.6044972017181433	4.724130160924021	0.1676140489609336	-0.2783439431898592	0.4459579921507929	90.39583598230448
0	1.0	ltm	203	diff_vonmises	-0.1007474445880254	-5.772403371621982	2.842358101185071	0.3645447887294537	6.941338691068264e-22	1.690390718699281	-0.0375449984290183	-0.2682475199704581	0.2307025215414397	81.54113097249785
1	1.0	perception	203	diff_vonmises	-0.0637815192892488	-3.6544118662062086	15.369312859491664	0.6305655158250185	1.4473175971199632e-19	2.1902921503865547	0.6290697415856756	-0.3485958225493534	0.9776655641350293	34.55648542575233
2	1.0	wm	203	diff_vonmises	-0.007761277792234	-0.444688461123627	4.579844578909234	0.3694034625930407	6.716077904225022e-17	1.8302719617970784	0.0142834380800189	-0.2912646753557776	0.3055481134357966	63.87417972746218
3	2.0	ltm	203	diff_vonmises	-0.0126547142107627	-0.7250617152209335	3.171710328560344	0.7443456091708075	0.3519916764487379	1.5865840797006705	0.1549616501832217	-0.2246814738713093	0.3796431240545311	67.89324981334457
4	2.0	perception	203	diff_vonmises	-0.0259127940464356	-1.4846937342524875	6.961863436630426	1.2054760793780015	0.2709856171827859	2.0551013647576557	0.8229793726106136	-0.3396287478898308	1.1626081205004444	49.75264970753432
5	2.0	wm	203	diff_vonmises	0.0100366130930364	0.5750555708367311	4.313638883235984	0.515616169392473	0.1830324301592051	1.4526521527057268	0.1376648374670624	-0.2251093525125879	0.3627741899796504	61.65057891766281
6	3.0	ltm	203	diff_vonmises	0.0336675153103463	1.9290065339749256	1.347649692368382	95.34336118640152	1.3207194301666991	95.99279318495994	0.2033514108987688	-0.2209043295713044	0.4242557404700733	75.00364052368076
7	3.0	perception	203	diff_vonmises	-0.0315318111855794	-1.8066397013371036	4.502432964100783	2.0036386335133964	0.3063374103905648	2.67849292591669	1.076770165942743	-0.4008746210235053	1.4776447869662488	61.04632725274416
8	3.0	wm	203	diff_vonmises	-0.0652979713566087	-3.741298169499817	2.1408813271241454	1.6984311007676038	0.7253207164139266	2.532964485805311	0.1798547796020049	-0.2487443122578798	0.4285990918598847	72.6477422201776
9	4.0	ltm	203	diff_vonmises	-0.1736591235174683	-9.949934851491992	1.6316466305103443	3.3908635931813564	0.8907008144698709	4.478312482142012	0.1084434257243911	-0.2888751546794501	0.3973185804038412	74.45647823691692
10	4.0	perception	203	diff_vonmises	-0.0908941036786764	-5.207848523412691	2.4198050388619583	2.4216599044415568	0.181501025520988	3.691460361314256	0.701392062798028	-0.4951269044399505	1.1965189672379786	82.19801709754597
11	4.0	wm	203	diff_vonmises	-0.1478215257622535	-8.469549547361499	1.189202594826842	281.2961564889978	1.1773710016532606	282.65338606605934	0.1073535749794132	-0.352449366538444	0.4598029415178573	75.81500690674957
12	5.0	ltm	203	diff_vonmises	0.0208262408013704	1.1932557010416829	1.677190496466648	1.2246422964818613	0.1326579511655927	1.6415963387042822	0.2706733043211282	-0.2079756705620503	0.4786489748831786	99.1442115608495
13	5.0	perception	203	diff_vonmises	-0.0354166703167382	-2.0292257335553594	1.9720107647578613	2.359750781123837	0.2228035335743827	2.680391690415549	0.6805169535254688	-0.3182905930094465	0.9988075465349152	90.4092739608146
14	5.0	wm	203	diff_vonmises	0.0204006195904767	1.1688694019862258	1.1392192322632375	2.4038394408690404	0.3752607232921446	2.873545934817608	0.2415052196502186	-0.2135860052497337	0.4550912248999523	104.11163864707314
15	6.0	ltm	203	diff_vonmises	-0.1584121945935734	-9.076350173616875	0.4145212114895033	92.56776577536309	0.4004230413951723	92.90632269183396	0.1625145284824469	-0.1938024283448385	0.3563169568272855	133.6824264918906
16	6.0	perception	203	diff_vonmises	-0.0276717684387254	-1.5854755432022838	0.6637715989142148	129.41705316344093	0.6442242458430129	129.84772332309527	0.3629392066356161	-0.2797652936312431	0.6427045002668592	111.89209313966678
17	6.0	wm	203	diff_vonmises	-0.0565026514812166	-3.2373634611723245	0.4941971159101951	101.94891917817016	0.4787660103336109	102.29945808954852	0.2082939679464139	-0.2121918397326627	0.4204858076790767	126.22369240893605
18	7.0	ltm	203	diff_vonmises	0.0091030898482807	0.5215686288348693	1.0381224948615746	158.1558983135991	1.0201512263893573	159.02763789699924	0.2350016960811416	-0.2770247233232865	0.5120264194044282	85.45771244301116
19	7.0	perception	203	diff_vonmises	-0.0095785054355466	-0.5488079354999394	1.896343268485418	1.8368430991786997	9.087443418934949e-14	2.7137406213153112	0.4855817153438647	-0.4112272531410871	0.8968089684849518	99.48986527999617
20	7.0	wm	203	diff_vonmises	0.0944233486661018	5.410059366059867	1.2740965497169212	1.863006044194804	0.3860514067922019	2.704979465691564	0.1212755184153311	-0.2339897267581149	0.355265245173446	95.68083798204228
0	1.0	ltm	82	diff_vonmises	-0.0166935415194218	-0.9564694741892792	6.658496823472586	0.2704724582852588	0.0082526039211868	3.306815781407054	-0.2578609726635372	-0.5260405915759924	0.2681796189124552	52.226715790908685
1	1.0	perception	82	diff_vonmises	-0.0132956333197943	-0.7617836751777278	13.640012589798305	0.7289432804954891	0.0608683380732582	3.803694960766519	0.4209318136305284	-0.6231591343998701	1.0440909480303986	36.300953524175526
2	1.0	wm	82	diff_vonmises	-0.01094590208618	-0.6271539925015596	5.501734745829642	0.3864638809857934	0.0545392004773431	3.717966794149544	-0.2719056863929061	-0.5937219370751583	0.3218162506822522	55.38781461592151
3	2.0	ltm	82	diff_vonmises	-0.086778512973905	-4.9720425458260165	3.715154044362024	0.5665941827520999	0.047792738951316	2.350202075592757	0.0261957880555276	-0.3654313055438928	0.3916270935994205	68.59655224559987
4	2.0	perception	82	diff_vonmises	-0.0405279387646117	-2.3220798435768963	8.013852686074225	1.16593603665608	0.1886912580685452	3.1403334841642563	0.6964903236841763	-0.5238244567547239	1.2203147804389003	46.50082329897848
5	2.0	wm	82	diff_vonmises	-0.0017563203061959	-0.1006297410181534	3.6968732914282074	0.7230090638946436	0.1386813502730858	2.7901022295922946	0.0246885175126679	-0.4291417343436193	0.4538302518562873	65.79394072690667
6	3.0	ltm	82	diff_vonmises	-0.0038756623559326	-0.2220590958126722	2.0616860543118425	1.4976526945368842	0.4847160458975266	2.647471688441829	0.1412255809441486	-0.2978179104214251	0.4390434913655737	76.96678468616068
7	3.0	perception	82	diff_vonmises	-0.0243276890764381	-1.3938739093864188	4.072226006624295	2.2054819690769745	0.3136642163007087	3.3602295039461327	0.9980110970248612	-0.4947305172783997	1.4927416143032608	63.37352582480156
8	3.0	wm	82	diff_vonmises	-0.06323926042046	-3.623342721621074	2.717370182156649	1.0351864697588895	0.3046281272533749	2.446290926307559	0.1245316553661404	-0.3381565450117776	0.462688200377918	72.2679411643804
9	4.0	ltm	82	diff_vonmises	-0.080765032672207	-4.627495504353665	1.187987275778726	3.6776069606373434	0.498699559164903	5.722977028442615	-0.0245578259036192	-0.4423773163849222	0.417819490481303	88.04903964703635
10	4.0	perception	82	diff_vonmises	-0.0814167386433271	-4.664835505982324	1.989889215235162	3.602071823733068	0.3967772718084739	5.554834820397674	0.588124435036389	-0.6159862889206823	1.2041107239570712	82.37729409556712
11	4.0	wm	82	diff_vonmises	-0.1539659372172651	-8.821598391325498	0.8221524636277628	278.24824395641275	0.8109292126833882	280.4714811338648	-0.0834332797270747	-0.4651828799458641	0.3817496002187894	85.9379751763677
12	5.0	ltm	82	diff_vonmises	0.0130734238609634	0.7490520110188292	1.8369659269678456	1.2430863399548702	0.0689877800321012	2.594178845389488	0.1672146245395207	-0.3694392196494682	0.536653844188989	96.24380761618252
13	5.0	perception	82	diff_vonmises	-0.041356704585838	-2.369564627337856	2.3887619706114185	2.3535266785426456	0.1074322576946535	3.649384042187233	0.705455679169576	-0.513934894137763	1.2193905733073391	84.8250319871646
14	5.0	wm	82	diff_vonmises	-0.0672397349103295	-3.852553025940348	0.6445618601241891	211.39169654949927	0.6315667680096333	212.86911855953372	0.1204756024040989	-0.3914040504718095	0.5118796528759084	105.03947199381344
15	6.0	ltm	82	diff_vonmises	-0.0960576627333414	-5.503698664511558	1.1022964367682304	1.1981628183879052	4.965785214782261e-17	2.309882171543234	0.0648483033213674	-0.3199249360371027	0.3847732393584701	124.38428343689436
16	6.0	perception	82	diff_vonmises	-0.0682539184669596	-3.910661463386817	0.7457506067776482	2.774472718269299	2.033332300961061e-12	3.905487501867833	0.1921344785830587	-0.4384639465403962	0.630598425123455	139.8648191738438
17	6.0	wm	82	diff_vonmises	-0.1523995304341986	-8.731849893655127	0.4670298586288157	210.98508678748644	0.4579228604055807	212.1320287058943	0.0828749278581142	-0.3334756441187245	0.4163505719768388	123.2474115640288
18	7.0	ltm	82	diff_vonmises	0.0670556411270726	3.842005229125127	0.7730513720081359	176.46468419433705	0.7585006914418079	177.74295520554256	0.112277800607714	-0.3287435021619416	0.4410213027696557	95.62560852305674
19	7.0	perception	82	diff_vonmises	-0.0222260625215643	-1.273459577679532	0.756115399590435	287.28134667499586	0.7432394723774376	288.3652806120742	0.3887442700795276	-0.4092418203838797	0.7979860904634073	101.77793741563528
20	7.0	wm	82	diff_vonmises	0.0790718024818528	4.530480560702234	0.9112542241124374	121.66706252658597	0.8899280121836055	122.94095799590998	0.0854639206851644	-0.3139010707063701	0.3993649913915345	87.12273015378855
0	1.0	ltm	59	diff_vonmises	-0.0906041408711025	-5.19123487832294	2.5114505882822185	0.307241009964522	6.23908229575883e-18	1.802297583948508	-0.1052844967629955	-0.2856488914194582	0.1803643946564626	86.79143307349753
1	1.0	perception	59	diff_vonmises	-0.0199787324406655	-1.1446970488712398	12.651505369456528	0.732669187666462	0.0298627293883684	2.432143113966386	0.6302192761899443	-0.3912584031996088	1.021477679389553	37.9448034993996
2	1.0	wm	59	diff_vonmises	0.0665070043022482	3.8105706545772353	4.1027494503660416	0.3647935162530802	3.552624696206026e-17	1.9365426742496576	-0.0238383729639788	-0.3081326601622378	0.2842942871982589	67.57487927283708
3	2.0	ltm	59	diff_vonmises	0.0446351194998764	2.5574039654050047	4.228165298207226	0.4529954103037515	0.1940686881302455	1.2811256253640328	0.1136631478984996	-0.1980932992608449	0.3117564471593445	61.97331662851053
4	2.0	perception	59	diff_vonmises	-0.0052573586984155	-0.3012244648056055	7.131755132750262	1.3469046447377315	0.3990054856447392	2.0382061985813187	0.9430727158998476	-0.3463250867318285	1.289397802631676	48.68232461853853
5	2.0	wm	59	diff_vonmises	0.0707368615597181	4.0529236233730375	4.689468197759881	0.4559411604694248	0.1668709284381213	1.3509882199151797	0.1297345656926516	-0.2118778603120885	0.3416124260047401	59.543705558015205
6	3.0	ltm	59	diff_vonmises	0.0913092262331612	5.231633293765362	2.813701936134368	0.6447622837308424	0.5715280351456324	1.0364356260316612	0.1373943926246991	-0.1288712615049212	0.2662656541296203	69.01457874076439
7	3.0	perception	59	diff_vonmises	-0.0012722504571162	-0.0728945816763504	4.874890636063597	1.6482039957970087	0.3083374879560388	1.9425335364503604	0.999019435967264	-0.2940051136365054	1.2930245496037691	59.13906771491818
8	3.0	wm	59	diff_vonmises	-0.0476847630133251	-2.7321356677450583	3.4039079230464715	0.6188332119264641	0.4166461338596437	1.1282317069453651	0.1743052986245837	-0.1590707013366364	0.3333759999612202	65.93024543836506
9	4.0	ltm	59	diff_vonmises	-0.1290807345428982	-7.395781305756604	1.235076818516525	101.46438307185822	1.21256057865525	102.51100837479272	0.0212305028101837	-0.2570337260100803	0.2782642288202641	72.55549306076969
10	4.0	perception	59	diff_vonmises	-0.0781147170278009	-4.4756436035517	2.5715812179693622	2.3063738431875467	0.244774416789632	3.432238534358176	0.6944342903000618	-0.4512524909471134	1.1456867812471752	78.65521829360478
11	4.0	wm	59	diff_vonmises	-0.0792449133486309	-4.540399082756474	1.1860203586839828	258.1407142651985	1.174962841844031	259.4122420171225	0.0525442916952414	-0.3160545674778205	0.368598859173062	74.71740999770302
12	5.0	ltm	59	diff_vonmises	0.0169938565343083	0.9736762570666828	1.9487691356788848	0.7549634008049662	0.0035718319242017	1.3447616278517058	0.1686162015043826	-0.2054816623475368	0.3740978638519195	98.01732650916549
13	5.0	perception	59	diff_vonmises	-0.0323008303096862	-1.8507012515132697	2.207474537278167	2.2379649070292693	0.1986243407402004	2.6251652990651344	0.7205172628311717	-0.33152711489755	1.0520443777287216	86.50420334574258
14	5.0	wm	59	diff_vonmises	0.1172270981160529	6.716617966615837	1.232092372176571	1.6059027957414382	0.1988851831294688	2.204390426650139	0.194508562239121	-0.2321323241073291	0.4266408863464501	108.15109530131332
15	6.0	ltm	59	diff_vonmises	-0.1256076955667696	-7.196790830340003	0.5010045406690988	136.85918651777348	0.4904886414627208	137.35337255231835	0.1477532527692133	-0.2083088859427047	0.356062138711918	123.56339262970111
16	6.0	perception	59	diff_vonmises	-0.0677350506950988	-3.880932529933837	0.6002500070018021	214.58667042951916	0.58683609447281	215.0798367185608	0.4147204153040036	-0.3382965455932059	0.7530169608972095	117.03713938343576
17	6.0	wm	59	diff_vonmises	-0.0372594191219705	-2.1348074627979505	0.6853878787933898	4.815505478969795	0.3150507197747064	5.307621172951264	0.2275176092826341	-0.2569030187477198	0.4844206280303539	124.9017116718989
18	7.0	ltm	59	diff_vonmises	0.1267556452283539	7.26256350104225	0.9461615930624132	142.30214759216366	0.9293040752446496	143.30203420113088	0.127651818495039	-0.2679600228477579	0.3956118413427969	87.07685221026608
19	7.0	perception	59	diff_vonmises	-0.0168114463936225	-0.9632249258650032	2.268234330032847	1.6324441482400531	0.0023409757959493	2.538888038392058	0.5032437919563981	-0.3934025970641623	0.8966463890205605	91.18969358109769
20	7.0	wm	59	diff_vonmises	0.1673679282470135	9.58947591440227	1.6849508167039315	0.936733550274242	0.159170779786882	1.89970736198177	0.0831625544888148	-0.243942776378474	0.327105330867289	94.13722826768232
0	1.0	ltm	278	diff_vonmises	-0.1515560469158076	-8.683521847962474	2.5865043932180183	0.3639577881487512	2.710634483609157e-21	1.8173995731168189	-0.0704359396089088	-0.2880079117015484	0.2175719720926395	85.51422289340223
1	1.0	perception	278	diff_vonmises	-0.0486699702961992	-2.788583886999296	14.56111444000656	0.7382091260411698	1.701138288745929e-20	2.395128964195789	0.7325264135976322	-0.3811966139940803	1.1137230275917125	35.50516146807345
2	1.0	wm	278	diff_vonmises	-0.0134584314980877	-0.7711113237063579	5.648158580363391	0.3279963151519169	4.75752274173514e-19	1.917514600187728	-0.0017810928883437	-0.3051781589248706	0.3033970660365269	57.37215173691823
3	2.0	ltm	278	diff_vonmises	-0.0398229220580329	-2.2816853618037163	3.9647541496098215	0.5022570720935028	0.1361378215164985	1.4009764900646593	0.1299728124282299	-0.2146591050578631	0.344631917486093	64.9855305057844
4	2.0	perception	278	diff_vonmises	-0.0337176003135337	-1.9318761932744624	7.60762195760795	1.2455506845069997	0.2676774580608832	2.120208104835537	0.9132814802235248	-0.3549567445829292	1.268238224806454	47.73426135281144
5	2.0	wm	278	diff_vonmises	-0.0164960252041202	-0.9451526229375244	4.190421077807815	0.4860128553050792	0.1153493577478339	1.4736169059173625	0.1209189388222234	-0.2279843381350957	0.3489032769573191	63.6069808761487
6	3.0	ltm	278	diff_vonmises	0.0407137900737813	2.3327283392092952	2.103823977871192	1.2161018740891112	0.6677577479601642	1.6510950416479744	0.1870988848505946	-0.1570074635869075	0.3441063484375021	76.00696205131212
7	3.0	perception	278	diff_vonmises	-0.0218974891510496	-1.2546337102886551	4.348733457712255	2.009705662676487	0.3884306820200217	2.3400826311306946	1.087807334971092	-0.3407230420877033	1.4285303770587952	61.67729579153041
8	3.0	wm	278	diff_vonmises	-0.1077975050358267	-6.176342080593108	2.580988897033311	1.1063388904757112	0.6112386095129857	1.6519639066154883	0.2221185510529885	-0.1902243788873324	0.4123429299403209	71.12516402431635
9	4.0	ltm	278	diff_vonmises	-0.148631829093012	-8.515976508339353	1.43420839931914	6.053885493325185	1.0318988894617551	7.07102122774021	0.0932194789157363	-0.2694489926206151	0.3626684715363515	74.71181098196013
10	4.0	perception	278	diff_vonmises	-0.0916126872086369	-5.24902032690704	2.5223092701551817	2.490006938553687	0.2613485059381638	3.6749826135314847	0.7283741357756326	-0.4761055979421307	1.2044797337177633	78.96273316282017
11	4.0	wm	278	diff_vonmises	-0.1525106496887789	-8.738216557965213	1.1750533060700878	276.1244343710712	1.164568968387051	277.3658299398612	0.0745787541940927	-0.3144782655245279	0.3890570197186207	75.69834228936077
12	5.0	ltm	278	diff_vonmises	0.0226677733816105	1.298767745725275	1.8652423048068263	0.8880137639675489	1.6852116381882966e-15	1.337501458866301	0.2262688525122933	-0.2023383535053626	0.4286072060176559	100.25446963694978
13	5.0	perception	278	diff_vonmises	-0.0289526474873298	-1.6588645067540466	2.430671083066041	1.9785811606859516	0.0634806633754166	2.2196150086736006	0.77086379988961	-0.3223230642161753	1.0931868641057854	86.35829427444494
14	5.0	wm	278	diff_vonmises	0.0112263685671195	0.6432235381542801	1.2064158022977656	1.7610441180943928	0.2630451755555397	2.244750299340758	0.2129278854278353	-0.2099560788151281	0.4228839642429635	106.51519726209553
15	6.0	ltm	278	diff_vonmises	-0.1434523526945877	-8.219214370622018	0.4038273345864824	63.63267283506031	0.3867210087150527	63.965501908849866	0.1243419684967204	-0.1686872043657192	0.2930291728624397	134.57045239966817
16	6.0	perception	278	diff_vonmises	-0.0463652730825131	-2.6565344635995265	0.8549579476381489	2.9833727699347787	0.1332798583960121	3.347574796588128	0.331124612254727	-0.2947180951626336	0.6258427074173606	127.76840579675212
17	6.0	wm	278	diff_vonmises	-0.0960490168790388	-5.503203293549733	0.4579105531117706	103.22706931055583	0.4442027147337137	103.56477381792968	0.1824435707209915	-0.1992578634296613	0.3817014341506528	129.53200488213582
18	7.0	ltm	278	diff_vonmises	0.1265111808870546	7.248556726044356	0.9784336207136208	111.78865616067412	0.960037498550564	112.38972000502936	0.1891530736864624	-0.2017368586969539	0.3908899323834163	88.73022618768258
19	7.0	perception	278	diff_vonmises	-0.0033919572344628	-0.1943448338235876	1.071700941880002	6.183628080953327	0.5796639125497369	6.6870005586681	0.4465319496536244	-0.2980389248561712	0.7445708745097956	100.18131405116164
20	7.0	wm	278	diff_vonmises	0.0876475832570503	5.021836605150485	0.782503483981905	48.5295916278026	0.7506455349910764	49.11757119483308	0.1222167243831577	-0.181188103675014	0.3034048280581718	98.55483444385249
0	1.0	ltm	445	diff_vonmises	-0.0698384701680154	-4.00144958827759	3.738996858719946	0.2842161408976113	7.688200993373354e-20	1.7083760611408874	-0.0613123234074893	-0.2717774324766639	0.2104651090691746	70.87416509589619
1	1.0	perception	445	diff_vonmises	-0.0309081550263809	-1.7709068355476874	12.917186497304655	0.7196122795874641	0.021394819574059	2.357645976758507	0.6380314400360136	-0.3780078852248231	1.0160393252608368	37.59706663846024
2	1.0	wm	445	diff_vonmises	0.0286828273076967	1.6434049492336071	5.297384864739802	0.3453348322334729	1.8381379830913047e-16	1.8680985631696423	0.0114468030917715	-0.2973093854166119	0.3087561885083835	59.28426223562451
3	2.0	ltm	445	diff_vonmises	-0.0044271580266549	-0.2536574701647921	3.2468638498020783	0.7178997754508971	0.4171219245020244	1.5026132656992568	0.1440737855758309	-0.2127390847399085	0.3568128703157394	66.14200727070374
4	2.0	perception	445	diff_vonmises	-0.0141167565589752	-0.8088305712429057	7.095648071123364	1.290823938308319	0.3603136948418858	2.000272453192546	0.9037538299581376	-0.3370270133775981	1.2407808433357357	48.95642867208966
5	2.0	wm	445	diff_vonmises	0.049842735031214	2.8557783566774257	4.610079201729822	0.47977938448552	0.1872698301158051	1.3281566760596757	0.1456440412564497	-0.2076407918059921	0.3532848330624418	59.84561770306553
6	3.0	ltm	445	diff_vonmises	0.070026924539487	4.012247228393703	2.057475012519291	1.421039385415005	0.8854601186366949	1.8217026003473216	0.1628811665120829	-0.145769183455714	0.308650349967797	72.87765725001839
7	3.0	perception	445	diff_vonmises	-0.0101898190099481	-0.5838336232722015	4.8616552502673205	1.665408816385508	0.3260832353900372	2.0066601791659746	0.991526877614464	-0.3038259150444876	1.2953527926589516	59.0341075644404
8	3.0	wm	445	diff_vonmises	-0.045730257914584	-2.6201507745503974	2.7853042015467646	0.878851636101016	0.5951782577805977	1.391933961836212	0.1832126435157172	-0.1706423161005057	0.353854959616223	68.98262678070338
9	4.0	ltm	445	diff_vonmises	-0.1605236082416481	-9.197325264457874	1.2692715776161008	91.94687749019808	1.2426026089518485	92.91345923708764	0.0749785513072538	-0.2548967039293366	0.3298752552365904	73.42234178140819
10	4.0	perception	445	diff_vonmises	-0.0848918629222806	-4.863945460449799	2.6306622963737647	2.169388215068617	0.1980925985259007	3.2914160881495	0.6848428146937087	-0.4462357110751854	1.1310785257688942	78.86384725614286
11	4.0	wm	445	diff_vonmises	-0.1191374671924732	-6.826074052007024	1.217816992663267	245.66748504251171	1.2059777200796316	246.84697196348216	0.0878154400526511	-0.3066695249590374	0.3944849650116886	74.72990770366957
12	5.0	ltm	445	diff_vonmises	0.0130718986571548	0.7489646232777039	1.8769615180961852	0.8884959485484686	2.473040075323263e-18	1.3083963389858293	0.2328172180872843	-0.1979053665075208	0.4307225845948052	99.96332786738184
13	5.0	perception	445	diff_vonmises	-0.0451564097873098	-2.5872716987760995	2.3166773386776645	2.0895562185290446	0.1554233745564311	2.3052993420912125	0.7512234165090734	-0.3041868307205569	1.0554102472296305	85.9682481201915
14	5.0	wm	445	diff_vonmises	0.0747815426853828	4.284666781349848	1.2196850662239256	1.9803738958996704	0.3296588512373434	2.371888252389161	0.2470820742267768	-0.1984322206028806	0.4455142948296575	103.96555834371722
15	6.0	ltm	445	diff_vonmises	-0.1037093486745868	-5.942107975104502	0.489708881507554	100.90317882464304	0.476894359522019	101.16635776762732	0.1772230993007468	-0.1725433856005462	0.3497664849012931	126.74173759791276
16	6.0	perception	445	diff_vonmises	-0.069409393856433	-3.976865326534878	0.7846739479181172	6.174798299882525	0.3923727788069789	6.465660389079725	0.3903746561366001	-0.2825029345629232	0.6728775906995234	118.71941621173612
17	6.0	wm	445	diff_vonmises	-0.0720829001662798	-4.130045954590694	0.5493396434597582	57.68206384448668	0.5213921795361314	57.89739826928417	0.2488476525264396	-0.1952218002350791	0.4440694527615187	122.80988682336658
18	7.0	ltm	445	diff_vonmises	0.1014087754520117	5.8102948389901385	0.95306584088791	118.56172955763849	0.9332363855306444	119.31295225938275	0.1994809630237028	-0.2392176927217093	0.4386986557454122	89.37298566680855
19	7.0	perception	445	diff_vonmises	-0.0428048079223061	-2.452534836816293	1.8681924371499408	2.191599383286212	0.2101946836801415	2.821095749289309	0.536844608371587	-0.3380732068873862	0.8749178152589732	91.99788805807938
20	7.0	wm	445	diff_vonmises	0.1595980764372347	9.14429619825986	1.9398407025854645	0.8293465174523349	0.1057697507853455	1.50306452582879	0.1548428111347037	-0.2064383771669033	0.361281188301607	92.50772892767208
0	1.0	ltm	255	diff_vonmises	0.0834249916424957	4.779899927029171	4.718035253639221	0.2176093598783138	0.0051611127419971	3.1806072145017645	-0.3258990246269609	-0.5050533682919188	0.1791543436649578	62.13994233591373
1	1.0	perception	255	diff_vonmises	0.0322814997647988	1.8495936928755308	11.19043210777057	0.717160201933862	0.0846742566642267	3.69179381239923	0.3075502371102102	-0.6085249539468316	0.9160751910570418	39.81909009933642
2	1.0	wm	255	diff_vonmises	0.1034248549403076	5.925807684832392	4.90642178302701	0.3359279827597768	0.0172452869230356	3.419556773920528	-0.2652924157997653	-0.5420768374462385	0.2767844216464731	60.23620482669307
3	2.0	ltm	255	diff_vonmises	0.018387245148317	1.053511543870968	4.399041298317894	0.4150091352781996	0.0349727127609216	2.0902872291744146	-0.0084308850580272	-0.3287573711511596	0.3203264860931323	63.4807971361607
4	2.0	perception	255	diff_vonmises	0.0005360034321768	0.0307107344682623	7.406934177112568	1.2720480656234483	0.2518885457390805	3.0731361174928518	0.7368331397707231	-0.516681150949581	1.253514290720304	47.932566150550514
5	2.0	wm	255	diff_vonmises	0.1030597225155641	5.904887137931207	4.265147926683643	0.5906042427611369	0.1364638219951093	2.509134677375038	0.0146086596452572	-0.3931909602406953	0.4077996198859526	61.60771662681404
6	3.0	ltm	255	diff_vonmises	0.0557066723035876	3.19175721371389	2.6347844877595947	0.8212612199371422	0.419837037745264	1.8220172726472512	0.0766642627806468	-0.2429199536438996	0.3195842164245465	70.46003120068136
7	3.0	perception	255	diff_vonmises	0.0047145762376481	0.2701253206099081	4.626360980339228	1.7548888295995864	0.1997026155243038	2.842309865890469	0.9128282015964468	-0.4344370524345778	1.3472652540310246	60.89990732655605
8	3.0	wm	255	diff_vonmises	0.0142889824023885	0.8186983851935661	3.423270824325943	0.5974550047894249	0.1776429454819441	1.8883410117275248	0.0653888767517536	-0.2845472165831088	0.3499360933348624	67.68943852938634
9	4.0	ltm	255	diff_vonmises	0.0550342625152782	3.153230970740476	0.7605205423975966	190.25433715520813	0.7478237930693538	192.40391749977547	-0.1701154130759974	-0.4179722676718569	0.2478568545958595	85.06191895914122
10	4.0	perception	255	diff_vonmises	-0.0714188847456735	-4.092000673458352	1.816821079521517	4.011973447565065	0.460706813594507	5.97659046618492	0.5216722175962685	-0.6029665649020446	1.124638782498313	83.36312183670557
11	4.0	wm	255	diff_vonmises	-0.0057642854365267	-0.330269227421707	0.7978425636486629	193.9892985470644	0.7831827009329518	196.3786020896389	-0.1747370217381245	-0.4716152817955503	0.2968782600574258	83.80725607021611
12	5.0	ltm	255	diff_vonmises	0.0134818312128901	0.7724520286063441	1.8374508749242549	1.0692454365421469	0.1218557020732494	2.7453373226952325	0.0322364198460528	-0.3769370273362227	0.4091734471822756	91.21351482285922
13	5.0	perception	255	diff_vonmises	-0.0537796424067023	-3.0813465336268293	2.117816697583157	2.8217342608547744	0.2375115683114231	4.495046259289263	0.6122496974843665	-0.5640410988904301	1.1762907963747966	84.92572062991636
14	5.0	wm	255	diff_vonmises	0.0714111581136972	4.0915579700562565	0.793570245653206	5.411770154754414	0.3688108488505038	7.310528712002465	0.0099482509664921	-0.4452528915420846	0.4552011425085767	108.13514737029604
15	6.0	ltm	255	diff_vonmises	-0.0908646546839842	-5.206161220305922	0.5413889214729787	219.80503109383352	0.5308971491082474	221.60562294965197	-0.0214170228420584	-0.4107510935299707	0.3893340706879122	109.95537154458624
16	6.0	perception	255	diff_vonmises	-0.1292200739682786	-7.403764866750679	0.5136866739933204	42.8120488392829	0.4380071796555448	44.57463502539904	0.1885087100794802	-0.5457881765076467	0.7342968865871269	122.77187442657744
17	6.0	wm	255	diff_vonmises	-0.049017696437651	-2.808507127330853	0.5346204473962762	220.5670335584824	0.5229557243004687	222.4636341870854	0.0067911664690996	-0.4507479298200962	0.4575390962891958	111.96459912348134
18	7.0	ltm	255	diff_vonmises	0.0370721353428974	2.1240768926857974	0.752008094885923	211.9249385712958	0.7380320751824326	214.184194645239	-0.0939132540738043	-0.4669821687241757	0.3730689146503714	89.80564306476836
19	7.0	perception	255	diff_vonmises	-0.0386246895694275	-2.2130316973311723	1.5684706343311432	3.235574504056008	0.2515050308378257	5.300427928406286	0.3720937317031967	-0.597048442083542	0.9691421737867388	94.16138174032535
20	7.0	wm	255	diff_vonmises	0.1508037434425023	8.640418034029047	1.7878258426834035	1.4499102002697342	0.3072086877514193	3.702758021026432	-0.0839063043550818	-0.4604741712639622	0.3765678669088803	81.11277556823055
0	1.0	ltm	134	diff_vonmises	0.0171689547242448	0.9837086443504236	3.2266921769938994	0.4192265873984472	1.993055357685096e-17	3.656444540018647	-0.2957952146224257	-0.5814904904796807	0.2856952758572549	76.43644864622627
1	1.0	perception	134	diff_vonmises	-0.0213016150498094	-1.2204926391664384	14.666180583207542	0.6271005960719004	2.1274175092751984e-20	3.8624198361244586	0.3348334007378268	-0.6147232092152226	0.9495566099530496	35.3775559118362
2	1.0	wm	134	diff_vonmises	0.0274157753330051	1.5708082186600631	3.3563596043147985	0.4876918811139553	0.0074203431159819	3.8869416427002577	-0.2829333717618096	-0.6143020351563747	0.331368663394565	73.82255118345256
3	2.0	ltm	134	diff_vonmises	-0.0180487957794398	-1.034119823455434	3.2470818093993192	0.6377158787453382	0.0471351327752533	2.5974551868440683	0.0037141824889964	-0.4009742960939582	0.4046884785829546	73.14978118031681
4	2.0	perception	134	diff_vonmises	-0.02993962390894	-1.715414090191237	6.6262356526510455	1.2438939566083256	0.1418996572059235	3.2167949299808885	0.6641952081890556	-0.5194700202416886	1.1836652284307445	51.30484412216242
5	2.0	wm	134	diff_vonmises	0.0199732274113048	1.1443816339227766	3.7183097082020096	0.7934753848628827	0.1285317612673336	2.951814933207184	0.0540757002584176	-0.4537653844096203	0.507841084668038	66.08295542678141
6	3.0	ltm	134	diff_vonmises	-0.0337033757507583	-1.9310611858620184	2.896664950066289	0.9101711695628302	0.0634198528312198	2.616856544321071	0.1409860732553611	-0.3955994014505537	0.5365854747059149	77.28670889378952
7	3.0	perception	134	diff_vonmises	-0.0274681968131214	-1.5738117482265566	3.4194813136960898	2.5266965313445136	0.1970930442063431	4.131506178612743	0.9884032792525744	-0.597355521624302	1.5857588008768766	69.94645933032541
8	3.0	wm	134	diff_vonmises	-0.0803089011280447	-4.601361091970382	2.890346342732653	1.0585867433232128	0.1209782798461719	2.948901243744936	0.1509211468694891	-0.435394427630297	0.5863155744997861	75.18885500220571
9	4.0	ltm	134	diff_vonmises	-0.0341181269297981	-1.9548246779690728	2.39962954500696	0.7348442323320817	3.163817529031678e-17	3.323302773903272	-0.1061655648286352	-0.5254383173714312	0.419272752542796	88.78734573348635
10	4.0	perception	134	diff_vonmises	-0.0826315268612958	-4.734437743874143	0.9258768437154694	170.48406155645318	0.8846702638114098	172.74825364893798	0.6134780189250364	-0.7298780985349467	1.343356117459983	91.37346746174546
11	4.0	wm	134	diff_vonmises	-0.0735342029228629	-4.213199477338607	0.6881961871471922	209.4137806220676	0.6720593965718075	212.22817263655972	-0.1424155905855713	-0.5717870356550918	0.4293714450695205	93.32122941535746
12	5.0	ltm	134	diff_vonmises	-0.041302492676182	-2.3664585137152216	0.961201145128856	3.3435268402013896	0.2766611806186243	5.003507263760903	0.0875929396380856	-0.4291826031430468	0.5167755427811325	109.12963610627898
13	5.0	perception	134	diff_vonmises	-0.0199395015449779	-1.1424492841218192	1.1784863965787862	8.02072701089849	0.5350016907687297	9.620128625960795	0.5722699876431951	-0.5790357031870862	1.1513056908302812	95.92850910308798
14	5.0	wm	134	diff_vonmises	-0.047775582479444	-2.737339239851304	0.5612236104392043	262.5423417883946	0.550322563367839	264.37861076307115	0.0686493090142619	-0.4643415426209714	0.5329908516352333	111.0306916473314
15	6.0	ltm	134	diff_vonmises	-0.1257708759528121	-7.20614037775955	0.3416587616372306	97.48845593425337	0.3227274538199319	99.22718003513832	-0.0392480404692925	-0.4338838610984936	0.3946358206292011	136.1103350065478
16	6.0	perception	134	diff_vonmises	-0.0354596796287564	-2.031689985613764	0.4587297768659591	307.2232602674997	0.4476761055670847	308.8963705960497	0.2331705393802252	-0.5606656206717346	0.7938361600519599	126.05664137532705
17	6.0	wm	134	diff_vonmises	-0.0354501534021158	-2.031144173032576	0.4491824137354493	279.5332125969408	0.4402759635889497	281.40122247712804	0.0207574288031224	-0.4768492076579314	0.4976066364610538	122.90891986230572
18	7.0	ltm	134	diff_vonmises	-0.064967963670298	-3.722390121867341	0.7505822397891073	159.5569681765559	0.7303588248365842	161.9267720137518	-0.0722083081514028	-0.4993505965711939	0.427142288419791	91.06335429140216
19	7.0	perception	134	diff_vonmises	0.1175607264970174	6.7357334647708855	0.6851883635480932	264.5379784997805	0.6664746348337787	266.81718659889265	0.3084014683717129	-0.6522764770889822	0.9606779454606952	103.5801526309123
20	7.0	wm	134	diff_vonmises	0.0116180694752489	0.6656663470215344	0.7993169287150172	53.38484359318524	0.7402916729979033	55.86677020389975	-0.1236713582423973	-0.5067318208746245	0.3830604626322271	87.52531339347559
0	1.0	ltm	111	diff_vonmises	-0.063092200900991	-3.614916831818277	2.103997766618667	0.4742954337797549	1.143523869148125e-14	2.749038176423636	-0.1852580289758236	-0.4337699242585218	0.2485118952826981	94.69124351551773
1	1.0	perception	111	diff_vonmises	-0.0354917579256909	-2.0335279366420784	13.986633950084736	0.6838356612771137	4.517997902671967e-18	3.0752507025028115	0.5214060350972162	-0.4894413505494283	1.0108473856466444	36.2296145821459
2	1.0	wm	111	diff_vonmises	0.0371379729810369	2.1278491114843034	3.714847192207357	0.4283946458143697	3.02498283609822e-18	2.808133968642311	-0.1306524511060611	-0.4467407302124733	0.3160882791064121	71.11068009788966
3	2.0	ltm	111	diff_vonmises	-0.0474359021492808	-2.717876990549343	3.646358823482696	0.5439215214704574	0.0475877128761745	2.078907303389669	0.0506515185950403	-0.3226043693862874	0.3732558879813277	69.37518433782213
4	2.0	perception	111	diff_vonmises	-0.0315212686189271	-1.806035656762692	7.004229588581397	1.2186302759561685	0.1254628562776703	2.748648954218387	0.7679257439842894	-0.4431796157011676	1.2111053596854569	50.24869053896424
5	2.0	wm	111	diff_vonmises	0.0198217250483191	1.1357011879374368	4.206036499767522	0.5793102957527922	0.0858815455854931	2.201855119268957	0.0765852253942503	-0.3429744642121927	0.4195596896064431	63.68444195717453
6	3.0	ltm	111	diff_vonmises	-0.019168708660365	-1.09828610495479	2.358321711119128	0.9958745127273216	0.2125599129604035	2.048991549056616	0.1682395369243899	-0.2761124636606114	0.4443520005850014	80.27457338411821
7	3.0	perception	111	diff_vonmises	-0.0252109874651626	-1.4444831791110426	3.60327794601077	2.3101768656596757	0.2307512506481749	3.2923880080280763	1.0256007983047164	-0.4734470586866102	1.4990478569913266	68.23808292520707
8	3.0	wm	111	diff_vonmises	-0.105241745414403	-6.029907840835578	2.572136540533491	1.146993097735887	0.3062921379487885	2.2892292081115846	0.2038516649720099	-0.3046166417961376	0.5084683067681476	75.10581113430652
9	4.0	ltm	111	diff_vonmises	-0.0918844684947046	-5.264592247549359	2.6813079715520614	0.7582170668913575	0.188962528002277	2.563250741578045	-0.0229280882496362	-0.3726594944488771	0.3497314061992409	73.67221901214171
10	4.0	perception	111	diff_vonmises	-0.1078585128874517	-6.179837573008384	1.545154023457695	6.159039015996028	0.5651006808684128	7.899359980385393	0.6705731776790955	-0.6169029534454805	1.287476131124576	86.8631027894285
11	4.0	wm	111	diff_vonmises	-0.1206614187206304	-6.913390042752945	0.9167862161025874	289.697218337802	0.9060472068685592	291.68917764861567	-0.0529580432565097	-0.4293304201458738	0.3763723768893641	81.95600266025855
12	5.0	ltm	111	diff_vonmises	-0.0122370020921846	-0.7011285737749414	1.318916206273569	1.4312189997997982	0.1053546422678827	2.594197687087707	0.116281301829261	-0.329530428717824	0.445811730547085	108.62237091401528
13	5.0	perception	111	diff_vonmises	-0.031126914155419	-1.7834408103715302	1.8790974742189668	2.922302871028889	0.2377645549123228	3.963973164632294	0.6626281123213281	-0.467659467571466	1.1302875798927945	90.44104051078978
14	5.0	wm	111	diff_vonmises	-0.0251262156642995	-1.4396261126998624	0.5904944373101374	191.81271224285507	0.5786525354067478	193.07760724082016	0.0984280333590916	-0.342133460237747	0.4405614935968387	109.88315409246523
15	6.0	ltm	111	diff_vonmises	-0.1482838132043729	-8.49603666671684	0.3455231294515783	148.59391130382156	0.3361085439054527	149.78765635060063	-0.0054734785755314	-0.3116898734676354	0.3062163948921039	135.72984389938583
16	6.0	perception	111	diff_vonmises	-0.0706849123628972	-4.049947153646106	0.4288473070020728	227.98511304748172	0.4164057488894215	229.13601228489688	0.2567397694240156	-0.4572905943835152	0.7140303638075309	130.63878360149334
17	6.0	wm	111	diff_vonmises	-0.084014335031977	-4.813666815930385	0.4681414293596661	210.96465072159737	0.4589756201498514	212.2101348404892	0.0614316231784499	-0.3439603619779703	0.4053919851564203	122.34642906784867
18	7.0	ltm	111	diff_vonmises	0.0700653296384959	4.014447678478693	0.8000302651974289	109.21816420122434	0.7753941536992239	110.75815504433474	0.0534757743970999	-0.3621021807639888	0.4155779551610887	92.11441553296046
19	7.0	perception	111	diff_vonmises	0.0508167882279076	2.9115874938691912	0.7863845385841787	185.7505990024748	0.76218109739962	187.1886398976716	0.4322526780876714	-0.499761700332554	0.9320143784202256	99.44999947706532
20	7.0	wm	111	diff_vonmises	0.0450200656626132	2.5794597558695767	1.3300629831130577	2.125914120143851	0.4048058623323219	3.689642597011206	0.011269924209014	-0.3474069954621114	0.3586769196711254	89.13419630089828
0	1.0	ltm	209	diff_vonmises	-0.0769973905677489	-4.411625513052431	4.134796019755937	0.3944393801280137	2.462613389809988e-13	1.8545909756828507	0.0135928900032141	-0.2950882030986083	0.3086810931018224	67.30973381332896
1	1.0	perception	209	diff_vonmises	-0.069704116300536	-3.993751678709758	15.597942395906072	0.63547617115418	4.883693932951949e-21	2.324418157039703	0.6230423622873469	-0.3699426395053941	0.9929850017927412	34.29323946396136
2	1.0	wm	209	diff_vonmises	0.0069211296417287	0.3965515179339462	4.803778092021912	0.43501411719412	6.207076241427411e-16	2.03292486897161	0.0456446459505623	-0.3235252192613027	0.369169865211865	62.32917798318627
3	2.0	ltm	209	diff_vonmises	-0.0825480362274271	-4.7296540829246	2.295468762833919	1.395740820008002	0.6269067312499842	2.199197957202707	0.1868683263536472	-0.2397817566421612	0.4266500829958085	72.68743495661201
4	2.0	perception	209	diff_vonmises	-0.0416322818222427	-2.3853540399137265	6.812239852950034	1.106275413138859	0.2197397695818137	1.9381909188613144	0.7492729864034241	-0.3160050008807842	1.0652779872842084	50.53716413636087
5	2.0	wm	209	diff_vonmises	0.0017966550045284	0.1029407490005386	4.249276580069084	0.6288914601199083	0.2742201929919543	1.47995692755885	0.1955740873524286	-0.2275492798078054	0.423123367160234	61.15628874729592
6	3.0	ltm	209	diff_vonmises	-0.0490609253069882	-2.810983959096999	1.2904582284395076	162.50272429122495	1.2733772854817944	163.14211574548136	0.2550643325905923	-0.2334623484440285	0.4885266810346209	77.40921215325457
7	3.0	perception	209	diff_vonmises	-0.0462381855495196	-2.6492528843302683	4.041510791117643	2.022529417221556	0.331549861767676	2.690391191488648	0.9832456545408697	-0.3900135435007777	1.3732591980416473	63.84583622182066
8	3.0	wm	209	diff_vonmises	-0.073852464270044	-4.231434509314233	1.3477069895239022	154.2150110045806	1.3285642036852967	154.96619931029574	0.2305370150615076	-0.2542162834578576	0.4847532985193652	74.82078909354789
9	4.0	ltm	209	diff_vonmises	-0.1850253602533867	-10.601172245406673	1.2581789926456624	80.24554145559564	1.2212974245328876	81.12025299563197	0.208261340292033	-0.2725987218223427	0.4808600621143757	77.07277872553254
10	4.0	perception	209	diff_vonmises	-0.1210352755597355	-6.934810461775768	2.2851321891137766	2.730611853017626	0.2676420926326424	3.668423069949608	0.7764654061352708	-0.4530766622169156	1.2295420683521865	82.74030709636071
11	4.0	wm	209	diff_vonmises	-0.1744322453745855	-9.994231470954125	1.2260897301617724	282.25461612133745	1.214361478277502	283.34218588826474	0.1944086294454479	-0.317595458869107	0.5120040883145549	76.78988192705467
12	5.0	ltm	209	diff_vonmises	0.0068701159518074	0.3936286488040711	0.6872017892464515	133.6256522214758	0.670351373220101	134.07522156580774	0.3033110659659073	-0.2476480067726818	0.5509590727385891	109.2266614621428
13	5.0	perception	209	diff_vonmises	-0.0352030590442609	-2.016986709185991	1.8955231774398595	2.509987577285962	0.2647886527627174	2.956145597025016	0.6509531568850878	-0.334315195454281	0.9852683523393688	90.47888600212436
14	5.0	wm	209	diff_vonmises	-0.0249544085703969	-1.429782291328837	0.7842401597705791	152.89473180066932	0.7701728420732481	153.34943176607035	0.2752319056941061	-0.2189756501108988	0.4942075558050049	101.73186578951348
15	6.0	ltm	209	diff_vonmises	-0.1341704736530886	-7.687401875593187	0.379150116605477	141.16666869019642	0.3683308441620587	141.55958664795358	0.1911397790074502	-0.233100263609927	0.4242400426173773	137.31415924322033
16	6.0	perception	209	diff_vonmises	-0.0250759822404196	-1.4367479495210498	0.6541418830011292	138.32503409553527	0.6337594990671237	138.84369364997485	0.3945440264492887	-0.31798292236736	0.7125269488166488	112.4635037963378
17	6.0	wm	209	diff_vonmises	-0.1630545340554911	-9.342336631851794	0.5773766424196632	106.4888826581074	0.5595818896424245	106.83853185430172	0.2672654056597103	-0.2303913841425036	0.4976567898022139	118.9984086013932
18	7.0	ltm	209	diff_vonmises	0.0199869665307121	1.1451688274790364	0.8741941426885519	153.6111418890955	0.855945111103724	154.3619228153466	0.2986712555912589	-0.2823632206308151	0.581034476222074	94.95830082278216
19	7.0	perception	209	diff_vonmises	-0.0422454937998154	-2.420488498175515	2.267858003909472	1.832391591592788	0.0381589122183827	2.57482636969174	0.5937714177266638	-0.3833824063381719	0.9771538240648356	89.81026198169943
20	7.0	wm	209	diff_vonmises	0.1860142535653385	10.657831658570226	2.6740886996173447	0.8310500176427001	0.0270343076910598	1.467850026825479	0.269441842147739	-0.2249197020701275	0.4943615442178666	82.93265164344362
0	1.0	ltm	307	diff_vonmises	-0.009227913353207	-0.5287204888511781	6.886972853901616	0.5750035517185583	0.0939342517398883	4.236694937501387	-0.1489712286039399	-0.6890943342935759	0.540123105689636	49.4823918185445
1	1.0	perception	307	diff_vonmises	-0.0284923443905378	-1.6324910820110654	13.734119660746105	0.7316947493519061	0.0586035948394682	4.407367247581637	0.3281428186125764	-0.7217389085127517	1.049881727125328	36.14957419985217
2	1.0	wm	307	diff_vonmises	-0.0240342684858426	-1.3770621479230605	3.332825569483802	0.945326122390468	0.1765115382699967	4.986620193427181	-0.2824911097500275	-0.7701927432154626	0.487701633465435	65.436187829588
3	2.0	ltm	307	diff_vonmises	-0.0763601639652672	-4.375115118136764	1.8497500173006316	2.2155117353470763	0.5788984312636356	3.6665202943142665	0.1310309708264634	-0.366149495532736	0.4971804663591994	77.2344781090782
4	2.0	perception	307	diff_vonmises	-0.0548850128416019	-3.144679594345116	6.779461000919507	1.1424290964186583	0.2506635159458226	2.630641748299351	0.6334714066694697	-0.4359967919009984	1.0694681985704682	50.01570751532631
5	2.0	wm	307	diff_vonmises	-0.0225449751971558	-1.291731928024153	3.26567188922764	1.1322414792614193	0.3075682639945002	2.772625096925895	0.1917879889437224	-0.4033196812658136	0.5951076702095359	67.1628410968475
6	3.0	ltm	307	diff_vonmises	-0.086610804365438	-4.962433550372845	2.1199679089003536	1.6814661874572083	0.3494979607431785	3.004204897869237	0.2405249506958723	-0.3619707513829354	0.6024957020788078	80.29992927898263
7	3.0	perception	307	diff_vonmises	-0.0381561470565367	-2.1861861888200744	3.95196485858156	2.1260380836022748	0.3066934435216011	3.309380577624642	0.9246212434375772	-0.4845500172185985	1.4091712606561757	64.21879949089373
8	3.0	wm	307	diff_vonmises	-0.0536605221069701	-3.074521443197841	2.3159117714333632	1.728673604450523	0.4146067310240435	3.203173385373722	0.2341901154439913	-0.392970178813881	0.6271602942578725	75.66678581596153
9	4.0	ltm	307	diff_vonmises	-0.1701047980849727	-9.746287005193986	1.9342728903503672	1.665279059601498	0.1000638803618923	3.4512126342019287	0.2363090388102091	-0.4798630607800214	0.7161720995902305	92.15829894119408
10	4.0	perception	307	diff_vonmises	-0.0733325492254787	-4.201645571555284	2.1845740402777425	2.9683878677447018	0.1977039508408446	4.528725238864763	0.7450676708545405	-0.5856908367469286	1.3307585076014692	85.39270418753918
11	4.0	wm	307	diff_vonmises	-0.1598342415017599	-9.157827459725588	0.8760196131089488	242.50004683317556	0.8587606485301579	244.45196945832325	0.1836072307784491	-0.5004225720611224	0.6840298028395715	89.76061780525632
12	5.0	ltm	307	diff_vonmises	-0.057063118161466	-3.26947583650832	0.6053663778651848	204.4196788952405	0.589212771589458	205.39275367270736	0.3683947613480285	-0.4197764812973652	0.7881712426453937	114.42073190547389
13	5.0	perception	307	diff_vonmises	-0.0195287193257878	-1.1189131966632129	1.510046855279774	4.146443589455461	0.3769994868631107	5.054559081618714	0.6710863880968159	-0.4585781220581534	1.1296645101549694	94.61131810133492
14	5.0	wm	307	diff_vonmises	-0.0663603380416626	-3.802167296848712	0.7551136158639266	270.48405761906673	0.742937345269086	271.3667434276318	0.3703073602523403	-0.3577215802131057	0.7280289404654461	102.39451646460594
15	6.0	ltm	307	diff_vonmises	-0.0387829516506063	-2.2220994466396737	0.8059877681323427	2.500295606807982	1.8693773965877136e-20	3.02122310321649	0.2812127961827824	-0.3288159441071545	0.6100287402899369	137.0868092666365
16	6.0	perception	307	diff_vonmises	0.024183636272074	1.385620291669332	1.221214006855423	2.3429423833456164	5.8932289046768825e-18	2.949388177297401	0.4280284160694173	-0.391373612287642	0.8194020283570593	119.9050510820138
17	6.0	wm	307	diff_vonmises	-0.1409872004483143	-8.077971551053357	0.4968484399853151	186.80136235489536	0.4832151017781614	187.22332324753629	0.3724491098672544	-0.3288367616321572	0.7012858714994117	126.52085152123252
18	7.0	ltm	307	diff_vonmises	-0.0495144287245779	-2.836967790919647	0.6092533976104771	237.405364248364	0.5969518797594586	238.4792108733789	0.2683702306492321	-0.3860358230983394	0.6544060537475715	112.32706229070928
19	7.0	perception	307	diff_vonmises	0.0135955094844444	0.7789653137887462	0.8316394476195522	242.52387236708483	0.8149334509612556	243.41905874040452	0.4991661584320042	-0.4022907785629783	0.9014569369949824	98.55526805364929
20	7.0	wm	307	diff_vonmises	0.1486842879934382	8.518982181931667	0.8761778297141412	132.55699768618527	0.8532621156095488	133.52776764517054	0.2746903281190569	-0.3202858373086812	0.5949761654277381	93.7321951989854
0	1.0	ltm	474	diff_vonmises	-0.0128657310914475	-0.7371520918901856	4.308807656204686	0.2845176207677713	2.1681353702291526e-16	2.9419299721671286	-0.2404578734183044	-0.4681814929325742	0.2277236195142697	65.89879404064749
1	1.0	perception	474	diff_vonmises	0.0177316603673927	1.0159493028109965	10.90624553193658	0.8810347197904651	0.0713978098363562	3.658520988861883	0.5222879442633582	-0.5978506885817367	1.1201386328450949	40.525696320110086
2	1.0	wm	474	diff_vonmises	0.0709158948735741	4.063181476649231	3.891856685070228	0.4246861587094422	6.859618526348612e-20	3.1655243915674083	-0.1821442111861543	-0.5036748923978179	0.3215306812116635	69.43041027642687
3	2.0	ltm	474	diff_vonmises	0.049615276720895	2.842745955480971	3.6009529996459264	0.5627172614837815	0.1690853039945845	1.7999780218656891	0.0715169240937652	-0.2735073930237494	0.3450243171175147	66.45369102654328
4	2.0	perception	474	diff_vonmises	-0.0077578050827067	-0.4444894895242361	6.844618275716295	1.460762833137964	0.34792456211432	2.5402379169443	0.9387451689425848	-0.4263542489917254	1.3650994179343103	49.64520049192436
5	2.0	wm	474	diff_vonmises	0.0530365158879451	3.038768520457793	4.052436898035667	0.6447372434264209	0.1514653950376661	1.9706014681398736	0.1364070898656142	-0.3036413514264398	0.4400484412920541	63.73867254745625
6	3.0	ltm	474	diff_vonmises	0.0718898725464305	4.118986286643874	3.810751174052065	0.3573962736606333	1.505901033537403e-17	0.9021479033407198	0.1240056286919461	-0.1434502305355617	0.2674558592275079	70.18416182958555
7	3.0	perception	474	diff_vonmises	0.013718348940864	0.7860034961992758	4.613087334632578	1.6555147700866002	0.2138567231644339	2.088349877965252	0.9680065794159486	-0.3150533085448532	1.2830598879608015	61.326303355512096
8	3.0	wm	474	diff_vonmises	-0.0633690387157146	-3.630778470211566	3.8734451735545377	0.5449052877484681	0.104984510202317	1.1873404844786102	0.2023060427494978	-0.1807265191571309	0.3830325619066288	66.95863074458723
9	4.0	ltm	474	diff_vonmises	-0.1135984365520394	-6.508710973716521	2.6497187532220394	0.5894866850558754	0.1189144115816618	2.212190122420822	-0.0357340804981985	-0.3276453895128512	0.2919113090146527	76.50720034972443
10	4.0	perception	474	diff_vonmises	-0.0522810650580305	-2.995484376274028	2.188183680810118	3.016379870879596	0.2978407092480015	4.544008385035766	0.6897659347834197	-0.5517749419452824	1.2415408767287022	82.53807209357166
11	4.0	wm	474	diff_vonmises	-0.0235771644048406	-1.350872013283442	0.9200226261249344	305.03915570167527	0.909894129940657	306.8534345814571	-0.0009569769943027	-0.4059823108882625	0.4050253338939598	83.40134845886229
12	5.0	ltm	474	diff_vonmises	-0.0658400299039604	-3.772355836512062	1.4150518693724932	1.062117504674326	4.794944128266957e-15	1.934006393049832	0.13632650303642	-0.2815992444346434	0.4179257474710635	113.15926632275828
13	5.0	perception	474	diff_vonmises	-0.0189611772330153	-1.0863954300513246	1.88763289923215	3.022533682276615	0.2709697942904925	3.641948183416386	0.7593269343057233	-0.4104062283043437	1.169733162610067	90.26596367087166
14	5.0	wm	474	diff_vonmises	0.0869841934016039	4.983827166261612	0.879899722794409	3.846744071128459	0.3346110892998679	4.713442392469944	0.2071555673321468	-0.3110254581533038	0.5181810254854506	113.42370012468665
15	6.0	ltm	474	diff_vonmises	-0.0464532392943966	-2.6615745562802013	0.4535934062498865	139.117073497055	0.4420349687262878	139.78033921516433	0.141354122584282	-0.2542887356620511	0.3956428582463331	127.77660369684156
16	6.0	perception	474	diff_vonmises	-0.0533602705821755	-3.057318298034745	0.4725347031338568	168.9893719321397	0.4540171956454019	169.53485396415385	0.451382702735799	-0.4166736656305971	0.8680563683663962	129.0842459404935
17	6.0	wm	474	diff_vonmises	-0.0118925750826129	-0.6813943597761668	0.465248123207528	125.6007220113924	0.4472289410791009	126.26294609857574	0.2629902754706599	-0.3291743647193126	0.5921646401899725	128.4145036280819
18	7.0	ltm	474	diff_vonmises	0.1762076226044721	10.095953093270252	0.7594396940173818	126.18171885277252	0.7418521003720525	127.43990112166772	0.0555871834332393	-0.3017754336533027	0.357362617086542	94.929004454881
19	7.0	perception	474	diff_vonmises	0.0635582134809385	3.6416173858492686	0.8607297455302627	200.3730588556265	0.8397254068937231	201.44788369425245	0.4685331302323234	-0.4231094629508334	0.8916425931831569	96.1303405243315
20	7.0	wm	474	diff_vonmises	0.1196402431169642	6.854880990521149	0.6535230737068319	120.59180711952592	0.636393520817508	121.86588628706492	0.0453348824703425	-0.3083858223564171	0.3537207048267596	102.45209682667712
0	1.0	ltm	284	diff_vonmises	-0.0103999231244806	-0.5958717022932523	6.645057314338023	0.3862264823910205	0.0325027988165253	4.038061929471787	-0.2746762860962781	-0.6451275216179501	0.3704512355216719	51.39223697468174
1	1.0	perception	284	diff_vonmises	0.0091476679691866	0.524122767021404	11.637079616122572	0.8355347517507858	0.0777968398416854	4.4535059835198	0.3589400219777163	-0.7327794772088037	1.09171949918652	39.111628895093645
2	1.0	wm	284	diff_vonmises	0.0268722690718917	1.5396676037593289	4.125822079536431	0.5716970417773062	0.0672659896758594	4.437438929119806	-0.3075509302706081	-0.6993170372144683	0.3917661069438601	62.93978991728201
3	2.0	ltm	284	diff_vonmises	-0.068625639666576	-3.931959519280375	2.77357547330429	0.8780262309780968	0.2096510610921888	2.536331499480064	0.057348679661047	-0.3652261505893779	0.4225748302504249	73.1141835609252
4	2.0	perception	284	diff_vonmises	-0.0360433514051561	-2.065131915022369	7.127592447235696	1.2397336254830165	0.2171302922316289	2.910149022376584	0.7267866234636267	-0.4815265044729189	1.2083131279365456	49.09420030852107
5	2.0	wm	284	diff_vonmises	0.0153236238658318	0.8779789743581052	3.6907238043977433	0.8656286293039229	0.191084913532632	2.668546305939289	0.1273067727073883	-0.406011073408007	0.5333178461153953	65.37590505959028
6	3.0	ltm	284	diff_vonmises	-0.0411784333177966	-2.35935043607064	2.723041330208261	0.7654707710424127	0.1051030676469791	1.7755035764745626	0.161147696564639	-0.2597207192386447	0.4208684158032838	78.53780844537357
7	3.0	perception	284	diff_vonmises	-0.0129303998722196	-0.7408573400946842	3.903549698895282	1.9677231609806023	0.2577505271704901	2.888364241229658	0.9076864521116332	-0.4220456581797703	1.3297321102914037	65.37558895009542
8	3.0	wm	284	diff_vonmises	-0.0651869176225539	-3.734935259239312	2.817092838759233	0.9992782058380368	0.2569550584039923	2.1071173155784506	0.2047494206986133	-0.2930602102442852	0.4978096309428986	73.39586488489167
9	4.0	ltm	284	diff_vonmises	-0.1159627061362062	-6.644173642520429	1.9596589008466216	1.1610238832313324	0.1121145673721737	3.1071188274553445	0.0401473389768106	-0.4351770412859479	0.4753243802627586	89.21788936801369
10	4.0	perception	284	diff_vonmises	-0.0807190055520488	-4.624858344625457	1.9074108932242544	3.939055216795949	0.4023908295334792	5.6317546306376265	0.6868290351925863	-0.5978433416240446	1.2846723768166308	84.37670464605006
11	4.0	wm	284	diff_vonmises	-0.1138867485918597	-6.525230036781032	0.8172404557045535	320.25728238687327	0.8067415664720546	322.31155534473163	0.0155982791255837	-0.4618169346134877	0.4774152137390715	89.27044977273215
12	5.0	ltm	284	diff_vonmises	-0.0600562595405359	-3.4409702050149957	0.6938597958454396	8.674008799490348	0.4015876112419188	10.045667238844722	0.162626901065146	-0.414494102624526	0.577121003689672	115.80664419139023
13	5.0	perception	284	diff_vonmises	-0.0277219133238547	-1.5883486334843588	1.9062930401507192	3.1347427517477957	0.2410175185079482	4.35064600836852	0.7022915121583717	-0.5162017362034588	1.2184932483618305	89.62179900152239
14	5.0	wm	284	diff_vonmises	-0.0313478289405062	-1.7960982951890647	0.6514578581201851	310.2887942939757	0.6419096638442899	311.5974281774642	0.2050448524571635	-0.393849111427393	0.5988939638845565	106.54129583763672
15	6.0	ltm	284	diff_vonmises	-0.0243927100204433	-1.3975993350578737	0.9786747500899832	1.6628937603570195	6.336455616806898e-17	2.7473509939090084	0.1242460830057408	-0.3579487577942912	0.482194840800032	129.47800714755658
16	6.0	perception	284	diff_vonmises	-0.0463935373778548	-2.658153888433516	0.8215660386450955	3.3581200879988327	5.089370867050002e-20	4.381966518038529	0.3360770401567069	-0.4975565353402849	0.8336335754969918	136.36652841808586
17	6.0	wm	284	diff_vonmises	-0.1351942005925305	-7.746057108597055	0.500125627473599	208.04700098996133	0.4878717289758909	209.08959471015297	0.221146955368269	-0.3851042038869146	0.6062511592551836	122.73490026486138
18	7.0	ltm	284	diff_vonmises	0.0980921352149047	5.620265351240638	0.581611606602243	159.63490865612667	0.5662912405070107	161.04191747495167	0.0969402283098617	-0.3762004435488659	0.4731406718587276	110.59864627302156
19	7.0	perception	284	diff_vonmises	0.0258522053172815	1.4812222557859	0.8822486188450501	331.1259581665448	0.8688532258342277	332.25917323273325	0.4866268285336872	-0.4392080553277999	0.9258348838614872	94.648666215448
20	7.0	wm	284	diff_vonmises	0.1355969190224058	7.769131174961042	0.8330422360973292	139.48896866763044	0.8124529471808523	140.82243482793984	0.1402548289725729	-0.3490028961761418	0.4892577251487147	92.62896973904742
0	1.0	ltm	382	diff_vonmises	-0.0280892542721162	-1.6093957194620785	4.712033389008402	0.2950488692205694	5.903463954699077e-19	2.6048390214853336	-0.1667373651768635	-0.4145529873989531	0.2478156222220896	62.94603651208644
1	1.0	perception	382	diff_vonmises	-0.0238400054538566	-1.3659316960748484	13.609363525591784	0.7019626618070034	0.0298426083958875	3.153130936106431	0.5060738830109163	-0.5081309918210746	1.0142048748319907	36.55186613314629
2	1.0	wm	382	diff_vonmises	0.0172391229129849	0.9877289854213122	4.902244152617798	0.3662863064380458	5.280827842777655e-16	2.8460457054028403	-0.1386705633546131	-0.4529448923469332	0.31427432899232	61.67850337201091
3	2.0	ltm	382	diff_vonmises	-0.0186505519780236	-1.0685979139301216	3.463823469051615	0.6020350836361518	0.1500512997170481	1.8892717855163317	0.0801642214881561	-0.2856188287699774	0.3657830502581335	68.16490954782591
4	2.0	perception	382	diff_vonmises	-0.0244200781407984	-1.3991674128474303	7.239411992537875	1.244781308726216	0.2582019196550598	2.547055237383001	0.7950249883376804	-0.4250910919265105	1.220116080264191	48.66341029298425
5	2.0	wm	382	diff_vonmises	0.0250480329803525	1.4351465748786925	4.032973900009582	0.632434522047304	0.1627712687159147	2.071456343723005	0.1029772512574087	-0.3199369224386698	0.4229141736960785	63.38729363528788
6	3.0	ltm	382	diff_vonmises	0.0192765850417286	1.104466966316066	2.5284317526726143	0.9531470504853802	0.3937864688081526	1.793367826139362	0.1582635888050678	-0.2296236631403054	0.3878872519453732	73.83079415808487
7	3.0	perception	382	diff_vonmises	-0.0165930240989296	-0.9507102502275332	4.325828781619146	1.9663114882619883	0.281859421158374	2.7572911920288408	1.0071860984455343	-0.4105869856476848	1.4177730840932192	62.27300997566371
8	3.0	wm	382	diff_vonmises	-0.0601095480791412	-3.4440234133734977	2.925141222697618	0.9105025780482487	0.3307899085551385	1.9315479262932869	0.1712746537926533	-0.2677278917643328	0.4390025455569862	70.51345850236362
9	4.0	ltm	382	diff_vonmises	-0.1229823817778788	-7.046371430339059	1.7433504000530418	1.625909986165203	0.4376786924230434	3.1834992511348448	0.023077798432752	-0.3491983802257959	0.3722761786585479	80.1604077239424
10	4.0	perception	382	diff_vonmises	-0.0796461821804082	-4.563390093267459	2.1889978542290622	2.9694514834551216	0.3028984957902013	4.499913662735781	0.6696498486009129	-0.545455130154671	1.215104978755584	82.34269054558763
11	4.0	wm	382	diff_vonmises	-0.1148665143926407	-6.581366482077039	0.9803021803881216	305.9801500130408	0.969702139014242	307.7579968905934	0.0174892222764952	-0.4071840182443225	0.4246732405208178	81.20949691211564
12	5.0	ltm	382	diff_vonmises	-0.0031565585007059	-0.180857479876591	1.5632332519192806	1.3102547358331558	0.1053854860023933	2.2503221578604897	0.185082178134155	-0.2959026298768978	0.4809848080110528	101.9273924923584
13	5.0	perception	382	diff_vonmises	-0.0303265287853765	-1.7375821066840786	2.0208890989261725	2.6059806963960086	0.2121511983187258	3.434390331990316	0.6845856941209367	-0.422687267513448	1.1072729616343846	88.77919513607782
14	5.0	wm	382	diff_vonmises	0.0095170530042845	0.5452869705478065	0.6496200759420804	114.96922692114624	0.6289804819758493	115.9726332750804	0.178653148707319	-0.3141271360680644	0.4927802847753835	107.67641095291216
15	6.0	ltm	382	diff_vonmises	-0.1115770561262605	-6.392894406529034	0.4341310811203392	137.26221278645775	0.4220728429242065	138.0596307854271	0.1202067379408475	-0.2780495319280565	0.398256269868904	129.04781812901976
16	6.0	perception	382	diff_vonmises	-0.0440865998993159	-2.5259761073126845	0.7485239360338088	5.93426315782678	0.2913254060636144	6.768507641716882	0.3320874081349925	-0.3979840256873337	0.7300714338223262	122.9445312948212
17	6.0	wm	382	diff_vonmises	-0.0795810927042764	-4.559660740994385	0.4800633564233256	169.77128054458322	0.4680860107259373	170.60076374166673	0.1787005634955818	-0.3128561709144595	0.4915567344100413	124.94427698568173
18	7.0	ltm	382	diff_vonmises	0.0620814746054415	3.557006480840399	0.8358750478914829	173.62812792333705	0.8205932499320426	174.8770923591804	0.122368545311204	-0.3231541894386325	0.4455227347498365	92.09146850725637
19	7.0	perception	382	diff_vonmises	0.0038928473385934	0.2230437227901399	1.1100099630896916	6.061969297658635	0.489345094088594	7.193435682556882	0.4363142121620402	-0.4334354195055739	0.8697496316676141	99.69323106915304
20	7.0	wm	382	diff_vonmises	0.1218840234009312	6.983440130947124	0.8071627591799385	62.4422191790288	0.7697926217006839	63.67413792597074	0.0786617552197377	-0.3037048827578648	0.3823666379776025	93.31155946366934
0	1.0	ltm	261	diff_vonmises	-0.0189814717178635	-1.0875582183805204	7.607091978522698	0.2806219964948899	0.0363527320841159	3.641079956315671	-0.29739797162335	-0.5846479093586326	0.2872499377352826	47.835884870982056
1	1.0	perception	261	diff_vonmises	0.0083067421607189	0.4759412673125786	12.324921212712148	0.836171130893846	0.1003343909753135	4.215703828386706	0.4183788890522699	-0.7028663844920002	1.1212452735442702	37.92956088921679
2	1.0	wm	261	diff_vonmises	0.0045673827883942	0.2616917571956829	5.649611727570765	0.3756965753275142	0.0491732234232727	4.036989779684309	-0.3269159836410116	-0.6450782905814724	0.3181623069404607	54.7137390550335
3	2.0	ltm	261	diff_vonmises	-0.048177586675337	-2.760372383622524	3.752274630650956	0.5185611448027975	0.0515260497329859	2.1433411835900777	0.0260331299847475	-0.3331527918108007	0.3591859217955483	68.13219356153385
4	2.0	perception	261	diff_vonmises	-0.0324283350005432	-1.8580067321674985	7.913985187520958	1.2615981873111142	0.2793383262733185	3.0284324634615865	0.7669817507693062	-0.5181510252746604	1.2851327760439666	46.32633519757493
5	2.0	wm	261	diff_vonmises	0.0093009615242511	0.5329058407531576	3.632762182250405	0.7667006242417173	0.16653549714349	2.694580473871398	0.0559675422310992	-0.4118390719495123	0.4678066141806115	65.87133623346026
6	3.0	ltm	261	diff_vonmises	0.0230892727407263	1.3229178800700778	2.823280831049985	0.7146383564697045	0.2903918765942451	1.56828455411872	0.1252593591138197	-0.2176247727284348	0.3428841318422546	72.20455307905158
7	3.0	perception	261	diff_vonmises	-0.0085773431401779	-0.4914455613676833	4.354088932699345	1.972208385537396	0.3491868071222377	2.816370419226889	0.970962952304374	-0.4191311756285353	1.390094127932909	61.3685320423418
8	3.0	wm	261	diff_vonmises	-0.0586642062908786	-3.3612114289521573	3.3263448536603613	0.7263054887291776	0.225500400204713	1.8318067612587523	0.1435720147345922	-0.2698102875843078	0.4133823023189	68.38724553794512
9	4.0	ltm	261	diff_vonmises	-0.0860887900693629	-4.932524334362251	0.9402380966430308	8.32427714763039	0.6256077340587703	10.230017462670563	-0.0161246144177158	-0.4165724641936768	0.4004478497759609	90.4200940037474
10	4.0	perception	261	diff_vonmises	-0.0589388912361271	-3.3769497170106835	2.279521387034528	2.9502329577572586	0.3358132228952439	4.714709687041541	0.6254114061796854	-0.575686180355039	1.2010975865347244	79.74317887456507
11	4.0	wm	261	diff_vonmises	-0.1130455420958339	-6.477032454859767	0.8243852735313116	283.2219340273467	0.8134516306241258	285.3105954017068	-0.0483435565379721	-0.4471398973024421	0.3987963407644699	86.91705625454574
12	5.0	ltm	261	diff_vonmises	-0.0064335685080253	-0.368616322718129	1.845156198389872	1.1477571485615303	0.0389740397026712	2.442645084200851	0.1598020267391299	-0.3596800058507304	0.5194820325898604	98.05739393011248
13	5.0	perception	261	diff_vonmises	-0.0289294644852576	-1.6575362185788651	2.376162755902985	2.3980594267577144	0.11670630229382	3.600073891033423	0.729834850010714	-0.5021397988673648	1.231974648878079	84.85122112260837
14	5.0	wm	261	diff_vonmises	-0.0262416964045154	-1.5035384512423648	0.6327009827175001	115.3546854625679	0.6087630351993163	116.74222511478514	0.1528278415423756	-0.3908567731175267	0.5436846146599024	107.56739794008875
15	6.0	ltm	261	diff_vonmises	-0.066400090509531	-3.804444945482799	1.1684181038613686	1.3049334758673987	3.0044628554279967e-16	2.2950076971604028	0.1218531408799045	-0.3181898565180046	0.4400429973979092	121.85810258018556
16	6.0	perception	261	diff_vonmises	-0.0453186319259888	-2.5965663426659904	0.7809888322147881	3.054158185717793	2.7154713485119635e-22	4.07376860143589	0.2679117181141109	-0.4561915508807046	0.7241032689948156	138.2412601952675
17	6.0	wm	261	diff_vonmises	-0.1256277770596579	-7.197941415128823	0.4538334036189006	196.7364981537016	0.4427140489355727	197.7740367065735	0.1603179951657978	-0.3589447324785055	0.5192627276443034	126.8204286131178
18	7.0	ltm	261	diff_vonmises	0.1168591951964279	6.695538682050783	0.7397508764287275	166.78277790501144	0.7260101141316041	167.95335337636917	0.0984060079145265	-0.3014103324489792	0.3998163403635058	97.7299737800827
19	7.0	perception	261	diff_vonmises	-0.0076600361773606	-0.4388877438802899	0.7804989967744923	249.2180262157305	0.7665717093686224	250.171364223	0.3793840561641701	-0.372238115052653	0.7516221712168232	100.54512066071143
20	7.0	wm	261	diff_vonmises	0.12586916653634	7.211772013361578	0.8428164775730943	146.92983274247783	0.826668813949297	148.1054050386457	0.0899421271929199	-0.2942626164142972	0.3842047436072171	91.00689555961571
0	1.0	ltm	428	diff_vonmises	-0.1575442310614952	-9.026619526457528	2.294460928564884	0.4458708385235877	5.185977039888379e-16	2.1197070940570697	-0.0875819566821116	-0.3348231450431604	0.2472411883610488	90.75683532974573
1	1.0	perception	428	diff_vonmises	-0.0471690584296777	-2.7025879716265138	15.124259360273175	0.6998677385441038	9.199150129902109e-19	2.576657631013062	0.6662718355610162	-0.4100877986311032	1.076359634192119	34.835756271267115
2	1.0	wm	428	diff_vonmises	0.0502325359327717	2.878112303187073	2.57639586312802	0.5215057958310599	2.240478414011196e-27	2.3045712975738173	-0.0539598154954931	-0.3649747567372809	0.3110149412417877	85.6887120304346
3	2.0	ltm	428	diff_vonmises	0.00851843350878	0.4880702881159139	4.316675545157538	0.39557986527652	1.629588668601216e-14	1.334205359868604	0.1046055122654368	-0.2122889219709739	0.3168944342364107	65.84332466696651
4	2.0	perception	428	diff_vonmises	-0.0283201263803592	-1.6226237168716884	7.297402978500725	1.224048779254629	0.2768228911239498	2.0585693248411188	0.8707708928067486	-0.343058299274581	1.2138291920813296	48.64908398308336
5	2.0	wm	428	diff_vonmises	0.0105215848944037	0.6028424082379322	4.263789483776675	0.5612802876167909	0.1762568778837311	1.5575882399574963	0.1533539857123307	-0.2407565199013273	0.3941105056136581	62.139265782861685
6	3.0	ltm	428	diff_vonmises	-0.0116473715626137	-0.6673452329584623	2.655874246986002	0.790025521296791	0.3659652468711038	1.345164396909759	0.1837361950300125	-0.1737287143589933	0.3574649093890059	74.04908258441998
7	3.0	perception	428	diff_vonmises	-0.0238347106851528	-1.3656283281746249	3.892332185092341	2.10323799312838	0.3581113805199194	2.515660392743184	1.0381561673370432	-0.3555149167854184	1.3936710841224615	65.00690240713024
8	3.0	wm	428	diff_vonmises	-0.1176693547595037	-6.741957405747188	2.5045662965259377	1.2147354015042615	0.5744349187334497	1.856015963025512	0.2327634837880817	-0.2140562839870536	0.4468197677751354	72.27960560426342
9	4.0	ltm	428	diff_vonmises	-0.1347257578272601	-7.719217315203619	1.977101591633956	1.6124877848537933	0.6447347114819646	2.6601166732710824	0.0970940711305223	-0.2688675477119025	0.3659616188424249	74.12463515176097
10	4.0	perception	428	diff_vonmises	-0.1021627015672722	-5.8534916234592576	2.242128965685981	3.172550391165049	0.3884964457192277	4.116924636256743	0.822151908060078	-0.4667371806555301	1.288889088715608	80.87647664095641
11	4.0	wm	428	diff_vonmises	-0.120461904595779	-6.901958725445713	1.1365718152919382	272.3838121423071	1.125345881378035	273.6476655898725	0.1086309221779515	-0.327343468864143	0.4359743910420945	77.83647522561537
12	5.0	ltm	428	diff_vonmises	0.0069425424103065	0.3977783792011445	0.6248554069453873	120.76877064357627	0.6091445024869152	121.61437093673362	0.1336518402339948	-0.2597154569751421	0.3933672972091369	109.2242017609984
13	5.0	perception	428	diff_vonmises	0.0044302269405085	0.2538333059762926	1.7974139768092496	2.8558444919381047	0.2956683107651933	3.592640141744242	0.6288620376479299	-0.3907119860793847	1.0195740237273143	90.9019898879922
14	5.0	wm	428	diff_vonmises	0.017588872961533	1.007768187087613	0.5696519382444248	145.94655759395374	0.5562140950715994	146.85323997132568	0.1364428306351186	-0.2857281686675694	0.4221709993026881	114.38446097773632
15	6.0	ltm	428	diff_vonmises	-0.1954219230643359	-11.196851415916733	0.3795566935812618	168.8365622369096	0.3703930733568548	169.77326048076242	0.0735421227135262	-0.2930541258954946	0.3665962486090208	133.76011766313752
16	6.0	perception	428	diff_vonmises	-0.0109658154155708	-0.6282949422317075	0.5741020781925477	298.80480715413427	0.5626135116789841	299.74751509116	0.4038516284137614	-0.4431576826323109	0.8470093110460724	117.53512760349108
17	6.0	wm	428	diff_vonmises	-0.1105092648456757	-6.33171447275066	0.4396060206327833	111.3662708837888	0.4200649876929735	112.3715001337943	0.1686037796770598	-0.3611394683532101	0.52974324803027	129.11466566006976
18	7.0	ltm	428	diff_vonmises	0.1295988726205782	7.425468430812692	0.8461328444084005	167.2348052034921	0.8315636442446712	168.37546487841655	0.1117953171213486	-0.2948071501161848	0.4066024672375334	91.47811309714992
19	7.0	perception	428	diff_vonmises	0.0406782291380421	2.330690847675906	2.1476126037210816	1.6690548566893455	6.741318505876488e-18	2.788851208268848	0.4548867286804056	-0.4316055217331404	0.886492250413546	93.75747797132756
20	7.0	wm	428	diff_vonmises	0.1676835762431677	9.607561212393666	0.7878466458413416	32.648259635860875	0.7237278118192758	33.789542199598834	0.069694785097818	-0.2814271590168853	0.3511219441147033	95.32065339855951
0	1.0	ltm	238	diff_vonmises	-0.1586671228293615	-9.090956485606249	3.5509446126176565	0.4236643723638833	0.0241216558535187	1.2017671530498617	0.1091665697180663	-0.1874777216387164	0.2966442913567828	71.63997473503531
1	1.0	perception	238	diff_vonmises	-0.0794507016983797	-4.5521898866700425	16.37410664546314	0.6848339190586789	9.289626019882635e-27	1.7581964910332954	0.8164837620913332	-0.2798256624747676	1.096309424566101	33.47825310834381
2	1.0	wm	238	diff_vonmises	0.0105508970281094	0.6045218697877957	4.545543049154807	0.4392138060693893	8.053169862790488e-20	1.3197557884214026	0.1518284565211237	-0.2100048777937905	0.3618333343149142	64.11925682720226
3	2.0	ltm	238	diff_vonmises	-0.0704734538023942	-4.037831470587372	2.5738903302602223	1.0691950286370733	0.778616152670161	1.3837292255726652	0.2264819344574427	-0.1424809280852706	0.3689628625427133	70.09780073202347
4	2.0	perception	238	diff_vonmises	-0.0422321489287857	-2.419723893387366	7.120490702209263	1.130345425849113	0.4050337585642979	1.417686020932245	0.8555635531972026	-0.2384203769632096	1.0939839301604122	49.00476779071582
5	2.0	wm	238	diff_vonmises	-0.0135734916902701	-0.7777037871083734	4.314912995112552	0.583749868335697	0.4843072571848504	0.9047355818224	0.247091446733959	-0.1350526951090801	0.3821441418430391	59.9161375394379
6	3.0	ltm	238	diff_vonmises	-0.0326202936619935	-1.8690051533095775	1.5828760306760732	108.79384901107522	1.56485974085555	108.96099508448336	0.2632438001588326	-0.1273368593010957	0.3905806594599283	72.83620353190926
7	3.0	perception	238	diff_vonmises	-0.0439248176983298	-2.5167066699958456	4.117080358370382	1.9551861228795515	0.5481662349740125	2.0845456940813847	0.9936960369726768	-0.2884654702516195	1.2821615072242962	62.176505858783855
8	3.0	wm	238	diff_vonmises	-0.0956460710382701	-5.480116197501334	1.6927904322282994	138.87251291835918	1.6762051908065705	139.1206089683418	0.2719270543297654	-0.1525840970728094	0.4245111514025748	69.55049296221958
9	4.0	ltm	238	diff_vonmises	-0.1983588803249446	-11.365126671559914	1.600159724054109	130.0859971044217	1.5811677643038826	130.43348705772908	0.2684469458746648	-0.1748197612368098	0.4432667071114746	70.86155199100739
10	4.0	perception	238	diff_vonmises	-0.1190413730129853	-6.820568261086597	2.7912924606494256	2.1725138843826737	0.2222552062247398	2.545710155509875	0.865431502078805	-0.338799239093764	1.204230741172569	77.4351311587591
11	4.0	wm	238	diff_vonmises	-0.1756836152899945	-10.065929685716709	1.427511229921826	208.64156764764877	1.4142548524707783	209.20349911120076	0.2567494888189259	-0.2195348838230302	0.4762843726419561	73.71266130962704
12	5.0	ltm	238	diff_vonmises	0.0302613759256342	1.7338491227976374	0.7311091377733916	111.65123254360697	0.7152428209155873	111.69451145005448	0.3254992665903842	-0.164454819490512	0.4899540860808962	109.4228437301917
13	5.0	perception	238	diff_vonmises	-0.0135257293389857	-0.7749672059601537	2.080369069120951	2.0652079261645238	0.2242261315798725	2.15910492904971	0.6663718211735585	-0.2583014488170059	0.9246732699905644	88.80541967819912
14	5.0	wm	238	diff_vonmises	0.000587556156837	0.033664488013687	0.8279692055843864	106.86111801555695	0.8122567823146656	106.89445106568822	0.3103863805154105	-0.1414787593212558	0.4518651398366664	103.09040856799874
15	6.0	ltm	238	diff_vonmises	-0.164905740923595	-9.44840297239978	0.3925055835742889	126.99305150502956	0.3814386738750824	127.01997612066364	0.2510251282881164	-0.1769957422249763	0.4280208705130928	137.72684285638425
16	6.0	perception	238	diff_vonmises	0.0007187652743511	0.0411822166808837	0.7211574445313548	189.9172770596912	0.7059480482033397	190.11440640278093	0.4945436697203362	-0.2796409183260486	0.7741845880463849	109.2527518807528
17	6.0	wm	238	diff_vonmises	-0.1946321142792337	-11.151598705908016	0.6125639846115735	29.897960564245544	0.5507863797226165	29.852986304864213	0.3604264765523801	-0.1896491212741407	0.5500755978265208	120.9238095529914
18	7.0	ltm	238	diff_vonmises	0.0925445358452008	5.30241132092717	0.9430730430305594	152.4547238118979	0.9281081387651768	152.75942221262042	0.333693615504167	-0.1953983688418965	0.5290919843460635	94.24512681616568
19	7.0	perception	238	diff_vonmises	-0.0518653651423285	-2.9716665255603623	2.499304876964168	1.503555523979582	1.304127439717642e-14	1.8311589688630157	0.5945545165452516	-0.2854599219778547	0.8800144385231063	87.00470345566839
20	7.0	wm	238	diff_vonmises	0.2412341312516899	13.821697595226787	2.6189342606459003	0.7691758691890609	3.4251303273822334e-17	0.958181690880154	0.3133189559696117	-0.1500250649155077	0.4633440208851194	84.95903833070795
0	1.0	ltm	117	diff_vonmises	0.0081601324788415	0.4675411513052466	6.732991768612998	0.3183009092197266	0.0434319936527082	3.437226579034677	-0.2482395423590612	-0.5511394540232553	0.302899911664194	50.6674950532219
1	1.0	perception	117	diff_vonmises	-0.0052902124737801	-0.3031068474750647	13.270061597834056	0.684211408609213	0.0673127748587652	3.8453500845678015	0.3305793671877568	-0.631950557027148	0.9625299242149048	36.72982496599013
2	1.0	wm	117	diff_vonmises	0.0040969111433406	0.234735717553537	4.031315587994009	0.5164049613440005	0.0921174952701427	3.9373180569815553	-0.2869335940166752	-0.621148226201172	0.3342146321844969	62.407303054137856
3	2.0	ltm	117	diff_vonmises	-0.0195306541318882	-1.1190240528869415	3.032982626078569	0.7285594447789978	0.1875274548746648	2.2654133300835544	0.0490316663489622	-0.3342975372994885	0.3833292036484507	70.87431927781716
4	2.0	perception	117	diff_vonmises	-0.0248687980939582	-1.4248771723467943	7.305086804562919	1.211081394877956	0.2805958005081918	2.894835662957044	0.6835324380383986	-0.4897987204102272	1.173331158448626	48.06247040986344
5	2.0	wm	117	diff_vonmises	0.0256339302069605	1.4687160131917538	3.6959221446790687	0.7892029497013437	0.203906986061502	2.6308566112520877	0.0728273478791479	-0.4022067477226931	0.475034095601841	64.66014968925433
6	3.0	ltm	117	diff_vonmises	0.0124570697434784	0.7137375214014327	2.4617126263493594	1.2451036391852393	0.468855486566139	2.4618677404010656	0.1340229850764301	-0.3098420024792337	0.4438649875556639	71.99929328537792
7	3.0	perception	117	diff_vonmises	-0.0170550499405292	-0.9771823809771693	4.490228496098967	1.9904564925566035	0.2884887548552317	3.2052573611036737	0.9625867438123726	-0.4860076064304435	1.448594350242816	60.78461267515445
8	3.0	wm	117	diff_vonmises	-0.01009419472484	-0.5783547553165532	3.175952067780432	0.8492287508773305	0.2348349329240054	2.3989857053552925	0.0981558165114172	-0.3529285110100164	0.4510843275214335	68.78304200110051
9	4.0	ltm	117	diff_vonmises	-0.0876892746732998	-5.024225347343504	0.9746870153827404	7.00279115527795	0.5835518006323624	9.03175875617602	-0.0109852129468608	-0.4455465899149127	0.4345613769680518	91.0817919153503
10	4.0	perception	117	diff_vonmises	-0.0573386492351194	-3.28526260415337	2.202928537392596	2.8423687754296703	0.26129524168543	4.705294876399593	0.5979611901684353	-0.5924890318677377	1.190450222036173	82.58164143043084
11	4.0	wm	117	diff_vonmises	-0.1067935534038776	-6.1188198892471535	0.8371042006449995	267.3834516981466	0.8239117530895437	269.6603986575317	-0.0283869431561356	-0.4961579726749257	0.46777102951879	87.00338789891478
12	5.0	ltm	117	diff_vonmises	-0.0058757647274531	-0.3366565202949041	1.5438087974127166	1.7893199570879827	0.1861875451825428	3.075636437074611	0.2040787940081428	-0.3691678973922135	0.5732466914003564	97.50307546203786
13	5.0	perception	117	diff_vonmises	-0.0354375877915063	-2.0304242165776434	1.911758126204496	2.954721926284275	0.2486430645775961	4.205585042439844	0.6380408224475556	-0.4982803028093764	1.136321125256932	89.0467166061666
14	5.0	wm	117	diff_vonmises	-0.0162639940653923	-0.9318582179727988	0.6659323809358042	114.3045085321157	0.6400215282920034	115.69798125926891	0.1824026734852708	-0.4002183585949499	0.5826210320802208	105.34240602859364
15	6.0	ltm	117	diff_vonmises	-0.0889004563829607	-5.093620947530512	1.1197723469727716	1.5842828819108223	4.392025973680138e-17	2.6163564838032114	0.1606411102238133	-0.3549463275280182	0.5155874377518316	123.70432347560418
16	6.0	perception	117	diff_vonmises	-0.0257053336668948	-1.472807130088622	1.261844797932809	2.074664510152572	2.417079060001511e-19	3.1959705816215496	0.3014817274758463	-0.4437057486027055	0.7451874760785518	118.4352815419384
17	6.0	wm	117	diff_vonmises	-0.0848973876570471	-4.864262004434848	0.4847982712327706	209.10707823967297	0.473357428165667	210.18964253422467	0.1838993878739856	-0.3763128635120623	0.5602122513860479	123.71368206596128
18	7.0	ltm	117	diff_vonmises	-0.0224879887495948	-1.288466845089465	0.7802555368619817	281.2972630732338	0.7694162773131763	282.9055888450709	0.1032791048321115	-0.3974644701006724	0.500743574932784	94.18423614569554
19	7.0	perception	117	diff_vonmises	-0.0228069078758249	-1.306739565028446	0.7184622469613658	242.3303911041836	0.7013993386811753	243.7806473031252	0.3753477720074869	-0.4919020988528935	0.8672498708603804	103.40294400199224
20	7.0	wm	117	diff_vonmises	0.1364786817856143	7.819652459824681	0.8524564917553437	127.12815686386192	0.8293993596294619	128.71549197764017	0.0685471446386145	-0.3774300563192767	0.4459772009578913	89.36771929685398
0	1.0	ltm	215	diff_vonmises	0.0040110692870787	0.2298173414841619	4.831311969337151	0.2446290311172372	8.902443402753062e-16	2.2483383479105936	-0.1495669866094505	-0.3578209113722173	0.2082539247627667	62.142954925427546
1	1.0	perception	215	diff_vonmises	-0.0245656425719097	-1.4075076403973323	13.778416217040425	0.6172224800675589	0.0274528038442697	2.782828975611129	0.449975099297686	-0.4480145033055525	0.8979896026032386	36.34343125395381
2	1.0	wm	215	diff_vonmises	0.026197091923951	1.5009828027586511	5.320871570700238	0.3184868311688901	7.2312380878515e-08	2.490063267826195	-0.110906112203962	-0.3962990259783465	0.2853929137743844	59.154192968766864
3	2.0	ltm	215	diff_vonmises	-0.0050038542043769	-0.2866997272095896	3.5418253412280385	0.6020799911843572	0.1992535442408217	1.8326987954527865	0.0804256375186622	-0.2768048905249924	0.3572305280436547	66.35596790944868
4	2.0	perception	215	diff_vonmises	-0.0127263640875542	-0.7291669507637172	7.239343123632386	1.2109935890022805	0.2786708579110372	2.525921714998116	0.7546656698225346	-0.4242500078181955	1.17891567764073	48.49814509942121
5	2.0	wm	215	diff_vonmises	0.058035313082141	3.325178502327056	4.350487991613446	0.5450615764896949	0.1684281332625327	1.9574641474899344	0.072516532251635	-0.3064820607027811	0.3789985929544162	60.90457512714468
6	3.0	ltm	215	diff_vonmises	0.0515090509518513	2.9512512262653976	1.3352929576117485	50.19060003831137	1.2814137714899454	51.09908246733301	0.1328185567510118	-0.2609202176926501	0.393738774443662	73.41198112617042
7	3.0	perception	215	diff_vonmises	-0.0169646191241042	-0.972001076858098	4.744885184887808	1.860109708769101	0.270781084676389	2.8136070509969997	0.9920117954848512	-0.4301908241052613	1.4222026195901123	59.62650603403284
8	3.0	wm	215	diff_vonmises	-0.0016764795112945	-0.0960552004373345	2.954951750493584	0.8388516540745281	0.3698551289101667	2.023170960366997	0.0941270851970371	-0.2849470414704451	0.3790741266674822	68.28260338073667
9	4.0	ltm	215	diff_vonmises	-0.1052158320282616	-6.0284231131767845	1.0076222123499057	145.0130708971281	0.988844007065234	146.57651347878607	-0.0157301123610338	-0.3502613371665042	0.3345312248054704	79.1762575248037
10	4.0	perception	215	diff_vonmises	-0.0784238892118202	-4.493357864838849	2.2710060995227743	2.597550256054598	0.2605826417696131	4.206453074714423	0.5919670559942583	-0.5334752287170589	1.1254422847113172	81.79394029419404
11	4.0	wm	215	diff_vonmises	-0.1141117670141403	-6.538122642690404	1.027345441907162	316.3949283208026	1.017101617920599	318.2155824612517	-0.016157924191944	-0.4105968988117965	0.3944389746198524	78.27457829688436
12	5.0	ltm	215	diff_vonmises	0.0282649524620409	1.6194624842128535	1.787258341982288	1.2552634193003211	0.1714297623632792	2.1888598062591686	0.1943410814162682	-0.2777390745083471	0.4720801559246154	92.74427265494032
13	5.0	perception	215	diff_vonmises	-0.0509388294802536	-2.9185799425551107	2.1216637441057054	2.4318451149887164	0.2142446931226875	3.31677527765631	0.6534453969593303	-0.4153961603268626	1.0688415572861931	86.68253547779503
14	5.0	wm	215	diff_vonmises	0.0382494668996629	2.191533021976027	1.2193793212975563	2.1083768730218897	0.2682242925027264	3.151850204825552	0.1625817673905241	-0.3077504686049307	0.4703322359954549	102.85811481506252
15	6.0	ltm	215	diff_vonmises	-0.1330895932522374	-7.625471990466004	0.4949330965924902	142.46104277940944	0.4825834078307078	143.28564037239266	0.1274531162895229	-0.2768556085395293	0.4043087248290522	122.34806156393938
16	6.0	perception	215	diff_vonmises	-0.0693289786929968	-3.9722578770611294	0.8767189960141419	4.944368637767285	0.3452644883184948	5.870528858032844	0.2925864804708014	-0.3697148628743472	0.6623013433451486	113.87780281212626
17	6.0	wm	215	diff_vonmises	-0.0631324077957008	-3.617220517192476	0.5304556750198233	154.90013088434898	0.5178100096566418	155.76669176975122	0.1507049598329288	-0.2931855137722134	0.4438904736051423	118.96023614592428
18	7.0	ltm	215	diff_vonmises	-0.0069068650591044	-0.3957342175530586	0.9334026879113496	224.17442488650696	0.9195347895682024	225.59313096286837	0.1281139898111689	-0.361372232898308	0.4894862227094769	86.59382426908459
19	7.0	perception	215	diff_vonmises	-0.0553518913057057	-3.171429759883813	1.7551625488623686	2.274843109207925	0.1126145576666045	3.6220061772504017	0.4409797345492725	-0.481038596007974	0.9220183305572466	97.08543817177642
20	7.0	wm	215	diff_vonmises	0.1521489516859223	8.717492788943222	1.9478639429900813	1.1152297688340749	0.2517582515843646	2.4892342984327214	0.0645835697286082	-0.316635393563456	0.3812189632920643	83.7324189604619
0	1.0	ltm	336	diff_vonmises	0.0558369377565838	3.199220874386928	7.037677448991336	0.1441049146245739	0.0009170048339097	3.1864384655197084	-0.3580082871899296	-0.5070258204541106	0.149017533264181	51.16860440110028
1	1.0	perception	336	diff_vonmises	0.0388872824425475	2.22807716069116	11.270073571128233	0.7856209551592048	0.110118346901471	3.8815984641459496	0.3523014404991311	-0.6478398692012008	1.000141309700332	39.53282416218573
2	1.0	wm	336	diff_vonmises	0.0906878752801334	5.196032506560436	6.032272535368664	0.2499235685545954	0.0022438109383925	3.484503643806011	-0.3164827472658617	-0.5541577723644564	0.2376750250985947	55.24341560066435
3	2.0	ltm	336	diff_vonmises	0.0680565240409099	3.89935159587476	4.879114370116866	0.3383088652999736	0.0037656346026671	1.9016985119468588	-0.0142543775148128	-0.301906407517836	0.2876520300030232	61.58258316182949
4	2.0	perception	336	diff_vonmises	0.0015031155859617	0.0861221791959439	7.605296540651727	1.3948299171305123	0.357683073127525	3.119047375304689	0.8199284908850246	-0.5421692449210638	1.3620977358060884	46.80011334922111
5	2.0	wm	336	diff_vonmises	0.0957822534739662	5.48791887631053	4.085058985292338	0.5816712240730081	0.1331454791356136	2.510484891533775	-0.0021257005077021	-0.3917944781539647	0.3896687776462625	62.80063076284529
6	3.0	ltm	336	diff_vonmises	0.1118171220857131	6.406649172810428	3.32924800897836	0.5134674494225395	0.3839642831179449	1.2827808974568806	0.0676814139941363	-0.1876873127039925	0.2553687266981289	64.87685961490061
7	3.0	perception	336	diff_vonmises	0.0143278464596157	0.8209251316474424	5.0982197994702565	1.724077862638046	0.2753729232537948	2.6056768915445394	0.9745769141974704	-0.4045345001636745	1.379111414361145	57.660418678654736
8	3.0	wm	336	diff_vonmises	0.0097989821588283	0.5614403212248591	4.600699065102904	0.4139139247702573	0.1022309711162815	1.5653134275912204	0.0680157237475989	-0.2455662923713783	0.3135820161189772	60.73458635454264
9	4.0	ltm	336	diff_vonmises	0.0859401933027037	4.924010366783386	0.7344947350856768	178.25068891428086	0.7218062149278343	180.3862254232608	-0.1850250648808753	-0.4087898511118162	0.2237647862309408	85.49904556426503
10	4.0	perception	336	diff_vonmises	-0.0325086364390927	-1.862607665685213	2.2933039471363004	2.7305107211126747	0.319107131548186	4.720079607710884	0.521394270736202	-0.5896290859924092	1.1110233567286112	79.29622185640372
11	4.0	wm	336	diff_vonmises	0.0391989216753376	2.245932773460727	0.7720115835694866	192.9020421948932	0.7575262568296047	195.35050217842104	-0.1900614943926939	-0.4779925655794521	0.2879310711867582	84.66043424835726
12	5.0	ltm	336	diff_vonmises	0.0110749352916738	0.6345470505933961	2.335918262240525	0.7902684647440551	0.0773186348490809	2.2270232930491325	0.0650674776578453	-0.3272268040724563	0.3922942817303017	84.5693033451785
13	5.0	perception	336	diff_vonmises	-0.0388507143894206	-2.225981965581982	2.2793157358458784	2.5576077206410965	0.1857244805419639	4.0063025567283805	0.6659504121871029	-0.5293659480610465	1.1953163602481496	84.07326783334466
14	5.0	wm	336	diff_vonmises	0.1004510427958472	5.755420799890062	1.5965862314933694	1.129676335822408	1.6934329228786885e-14	2.8806279264942334	0.0497420206657944	-0.437607959764713	0.4873499804305075	107.5004185954094
15	6.0	ltm	336	diff_vonmises	-0.0961998149871229	-5.511843388701507	0.5625287051654003	185.48527162183635	0.5505464170813932	186.88369188718784	0.0603392880540454	-0.3579364440680699	0.4182757321221153	111.24880964492692
16	6.0	perception	336	diff_vonmises	-0.0873549028562276	-5.005067253437142	0.6818615277839633	7.184414571071033	0.2782628902733643	8.625428611606328	0.2409394083764531	-0.5030831052252218	0.7440225136016749	124.72688278531538
17	6.0	wm	336	diff_vonmises	0.0083967675645274	0.4810993429997675	0.4719034619059004	181.72062763084676	0.4586704361747752	183.30458029397445	0.0682208999523936	-0.4307438703091684	0.498964770261562	121.90239006977517
18	7.0	ltm	336	diff_vonmises	0.0862539823440795	4.941989154511679	0.8333512213715315	240.52152604797053	0.8219524426571335	242.4008912163071	-0.0551247745629694	-0.3987634375447726	0.3436386629818031	85.97528874960148
19	7.0	perception	336	diff_vonmises	-0.0114028218946972	-0.6533335691055192	1.121237374462905	4.703355057446853	0.3517451505189739	6.414489022264913	0.3069942691659513	-0.5195190717678467	0.826513340933798	102.40959505354732
20	7.0	wm	336	diff_vonmises	0.1472460873631382	8.436579355722426	0.7532979351080262	111.33612253839016	0.7308856841217911	113.31748485462757	-0.0992300978515245	-0.4035258032374109	0.3042957053858863	89.18514176706066
0	1.0	ltm	94	diff_vonmises	-0.0630250936681408	-3.611071870601161	2.1967926515177747	0.3247935068730292	1.99912421925548e-19	1.688960924679722	-0.091526368005035	-0.266615723271128	0.1750893552660929	92.73065043241344
1	1.0	perception	94	diff_vonmises	-0.0210769109728133	-1.2076180439151771	12.388288706482165	0.689552597019007	0.0104934202673382	2.25581014824794	0.5952130814676984	-0.3600289318157211	0.9552420132834194	38.45060073145709
2	1.0	wm	94	diff_vonmises	0.0730458636449234	4.185219697742207	4.457205043346306	0.347956150432962	3.5758433910138073e-16	1.7647367942256256	0.0028294554340398	-0.2808284428537119	0.2836578982877518	64.76309341717345
3	2.0	ltm	94	diff_vonmises	0.0228504054169572	1.309231790554526	3.7890310252743378	0.5594597396161545	0.311958514531965	1.398936188536515	0.1206509886285321	-0.2112023164833275	0.3318533051118596	63.17128692169905
4	2.0	perception	94	diff_vonmises	-0.0002659308202789	-0.0152367136444331	7.019172991635355	1.3097713713628711	0.3329816686245654	2.0463012704171355	0.915833429324978	-0.3420848445545438	1.257918273879522	49.33456355236811
5	2.0	wm	94	diff_vonmises	0.0916074497927066	5.248720245078679	5.002028349371536	0.4162101202543901	0.1537974887066337	1.303356708253011	0.1204738338684326	-0.2060546273462463	0.326528461214679	57.92374400638573
6	3.0	ltm	94	diff_vonmises	0.0939588871383522	5.383447680773619	2.028606454412849	1.3993463751901372	0.8978369699590639	1.8311828706543103	0.1378908928226396	-0.1457784385731649	0.2836693313958046	72.34645174979369
7	3.0	perception	94	diff_vonmises	-0.0026381027936346	-0.1511521559969371	4.976011780149667	1.5953969424089105	0.244863402252078	1.983113895505136	0.9826461137581972	-0.3029876620807794	1.2856337758389766	58.95362088315122
8	3.0	wm	94	diff_vonmises	-0.0273939522580236	-1.5695578485676245	3.0439336370947325	0.7025950725302601	0.4894466814933494	1.2451463501604914	0.1591878211132166	-0.1662558376141911	0.3254436587274078	67.70143235872595
9	4.0	ltm	94	diff_vonmises	-0.1297271238072828	-7.43281668252841	1.2756431907492838	103.27508900591934	1.2532813260128224	104.35536051841088	0.0021274046919899	-0.2632722681947808	0.2653996728867707	70.60481994797158
10	4.0	perception	94	diff_vonmises	-0.0893950331950072	-5.121958111505808	2.4375679890616926	2.360561081640222	0.2561280419096153	3.5849464067433505	0.645480913263783	-0.4622528024001139	1.107733715663897	80.03357297745157
11	4.0	wm	94	diff_vonmises	-0.0865947201037403	-4.961511990060987	1.2113065992555652	229.65252169984123	1.1990597520441633	230.94677336285483	0.0286583414284962	-0.3168563021609891	0.3455146435894853	73.20711527902566
12	5.0	ltm	94	diff_vonmises	0.0247384218563758	1.4174071641845274	2.0243593430720144	0.7356033286570408	1.3796126363912572e-14	1.305470985640175	0.17447992721873	-0.2011031661961049	0.375583093414835	96.46401130635115
13	5.0	perception	94	diff_vonmises	-0.0527974335617722	-3.025070112211913	2.286824805497197	2.1695832412632297	0.1923447433842245	2.5376983040660908	0.7279560774740872	-0.3253390462192579	1.0532951236933452	85.32474422575487
14	5.0	wm	94	diff_vonmises	0.1241875128991265	7.115420357346424	1.107263716266316	2.197375527133284	0.346717240708693	2.770595018253939	0.1898552818821732	-0.2162681519510401	0.4061234338332134	105.10485880859454
15	6.0	ltm	94	diff_vonmises	-0.1198568306569977	-6.867290542460191	0.5185002947125178	120.28545962082195	0.5072122742329375	120.77315554966822	0.1332774406017698	-0.1952832200073686	0.3285606606091384	121.55756376580727
16	6.0	perception	94	diff_vonmises	-0.1037695153803571	-5.9455552734123485	0.6075532058875832	182.9759447882889	0.5929340917427653	183.47365903623992	0.3747949512198545	-0.3155227941549867	0.6903177453748413	116.1803063503115
17	6.0	wm	94	diff_vonmises	-0.0414044860697128	-2.3723023047027576	0.6246075647282384	12.244918970978029	0.4876285728865122	12.718175135488517	0.2001137851563781	-0.2235356552449864	0.4236494404013645	118.73340298875938
18	7.0	ltm	94	diff_vonmises	0.0969157290605745	5.552862243604302	0.9632022358780508	118.39073520135706	0.9415292238168952	119.44634334773949	0.1381570239890095	-0.2840737745887001	0.4222307985777096	86.45489140677185
19	7.0	perception	94	diff_vonmises	-0.0478822447290614	-2.74345053658775	2.307216008195615	1.818230975293758	0.0552980853091041	2.76468950012892	0.5572506346832482	-0.4058992039692771	0.9631498386525252	88.2232450836984
20	7.0	wm	94	diff_vonmises	0.1693415190975191	9.702554340621877	2.385760169769502	0.6275633781362845	0.0208301780633946	1.606548111185575	0.0987454297586052	-0.2473452918185247	0.34609072157713	87.60235846980927
0	1.0	ltm	192	diff_vonmises	-0.0135628212097514	-0.7770924136092758	5.667519770800967	0.1820240719270428	1.2938167188062018e-19	2.632074934331122	-0.2502282942432376	-0.418905721019412	0.1686774267761743	57.27219962186447
1	1.0	perception	192	diff_vonmises	0.0102505961583488	0.5873158973664051	12.216642585951668	0.7980267263979506	0.0923558162953725	3.383425175232107	0.5112503024585922	-0.5608295632382302	1.0720798656968222	38.22347281873874
2	1.0	wm	192	diff_vonmises	0.0609255370660385	3.4907761384518707	4.643290076917222	0.3042119555529554	2.1527988610257972e-20	2.913849241293515	-0.2102429256885455	-0.463730012033843	0.2534870863452975	63.425771659560326
3	2.0	ltm	192	diff_vonmises	0.0774228089116799	4.436000188687117	4.973755453876617	0.329773805298132	0.0022626298055475	1.5312513127848082	0.0408586104058002	-0.2432760961173605	0.2841347065231607	61.09916134699682
4	2.0	perception	192	diff_vonmises	-0.0063465094431679	-0.3636282057334452	7.464732655277055	1.4092310340436722	0.4273787428630227	2.5723882053240112	0.908292804903453	-0.4495670709312396	1.3578598758346927	47.18631729046214
5	2.0	wm	192	diff_vonmises	0.0632586347965228	3.624452791600168	4.087902320185578	0.5689160766107976	0.1586101541949424	2.000780238995927	0.0717612564833162	-0.3104013383826687	0.382162594865985	62.858913330903874
6	3.0	ltm	192	diff_vonmises	0.1021326500049584	5.851769795770908	3.685247523151373	0.4178630095564682	0.3337531078332418	0.955045819570967	0.1007078222926997	-0.1420657185675087	0.2427735408602084	63.96423541314252
7	3.0	perception	192	diff_vonmises	0.0078387059986934	0.4491247705690129	4.888509318560592	1.7383370286076265	0.3464687816433615	2.2270044242597544	1.0026369441524998	-0.3391468761397921	1.3417838202922918	58.58512228609223
8	3.0	wm	192	diff_vonmises	-0.0383571182303599	-2.1977009888839345	4.327253713350678	0.4657579495067276	0.1792537082957964	1.2566737541156885	0.1363619758845199	-0.194428979220188	0.330790955104708	61.76244322202831
9	4.0	ltm	192	diff_vonmises	-0.0574806070158554	-3.293396185858586	0.9280698677207831	123.6362843587514	0.9095856004382842	125.15952259027192	-0.0595396447839533	-0.3231208082517582	0.2635811634678049	80.71852846869405
10	4.0	perception	192	diff_vonmises	-0.0460779623734471	-2.640072772561131	2.533019186806744	2.477319529239482	0.28265076829191	3.930250935583053	0.6577443417695914	-0.5093689782303807	1.167113319999972	77.87063855961316
11	4.0	wm	192	diff_vonmises	-0.0342321692961266	-1.961358824245381	0.9656180138892002	263.8023807068939	0.9543291504009176	265.6012683843402	-0.0339753175631472	-0.3953106385691782	0.361335321006031	80.2721446319226
12	5.0	ltm	192	diff_vonmises	0.0086341215884296	0.4946987268198105	1.96837746842026	0.8498287987318881	0.082498507605707	1.883696979110461	0.1091491259463419	-0.2676442863102777	0.3767934122566197	92.1313498690164
13	5.0	perception	192	diff_vonmises	-0.0147212697338504	-0.8434666248233081	2.1920804908719056	2.428843018257493	0.1850105746057244	3.34722972819073	0.6885298649798157	-0.4330105676624412	1.121540432642257	86.25888029034616
14	5.0	wm	192	diff_vonmises	0.0999706058106743	5.727893788317665	1.466475860929215	1.1814504859700246	2.7143173568651437e-19	2.368428845675797	0.1278404644274047	-0.3500715491936305	0.4779120136210352	111.46743812355822
15	6.0	ltm	192	diff_vonmises	-0.1181204998871554	-6.767806117509524	0.5171598028366108	161.10205429638438	0.5054531388911953	162.0342766025776	0.1221303463428356	-0.2946438343626347	0.4167741807054703	119.39007380519617
16	6.0	perception	192	diff_vonmises	-0.0397736746273074	-2.2788636918712863	0.5361303979913045	147.3802820038612	0.5140960371965295	148.33729193307286	0.3705409727523943	-0.4435614823161895	0.8141024550685838	121.39816530305784
17	6.0	wm	192	diff_vonmises	-0.0163557721057574	-0.9371167123377026	0.430759164488827	138.61602055944442	0.4143351755689964	139.6618714053896	0.1782193251474311	-0.3795890506688728	0.5578083758163039	130.03830824264884
18	7.0	ltm	192	diff_vonmises	0.1441802884846178	8.260922019147268	0.8762670906156359	220.59726130645743	0.8652908759404528	221.9425541431613	0.0364632715724582	-0.3122730360751511	0.3487363076476093	87.02597926847832
19	7.0	perception	192	diff_vonmises	0.0210711608836371	1.2072885880735595	1.8161169319322643	1.7788898533884636	0.0400389938195555	3.013642582523892	0.3665196463369549	-0.4377264362532153	0.8042460825901703	99.2726281073282
20	7.0	wm	192	diff_vonmises	0.1764138399616597	10.107768477499446	0.711513515280999	118.89744472851694	0.6942148051613506	120.3191545926922	-0.0109186975222286	-0.3127942082057053	0.3018755106834767	95.35773213263651
0	1.0	ltm	313	diff_vonmises	-0.0313296351801992	-1.7950558695100007	5.899976665600586	0.4749873532664823	0.0692364953829303	2.79718083804754	-0.0269355296304059	-0.4470319097844261	0.4200963801540202	54.0738959158553
1	1.0	perception	313	diff_vonmises	-0.0507619860485923	-2.908447560286307	14.093660244060503	0.6945086281976837	0.0304821922198562	3.1502623440144	0.5138258674341442	-0.5080864663538818	1.021912333788026	35.90820087904359
2	1.0	wm	313	diff_vonmises	-0.0155069411216546	-0.888482279428674	4.972082330396205	0.605132451022569	0.1239838691613179	3.158487933397544	-0.0436987945929363	-0.503966829924751	0.4602680353318146	57.32476902436841
3	2.0	ltm	313	diff_vonmises	-0.1336614271893624	-7.658235661645614	1.9097442794928807	2.582840629251076	0.7504889574821055	3.749328313568812	0.1926613126665071	-0.3295439404352753	0.5222052531017825	74.42821968916144
4	2.0	perception	313	diff_vonmises	-0.0604013915687574	-3.4607448136068744	6.971605382559053	1.0551224415953195	0.1679014763618224	2.312794983130567	0.657410787248345	-0.3761721450079913	1.0335829322563364	50.07409806693266
5	2.0	wm	313	diff_vonmises	-0.0118588146782669	-0.6794600310924863	3.861622791252864	0.8041605124619969	0.2711649600864084	2.028069264484534	0.1908096941120332	-0.3073155470319265	0.4981252411439597	63.39782175937074
6	3.0	ltm	313	diff_vonmises	-0.0870317257701358	-4.986550570368749	1.1518327507985924	163.09667133295187	1.1321920562501293	163.97572705251991	0.2743503330949792	-0.2924802232310597	0.566830556326039	81.41953442339695
7	3.0	perception	313	diff_vonmises	-0.0499930521975621	-2.8643908958975355	3.923815873123505	1.9981963293851672	0.3274646504979333	2.877251239084182	0.9015936501794336	-0.4167109803613229	1.3183046305407564	64.45091779601469
8	3.0	wm	313	diff_vonmises	-0.057175663429814	-3.275924205388829	1.2522990377263432	162.99696098961132	1.2321312127443789	163.95203111599434	0.2355256153469653	-0.3003332650902166	0.535858880437182	77.10436138913249
9	4.0	ltm	313	diff_vonmises	-0.1880246504056792	-10.77301891266818	1.39903786154766	4.685256733366649	0.7366188937027404	5.822666927948951	0.2482601054343634	-0.3383861714347867	0.58664627686915	83.71925911213124
10	4.0	perception	313	diff_vonmises	-0.1250807923237932	-7.166601498305699	2.1826448108416034	2.884947313865402	0.2852438902304509	4.063147565979607	0.725766072440178	-0.4915101772705736	1.2172762497107517	83.50780590997059
11	4.0	wm	313	diff_vonmises	-0.2015673698143934	-11.548959577917412	1.1034379805212668	295.25957710492366	1.0918771560910512	296.52672837427525	0.1842908361210931	-0.3503018831178934	0.5345927192389865	80.55274263000331
12	5.0	ltm	313	diff_vonmises	-0.0197135357110465	-1.129502395523399	0.6361230702028713	123.53233184526576	0.6134427274418854	124.14242603814483	0.3679054967398159	-0.3296819572368559	0.6975874539766718	113.44878782580678
13	5.0	perception	313	diff_vonmises	-0.055520340309243	-3.1810811768496885	2.19960493570707	2.284865586252457	0.1514273992436668	2.8723125283431585	0.7192928449681082	-0.3791921628965347	1.0984850078646429	87.57080250943815
14	5.0	wm	313	diff_vonmises	-0.0698786223174248	-4.003750136977128	0.8396047373073445	221.94795892928303	0.8278697795304902	222.49150321089235	0.3292455133172041	-0.2540906022908018	0.5833361156080059	98.19172888776534
15	6.0	ltm	313	diff_vonmises	-0.0526163463447146	-3.014694578950743	0.8406887470105127	1.827307876944624	5.703036268044373e-13	2.1778503419924484	0.2224319561104984	-0.2407059674631366	0.4631379235736351	135.4888592459548
16	6.0	perception	313	diff_vonmises	-0.050585012182255	-2.898307704661069	1.070700760750804	2.038742620346457	7.57629943160589e-18	2.500618556597124	0.325849346922751	-0.3129420799344418	0.6387914268571928	125.67719984875411
17	6.0	wm	313	diff_vonmises	-0.2259213906146296	-12.944342183944768	0.6392564220555643	128.8712517258055	0.6249120453694578	129.11377793257878	0.2853254187170293	-0.2033551656125123	0.4886805843295416	114.39530584017788
18	7.0	ltm	313	diff_vonmises	0.029489939420362	1.6896490668832165	0.6940430184079568	146.91784224694115	0.6756213529859116	147.52419086826345	0.3457456785614141	-0.3009818447525507	0.6467275233139649	108.21651380707245
19	7.0	perception	313	diff_vonmises	-0.0721231302189898	-4.132350966820569	0.9937173755602788	231.1757140779538	0.97610077960099	231.6195876475296	0.6217157850234827	-0.3311892148843434	0.952904999907826	92.37657345574736
20	7.0	wm	313	diff_vonmises	0.1676605951883985	9.606244494946631	2.5053098839361785	1.0402869504305	0.1042118696861929	1.4949577315155371	0.3504862786260637	-0.2119289166930537	0.5624151953191174	83.32016786080774
0	1.0	ltm	71	diff_vonmises	-0.0916771447880059	-5.252713474162513	2.76299220267951	0.403914902846882	2.277948195250809e-18	1.7968684011718097	-0.0336465304306088	-0.2849756536985039	0.251329123267895	82.72122894976536
1	1.0	perception	71	diff_vonmises	-0.0529759155523351	-3.035296376990264	13.588531242469903	0.6771249680802406	1.3768418520038285e-18	2.281917865786776	0.6231218221103818	-0.3631785080681206	0.9863003301785024	36.7639059834454
2	1.0	wm	71	diff_vonmises	0.0285982838260527	1.6385609645500665	4.559481321847014	0.4066563419920231	7.144682067268278e-20	1.8857421866277784	0.0354824844639677	-0.3000884117705271	0.3355708962344949	64.01779461334195
3	2.0	ltm	71	diff_vonmises	-0.0533350667825176	-3.0558742266866514	2.7221202831202693	1.017062557402804	0.5032088988902101	1.8813347113239176	0.1646138380890323	-0.241485594180402	0.4060994322694343	69.67115851652139
4	2.0	perception	71	diff_vonmises	-0.0260645785568119	-1.4933903460925102	6.739162762688965	1.2023431210538598	0.201791298564288	2.041076138427161	0.8265221839875163	-0.3307402799345648	1.1572624639220812	50.951144585511145
5	2.0	wm	71	diff_vonmises	0.0308013705479692	1.764788535617196	4.623977135044679	0.5091055163649275	0.1662126893812976	1.4005198708789823	0.1619664704489297	-0.2186440263120842	0.380610496761014	60.13052291040973
6	3.0	ltm	71	diff_vonmises	0.0014672844005992	0.0840692034997174	1.2198921150186348	49.117811519435705	1.17295761047574	49.69944183856893	0.2084522234351702	-0.2031024373943051	0.4115546608294753	79.91861129306844
7	3.0	perception	71	diff_vonmises	-0.0274148187978334	-1.5707534132317704	4.279583884435201	1.871528411423192	0.2448308976711975	2.443214781800491	1.003239447692628	-0.3624499357383766	1.3656893834310049	63.14212456695452
8	3.0	wm	71	diff_vonmises	-0.0706476643019197	-4.047812996957051	1.522590263335338	5.774750814787941	1.0915261483706944	6.424138528864048	0.2181837808736992	-0.2235442805340143	0.4417280614077136	76.21312250731742
9	4.0	ltm	71	diff_vonmises	-0.1698867051391464	-9.733791199856562	1.8210984715467824	2.280491220457214	0.7898720955136248	3.323368820623715	0.1087671510606735	-0.2767299956017858	0.3854971466624594	73.73772948406702
10	4.0	perception	71	diff_vonmises	-0.1135997900456664	-6.508788523188949	2.193544747993743	2.821054947977377	0.279193719881691	4.006308777309703	0.7116104474785123	-0.4879439658778454	1.1995544133563576	83.4404872892753
11	4.0	wm	71	diff_vonmises	-0.1470285807030252	-8.424117142081963	1.1966561899481138	288.60895235313586	1.1859051067035389	289.85257718865546	0.1056047303769958	-0.3256582476678673	0.4312629780448631	75.70706200860081
12	5.0	ltm	71	diff_vonmises	0.0014358044354482	0.082265534357346	1.5068993970679436	1.2161291487692942	0.0478465199555161	1.6880649171096764	0.2465660821438515	-0.2300264316847638	0.4765925138286153	107.79234746569809
13	5.0	perception	71	diff_vonmises	-0.048312621924509	-2.7681093334855795	2.0720079070369506	2.3253101479016407	0.2061298672103864	2.6437500401200054	0.713819158270092	-0.3242074162448381	1.0380265745149302	88.92970340527552
14	5.0	wm	71	diff_vonmises	0.0249750945965125	1.4309675133201558	0.7460568895327362	136.84330315082832	0.7318694028144964	137.30256642250177	0.2370394886281701	-0.207648035088809	0.4446875237169791	103.82601725556428
15	6.0	ltm	71	diff_vonmises	-0.115786933224074	-6.634102596502532	0.4071158165233742	119.27584206884704	0.3965293576083116	119.669877344609	0.1420656264987414	-0.1952176958421194	0.3372833223408609	133.85953357027932
16	6.0	perception	71	diff_vonmises	-0.0702383301036835	-4.024359874987745	0.5831995217143191	116.22789531767856	0.5617273969799665	116.65062115904148	0.3617881338233957	-0.2991767619570247	0.6609648957804204	118.93790784258051
17	6.0	wm	71	diff_vonmises	-0.0997608129851611	-5.715873544843631	0.5650224729595358	102.64878433112196	0.5493794913759058	103.0037310972858	0.2116265859550843	-0.2023349288301013	0.4139615147851856	119.47622482743462
18	7.0	ltm	71	diff_vonmises	0.0580175050949662	3.3241581798203192	0.9164397311286758	77.03265986961898	0.8822951375452166	77.89572794030451	0.2253226823876062	-0.2752296195374706	0.5005523019250768	91.54622330047602
19	7.0	perception	71	diff_vonmises	-0.0278628826897203	-1.5964255831890972	1.7994045809883683	2.644325232971635	0.262489917604521	3.4106371128648503	0.5856371310249768	-0.3841877625189617	0.9698248935439386	91.66567276638156
20	7.0	wm	71	diff_vonmises	0.1303562537108163	7.468863170766353	2.183388390129412	0.8333526600145394	0.0735430102649382	1.601695761633762	0.1791896005624402	-0.2311657317186181	0.4103553322810583	89.01131120070636
0	1.0	ltm	146	diff_vonmises	0.0696754775536182	3.992110799380826	3.982325600922717	0.2453534719496109	3.924812044635204e-17	3.13615288755002	-0.3109480467524401	-0.4990688334477899	0.1881207866953498	68.61628423058391
1	1.0	perception	146	diff_vonmises	0.008477935683063	0.4857499336228708	12.898834974513836	0.6482852501553845	0.0529603702198444	3.552571154281553	0.3233592863879754	-0.5789690997005784	0.9023283860885538	37.351878698786976
2	1.0	wm	146	diff_vonmises	0.075566478029104	4.329640263735726	4.702673186621152	0.3306657922517958	0.0110093513695444	3.379444883118787	-0.266326849144639	-0.5357083574034794	0.2693815082588404	61.946176094420366
3	2.0	ltm	146	diff_vonmises	-0.00166656413921	-0.0954870914645864	4.352453853334316	0.4123182837502505	1.3832351750408585e-15	2.2242688270245603	-0.0221134485469129	-0.3539483604412264	0.3318349118943134	65.55658161410992
4	2.0	perception	146	diff_vonmises	-0.0099939677773616	-0.5726121742325612	7.590332592399615	1.205857572783731	0.2008732854744138	3.1645718592922587	0.6922421983859504	-0.526629813707606	1.2188720120935563	47.647072871687215
5	2.0	wm	146	diff_vonmises	0.0809147628224982	4.636074410031208	4.212438851296428	0.5899260059422726	0.1165022653992739	2.6788014242437894	-0.0109182493609756	-0.4194384568450771	0.4085202074841014	62.276564713483936
6	3.0	ltm	146	diff_vonmises	0.0301232127719337	1.7259329572063813	2.313336387484213	1.1947233199061529	0.4714362477215035	2.4432045821317017	0.0827279696106766	-0.3022304358940276	0.3849584055047043	72.80786134779234
7	3.0	perception	146	diff_vonmises	-0.0092446434638688	-0.5296790535828874	4.220777484433126	2.025195513191079	0.2177374906673927	3.3323834594029007	0.951415647986422	-0.5008339175529694	1.4522495655393914	63.27902958592952
8	3.0	wm	146	diff_vonmises	-0.0111492294116514	-0.6388037901107522	3.1072485309716287	0.7407311721426652	0.1999080832511802	2.310734573281105	0.0502081084114651	-0.3420202721211967	0.3922283805326618	69.79011982092732
9	4.0	ltm	146	diff_vonmises	0.0432834802921449	2.4799607433775805	0.770566384919775	169.36015675784816	0.7550384794493017	171.61932036362091	-0.1644733651641843	-0.4441982719724535	0.2797249068082692	85.39702174595172
10	4.0	perception	146	diff_vonmises	-0.0832520407173598	-4.769990568956001	1.6063356020357815	5.440229802074989	0.5523042372517775	7.496243870767874	0.533318692097936	-0.6344261950899602	1.1677448871878964	84.78964490865928
11	4.0	wm	146	diff_vonmises	-0.04640523438325	-2.658824077475599	0.7755578901381162	195.73978970258528	0.7608158935559014	198.24971689206893	-0.1923471131656171	-0.4910035173416425	0.2986564041760253	84.59940948394555
12	5.0	ltm	146	diff_vonmises	0.028587614427476	1.6379496530416762	1.5994708104816409	1.4260776680827545	0.2016340344685474	3.209726156138723	0.0235841410598832	-0.3988875089220002	0.4224716499818834	92.01216992163089
13	5.0	perception	146	diff_vonmises	-0.0468822349030553	-2.68615419408599	2.0573193652156614	2.8499122958131347	0.2290809841057669	4.651265106511765	0.5767221698537456	-0.5834005360875165	1.1601227059412622	85.99526949378375
14	5.0	wm	146	diff_vonmises	0.0121215008248021	0.694510838625507	0.5476241865370096	176.1744854108132	0.5328493603566186	178.23989973659644	-0.0330260547239973	-0.4656674656936275	0.4326414109696301	109.1640096357445
15	6.0	ltm	146	diff_vonmises	-0.1413604862963358	-8.099359254696957	0.4873282776835441	207.29450685402995	0.4769276551966915	209.28646282019557	-0.0811107040515892	-0.4333182025713213	0.3522074985197321	113.68753463990905
16	6.0	perception	146	diff_vonmises	-0.1101192932421507	-6.309370745738725	0.4646140953768126	131.81755402011612	0.4404119132500531	133.76791618162127	0.1318531738485795	-0.565251182486282	0.6971043563348616	124.31565316256469
17	6.0	wm	146	diff_vonmises	-0.0664791996927043	-3.808977567799357	0.5004980559112525	237.006710461414	0.4902525413509166	239.12418480678085	-0.0650887132380049	-0.4699633574804558	0.4048746442424509	113.07107394783574
18	7.0	ltm	146	diff_vonmises	-0.0190070956874807	-1.089026363693954	0.8063078079625685	222.55671856858635	0.7920424259173684	224.86644233410087	-0.0915251894816862	-0.4808059549174075	0.3892807654357213	86.73193704892972
19	7.0	perception	146	diff_vonmises	-0.0206713497829265	-1.1843810994003607	1.3281729638550477	3.8380836057522543	0.2723513306208432	6.007159769990129	0.3126972268702996	-0.6141200922519338	0.9268173191222334	99.07618535522008
20	7.0	wm	146	diff_vonmises	0.1081993368912158	6.199365349980814	1.6948660727171307	1.683191167935154	0.373059142555864	4.038910487526374	-0.1165622158727436	-0.4770758966694508	0.3605136807967072	79.5690643907383
0	1.0	ltm	25	diff_vonmises	0.0720285336233883	4.126930981136297	5.625706783360045	0.1783815966381891	3.219525164283407e-19	3.013625561626367	-0.3149696569088773	-0.4796312658969724	0.164661608988095	57.48774191002812
1	1.0	perception	25	diff_vonmises	0.0172226810261135	0.9867869346963484	12.7065679578624	0.6508551306244851	0.0730889453554823	3.540731587791628	0.310673389766257	-0.5828668131632669	0.893540202929524	37.488692719277736
2	1.0	wm	25	diff_vonmises	0.0689393762977628	3.949935304126033	4.7788895340921975	0.2994845943648565	0.0170784340320087	3.343376048747124	-0.2877466252440629	-0.529957480619048	0.242210855374985	60.90896033581322
3	2.0	ltm	25	diff_vonmises	0.0560801802074809	3.2131576402217497	4.823154973437201	0.3593186719771196	8.476552425869874e-18	1.983919415644904	-0.0101159633662785	-0.3157308168990216	0.3056148535327431	62.196273322887606
4	2.0	perception	25	diff_vonmises	6.310928911668777e-05	0.0036158959144571	7.523664451616435	1.2888647078921829	0.304083564818519	3.1009087813143434	0.7316063492751641	-0.5309338436600306	1.2625401929351947	47.24190976737864
5	2.0	wm	25	diff_vonmises	0.0914838865471141	5.241640592603293	4.0952153723134295	0.5899650235852577	0.1411971255701876	2.5932845831692437	-0.0135285825622944	-0.4053365144071199	0.3918079318448255	62.43001074963453
6	3.0	ltm	25	diff_vonmises	0.0767084871343065	4.395072565629339	2.568478087502435	1.0504869948667872	0.5580555865072565	2.1843764914025683	0.0662008010549183	-0.2795720546275121	0.3457728556824304	68.15957697185581
7	3.0	perception	25	diff_vonmises	0.0007872288467145	0.0451048904276969	4.871077916296184	1.8825446611882004	0.2466966377009312	3.111856548737147	0.9855161644540542	-0.4805753883887078	1.466091552842762	58.94293906494445
8	3.0	wm	25	diff_vonmises	0.0317822707973189	1.8209899800282627	4.24870614985371	0.5001633547083166	0.1307690535070645	2.081108712388785	0.0214888820661711	-0.325612615696693	0.3471014977628641	61.93285501443074
9	4.0	ltm	25	diff_vonmises	0.0639166070247046	3.662151823311807	0.7499748838345192	203.575305745132	0.7378009283620102	205.81936756381955	-0.181701127226475	-0.434423401608317	0.252722274381842	85.40836874919776
10	4.0	perception	25	diff_vonmises	-0.0475373941754816	-2.7236920553048813	2.088805316568928	3.077797607797549	0.3410566900122332	5.140954747381413	0.5119110095946366	-0.6102178830228655	1.122128892617502	81.72609265392882
11	4.0	wm	25	diff_vonmises	-0.0023367893228147	-0.1338881658085208	0.7768156505486468	166.4993939629698	0.7589917450121019	169.08517876633744	-0.1982325075572504	-0.5057901351602432	0.3075576276029927	84.60868069711961
12	5.0	ltm	25	diff_vonmises	0.0280531575200236	1.607327527913042	1.8100898578525169	1.306896794106864	0.2292087801622889	2.901951757400845	0.0613095921092774	-0.3656324714861517	0.4269420635954291	86.96727466283662
13	5.0	perception	25	diff_vonmises	-0.0420003198741313	-2.4064410669871603	2.030151726919979	2.8423594754445007	0.243682917322198	4.489531435377568	0.5812620926270126	-0.5530221584883608	1.1342842511153737	86.2330831848918
14	5.0	wm	25	diff_vonmises	0.070210045286038	4.022739274312358	1.6472714904158643	1.0742591867004656	4.341676151538525e-17	3.0279678088213604	0.0106461581673665	-0.4636493753397257	0.4742955335070923	106.0514355372463
15	6.0	ltm	25	diff_vonmises	-0.1406391171794057	-8.05802784882578	0.5343286647167671	222.48131924875955	0.5237464987206772	224.1756500660412	0.0163209243298609	-0.4084629116910285	0.4247838360208895	112.35223774798196
16	6.0	perception	25	diff_vonmises	-0.0799916880110838	-4.583186119162332	0.5521477134903332	152.96178641819543	0.5300704011762808	154.72236050730925	0.1905433597000225	-0.5210926458587224	0.711636005558745	115.5430462095377
17	6.0	wm	25	diff_vonmises	0.0067281857446903	0.3854966469508411	0.4862837575490865	217.04538876880517	0.4748694462335244	218.94755979443275	0.0011571549085473	-0.4622706420927756	0.4634277970013229	117.6767877190616
18	7.0	ltm	25	diff_vonmises	-0.0415389394780118	-2.3800059175394392	0.8864676805448257	300.2850797439864	0.8753040828449862	302.56537500962975	-0.0861880557784786	-0.4812453075985132	0.3950572518200346	82.596138151827
19	7.0	perception	25	diff_vonmises	-0.0209535373308431	-1.2005492549271275	1.6169125528889376	2.173191781347773	0.0429220174174608	4.346734950953297	0.2633998902795613	-0.6236094992783323	0.8870093895578937	103.8833869144752
20	7.0	wm	25	diff_vonmises	0.1480894483019888	8.484900378124756	1.0755168267527004	4.681796098636229	0.5634802394207471	7.061006391416623	-0.1599435873336758	-0.4721946962115563	0.3122511088778804	84.00217557411688
0	1.0	ltm	434	diff_vonmises	-0.0049841395072385	-0.2855701582691829	7.111245112919098	0.2751571999446499	0.0431726066923177	3.2762585397428365	-0.2570060876675146	-0.5263274139823239	0.2693213263148092	49.2621199967152
1	1.0	perception	434	diff_vonmises	-0.0121788141154453	-0.6977946482893691	14.466795069900824	0.6580480613614245	0.075362524594696	3.702043857365044	0.3549878316741769	-0.6125447776248044	0.9675326092989812	35.16949640102749
2	1.0	wm	434	diff_vonmises	-0.0050706910193542	-0.2905291946238866	4.416658115076564	0.4335960855754191	0.0859832873981522	3.792363057000927	-0.3047820144603144	-0.6027631563237006	0.2979811418633861	59.83414105341265
3	2.0	ltm	434	diff_vonmises	-0.0307110285048705	-1.7596123178350485	3.9582077173979138	0.4776775152579925	0.0332681005025903	2.0597706354296275	0.0263336601057567	-0.3224288072743428	0.3487624673800996	67.0871984759786
4	2.0	perception	434	diff_vonmises	-0.0291496152110681	-1.6701499260245538	7.907768452972313	1.164984998111253	0.2863771674374432	2.967817771738478	0.6685125197742668	-0.5100374603696761	1.178549980143943	46.20717323465857
5	2.0	wm	434	diff_vonmises	0.0163989873560944	0.9395927637926124	3.663323140480485	0.7483619079026272	0.1935362702827269	2.7340718477624537	0.0251157070144546	-0.4194515098052792	0.4445672168197338	64.7028895532107
6	3.0	ltm	434	diff_vonmises	0.0195580441883083	1.1205933875204357	1.944104214388346	2.334011290113154	0.7896397836850174	3.537027779855109	0.1165998628843698	-0.3186902817622222	0.4352901446465921	71.98009888226093
7	3.0	perception	434	diff_vonmises	-0.0225655347640998	-1.2929099044386565	4.432552513050384	2.128949220799458	0.3569519147077596	3.369951048042032	0.9879620168456512	-0.5084742694984755	1.4964362863441267	60.46292766624447
8	3.0	wm	434	diff_vonmises	-0.0171276277189278	-0.9813407813658468	3.114631941557709	0.8444554161715764	0.287252071642127	2.482808166382108	0.0490511138640784	-0.3642537840361938	0.4133048979002723	67.5690812633328
9	4.0	ltm	434	diff_vonmises	-0.070932568276827	-4.064136792285738	0.8377642713710864	191.46188305947967	0.8216373343334468	193.42016357927832	-0.0132594492756368	-0.4305347252651259	0.4172752759894891	87.41167850575405
10	4.0	perception	434	diff_vonmises	-0.061174196838556	-3.5050232939518047	2.310351525890387	2.756438704232598	0.2996095893364629	4.553830463600345	0.5940398123923687	-0.5712712071463933	1.165311019538762	80.01089394881177
11	4.0	wm	434	diff_vonmises	-0.1300310575641056	-7.450230804045911	0.8544972190511904	280.28989939980806	0.8424770586211899	282.5252368807048	-0.053993885788742	-0.4791793082645057	0.4251854224757636	85.24736492834757
12	5.0	ltm	434	diff_vonmises	0.0305983851521743	1.753158329135352	1.4002667203149728	2.5249699629342994	0.367141148404115	3.9818439121135594	0.164398846463041	-0.3818318127845929	0.5462306592476339	92.46373421403575
13	5.0	perception	434	diff_vonmises	-0.0318293111544086	-1.8236851939562888	2.1949972883556885	2.4667189726913765	0.1702549543379645	3.943721326078234	0.6069927960599228	-0.5226308350304807	1.1296236310904035	85.81397988637974
14	5.0	wm	434	diff_vonmises	-0.0445645538194	-2.553360849735235	0.6323620081378996	136.88645225352357	0.6112032640136656	138.56488333629238	0.099976162658514	-0.4296002847309133	0.5295764473894273	105.60621342904945
15	6.0	ltm	434	diff_vonmises	-0.1315173312420428	-7.535388012993102	0.9932920440731576	2.017732882096804	0.0959400633792855	3.320133105965691	0.1066113888378267	-0.3847509269821207	0.4913623158199475	121.39017875828368
16	6.0	perception	434	diff_vonmises	-0.0183648034656093	-1.0522257301666442	1.2658804675590376	1.947675544919413	2.894873649994174e-21	3.373986305371943	0.2250314699572536	-0.4763917194679493	0.701423189425203	118.28730424528536
17	6.0	wm	434	diff_vonmises	-0.1255484001407972	-7.193393452687354	0.4557660400120848	188.6969289024795	0.4434909809864759	190.1166298940688	0.0938398842863676	-0.4108947517232089	0.5047346360095766	124.5913315814386
18	7.0	ltm	434	diff_vonmises	-0.0130014844995496	-0.7449301892289563	0.839086896734537	287.9155617959505	0.8284789583328903	289.5021488860572	0.0926175274889971	-0.3862950684179118	0.4789125959069089	90.39254608714342
19	7.0	perception	434	diff_vonmises	-0.0537509483494389	-3.079702485248531	0.6587877719472215	208.6409587434464	0.6408267269157041	210.0996955019816	0.3135596224503061	-0.4807736907787223	0.7943333132290284	107.49501315399826
20	7.0	wm	434	diff_vonmises	0.1447145593948507	8.291533487420221	0.8990503651542308	138.30859830827953	0.8781227577801343	139.91775138860086	0.0389463301067607	-0.3722799139642081	0.4112262440709688	85.97028495356099
0	1.0	ltm	365	diff_vonmises	-0.0432213084917326	-2.476398561609228	4.017064963351017	0.3338365316603291	6.209011897510971e-17	1.826415544601338	-0.0334490744590703	-0.2905996419707096	0.2571505675116393	68.31831926442547
1	1.0	perception	365	diff_vonmises	-0.0330327325246177	-1.8926361594451189	12.686223809375736	0.6753544686733316	0.0006347710522237	2.3940189556825837	0.5685434824397166	-0.3810364400543279	0.9495799224940448	38.05188551821416
2	1.0	wm	365	diff_vonmises	0.062390095879561	3.574689177315393	4.212462784075286	0.4394864471486417	3.66788519514737e-17	2.0060458685566083	0.0282413030829541	-0.3191958776626118	0.347437180745566	66.67040074678482
3	2.0	ltm	365	diff_vonmises	-0.0064761891248107	-0.371058304180179	2.5562545440446325	1.1758054275195884	0.6698195695156041	1.9184364690344888	0.1671679955137784	-0.2227526516478891	0.3899206471616676	69.05110516897986
4	2.0	perception	365	diff_vonmises	-0.0096227947335671	-0.5513455253541137	6.501941072852432	1.2678253520891447	0.3507328979130543	1.9054617655054091	0.8448976888779951	-0.3141215902046292	1.1590192790826244	51.078866208147446
5	2.0	wm	365	diff_vonmises	0.0596386103087424	3.417040666716345	4.524122110145644	0.5589913846177934	0.268172643916205	1.3243762767992275	0.1886656763953527	-0.2061517516854403	0.394817428080793	59.61108739089596
6	3.0	ltm	365	diff_vonmises	0.0258157880592344	1.4791357005983612	2.110361378341123	1.3575479486298758	0.7341753132996841	1.8582293506791767	0.1824640557143916	-0.1719591921668973	0.3544232478812889	74.33479456428557
7	3.0	perception	365	diff_vonmises	-0.0131145411308858	-0.751407857050485	4.728320667196793	1.5992957342511305	0.2422485372507643	2.0619176233388146	0.933903670453297	-0.3123661204647199	1.246269790918017	60.33215116352193
8	3.0	wm	365	diff_vonmises	-0.0281455693217268	-1.6126223341278372	2.4337432274206887	1.1971749965158764	0.6670618414075549	1.7763116152343137	0.2001466540053866	-0.1935963213301668	0.3937429753355534	71.45988932026569
9	4.0	ltm	365	diff_vonmises	-0.1812157308326518	-10.382896558089692	1.5143634023121035	4.323629728482167	0.971762643934156	5.282718197943897	0.106707369153316	-0.2591106772686163	0.3658180464219324	75.01926796664645
10	4.0	perception	365	diff_vonmises	-0.0944077106965663	-5.4091633764053295	2.441868051023514	2.337437980726812	0.1903443805289446	3.361124378541	0.71729228360287	-0.4472465334891374	1.1645388170920077	81.93739311968503
11	4.0	wm	365	diff_vonmises	-0.1108371020320534	-6.350498159897545	1.212393831511554	262.04461053003376	1.2003747127433817	263.20397831236085	0.1415706292739287	-0.3175142575797522	0.459084886853681	76.12655814861427
12	5.0	ltm	365	diff_vonmises	-0.0124298154473962	-0.712175965262323	1.2192405984169312	1.7867732221977357	0.2112130585635636	2.2443957137421857	0.2474308797504792	-0.2263075252974779	0.4737384050479572	109.06424548728504
13	5.0	perception	365	diff_vonmises	-0.0436863071806321	-2.5030410239622847	1.8618529292196349	2.7159506835104525	0.3304028300908898	3.025560777028663	0.6894047727858686	-0.3161588303063469	1.0055636030922157	89.88151141142453
14	5.0	wm	365	diff_vonmises	0.0770913918120873	4.417011387621999	0.750012199237933	127.09250281600204	0.7339314627489755	127.47740197147697	0.2780483376875082	-0.2103739263670281	0.4884222640545363	104.66979241018612
15	6.0	ltm	365	diff_vonmises	-0.087423922480023	-5.009021786584198	0.4712141651960057	148.76682483254515	0.4606778370496764	149.07533847173755	0.2174540620319973	-0.211448199651274	0.4289022616832714	128.53438030515036
16	6.0	perception	365	diff_vonmises	-0.0608374443583812	-3.4857287980972247	0.6845857699830925	222.8093423132784	0.6712970462458484	223.1411336292037	0.4710894679013933	-0.3067617025924409	0.7778511704938342	111.1068755852578
17	6.0	wm	365	diff_vonmises	-0.0751238532530783	-4.304279732161527	0.5970547400743302	56.72212150069254	0.5620623553963736	56.942071907711146	0.3180311950589463	-0.226790189999102	0.5448213850580483	119.24392866983692
18	7.0	ltm	365	diff_vonmises	0.0512512044976065	2.9364777126747588	0.8659454764547581	115.56448271306736	0.8423778419933193	116.5528720918231	0.2115253185334538	-0.299703736696566	0.5112290552300198	93.27862699966556
19	7.0	perception	365	diff_vonmises	-0.0390636213808856	-2.238180637621752	2.4785619505069487	1.8560256215041755	0.04492428309212	2.7448114966675305	0.6316297028946394	-0.409794303842831	1.0414240067374705	85.64478364916249
20	7.0	wm	365	diff_vonmises	0.2061173758722496	11.809655721791533	2.468060525505836	0.8012646729249507	2.9927793035436103e-16	1.649145344625239	0.2062009395140933	-0.2591033601075437	0.465304299621637	87.52380662387716
0	1.0	ltm	2	diff_vonmises	-0.1096811526063009	-6.284267136471354	1.9752779866028436	0.3628786907434271	5.0951343013824726e-23	1.788356521876629	-0.098829366822739	-0.2810501404961302	0.1822207736733912	97.57866261397434
1	1.0	perception	2	diff_vonmises	-0.0268629299579176	-1.5391325119442238	12.826225728850291	0.7287272112887182	1.3732490638087374e-25	2.3772550085050304	0.6518716104537112	-0.3783518855860841	1.0302234960397954	37.86160773794328
2	1.0	wm	2	diff_vonmises	0.0271536482417119	1.5557894426329215	4.146917410908493	0.3587525365010877	8.648702957348213e-22	1.8709278877344933	-0.0165000809407295	-0.2976970720260681	0.2811969910853386	67.20922355421618
3	2.0	ltm	2	diff_vonmises	0.063833284451728	3.657377791542074	3.6053020171921473	0.6050904687873768	0.3399462179914103	1.4235258297098397	0.1300886888837592	-0.2112085977576468	0.341297286641406	64.2413489673437
4	2.0	perception	2	diff_vonmises	-0.0042264666600641	-0.242158701874427	6.8650943638558966	1.4222006591964849	0.4089278036984698	2.0846569594340947	0.9781997304115552	-0.3512442173774923	1.3294439477890476	49.543486496891006
5	2.0	wm	2	diff_vonmises	0.0554671135525164	3.1780315083320847	4.541893838194043	0.4540493438817355	0.1303436961900036	1.3486568303233204	0.1304751596783624	-0.2102657908610856	0.3407409505394481	61.06345032213662
6	3.0	ltm	2	diff_vonmises	0.1289523181171059	7.388423586538551	3.555980613748059	0.4977064097296796	0.3336637975842901	0.928900614837092	0.1578801045085107	-0.1340878065424895	0.2919679110510002	65.98639354099612
7	3.0	perception	2	diff_vonmises	0.0010076668626704	0.0577350583862077	5.096750292858206	1.6967307923447823	0.2719143701780461	2.0225071846418072	1.0716169077500282	-0.3097537194266169	1.381370627176645	58.16628169136772
8	3.0	wm	2	diff_vonmises	-0.0456032322930325	-2.6128727425454694	3.945213938370423	0.5532030681622641	0.2589821500005239	1.105369575065298	0.1979486045595294	-0.1654414338883358	0.3633900384478653	64.01113577852223
9	4.0	ltm	2	diff_vonmises	-0.1617971060282141	-9.27029131284736	2.090748992421936	1.229530098377298	0.6138113533039481	2.403863800968299	0.0068449423049874	-0.2724357729994541	0.2792807153044415	70.78064195303614
10	4.0	perception	2	diff_vonmises	-0.057505977385921	-3.294849800988033	2.610273917496948	2.1734676590878115	0.1458731519834879	3.53634111680276	0.6659320005173895	-0.4944427544047593	1.1603747549221488	80.15834217082732
11	4.0	wm	2	diff_vonmises	-0.0708238575385581	-4.057908125795182	1.147782887455924	262.5267960701032	1.1362689631990572	263.95563627141973	0.0381032578176387	-0.3459214265835371	0.3840246844011759	75.47317089154464
12	5.0	ltm	2	diff_vonmises	-0.0052962818820622	-0.3034545989537712	1.9063564528562151	0.7777786580181141	5.237011685861337e-21	1.1670035544401558	0.2040150450978723	-0.1771250705356564	0.3811401156335288	99.24204594796332
13	5.0	perception	2	diff_vonmises	-0.0343834934416741	-1.970029059123672	2.1132940590630387	2.2981232045591664	0.1936326323448286	2.403539014020599	0.7656699301581908	-0.2973956037682524	1.0630655339264432	88.92588201945654
14	5.0	wm	2	diff_vonmises	0.1056224681950554	6.051721649331444	1.629780819077483	1.033398979292086	1.5545013345806937e-17	1.422427319381198	0.2443722779551313	-0.2083067222297466	0.4526790001848779	106.53350795585018
15	6.0	ltm	2	diff_vonmises	-0.1102491164845393	-6.316809069610295	0.477494188635474	78.9440478817835	0.4631417906774778	79.17756174840065	0.1547200902313292	-0.1532893502985821	0.3080094405299114	127.97406272550197
16	6.0	perception	2	diff_vonmises	-0.0561472597948206	-3.217001017467795	0.604824798657874	142.1507639094021	0.5875302198380915	142.34951593461582	0.4128171397810334	-0.2701916835334064	0.6830088233144398	118.30279321064084
17	6.0	wm	2	diff_vonmises	0.0196715468757519	1.1270966124743491	0.6571678352102205	4.127458984138921	0.2891005969628847	4.344047691085489	0.236688244936667	-0.2006546773679786	0.4373429223046456	128.88903330134434
18	7.0	ltm	2	diff_vonmises	0.0973594945688911	5.578288134324323	1.0297194277273738	111.13788117205335	1.0083208824546	112.0116747108977	0.1491355660751665	-0.2475139407374147	0.3966495068125812	84.29706411085246
19	7.0	perception	2	diff_vonmises	0.0206567092235627	1.183542257139107	1.6978587567697634	2.171095625220473	0.1394174834453998	2.957874010790524	0.4754022707662308	-0.3735301321773541	0.848932402943585	98.20485065304656
20	7.0	wm	2	diff_vonmises	0.0506495915892345	2.902007832124452	0.6048966488022625	64.01124603362494	0.5809054538930933	64.88281645511009	0.0621526700044192	-0.2316112573265547	0.293763927330974	108.8030789479188
0	1.0	ltm	411	diff_vonmises	0.0319941102570978	1.8331274870079213	2.7719331700324124	0.3629754816891756	4.0908678149075295e-20	3.3080141871232143	-0.2993014081293188	-0.525598181536398	0.2262967734070792	82.5873198093276
1	1.0	perception	411	diff_vonmises	-0.0141225729450746	-0.8091638256184193	13.825325757841217	0.6744498685445449	0.0028367671922603	3.691246456627248	0.4018743171145804	-0.587938488174687	0.9898128052892674	36.416720616497145
2	1.0	wm	411	diff_vonmises	-0.0028168681185163	-0.1613946546359446	4.374007487441731	0.3592876772477898	3.104970806877979e-19	3.475690518894058	-0.263200010865228	-0.5531272842841818	0.2899272734189538	65.39154913257744
3	2.0	ltm	411	diff_vonmises	-0.0086827931105435	-0.4974873996194138	3.6624059324492193	0.557858954420139	0.0315288587813314	2.5359747564998103	-0.0078515887722979	-0.396217753950791	0.3883661651784931	69.65508382496361
4	2.0	perception	411	diff_vonmises	-0.0249434473234509	-1.42915425814063	7.077692968506779	1.2990990147356831	0.148318800979564	3.37204095512254	0.7332942128002693	-0.5487124811562515	1.282006693956521	49.67372936811546
5	2.0	wm	411	diff_vonmises	0.0161448697558075	0.925032897796183	3.746238652490121	0.6687313344465124	0.0768901553884381	2.8781782416698207	0.0020526660328568	-0.4459399360197012	0.4479926020525581	67.1038344463519
6	3.0	ltm	411	diff_vonmises	0.030631343254522	1.755046689300634	3.043425224218701	0.7470406890198977	0.0490033256629027	2.2215310556119103	0.1221840483655973	-0.3396851922710829	0.4618692406366803	76.0634549799941
7	3.0	perception	411	diff_vonmises	-0.0140463640716621	-0.8047973788104369	3.9356364739144807	2.319602807940586	0.1763216640632939	3.7580268160458634	1.0597400371196233	-0.559990492696375	1.6197305298159983	65.93607053083127
8	3.0	wm	411	diff_vonmises	-0.0751737484003741	-4.307138513519764	3.3585430380198167	0.806780280040572	0.0590463363557371	2.508875913346712	0.1399511131312179	-0.3847991399352932	0.5247502530665111	72.10216062284226
9	4.0	ltm	411	diff_vonmises	-0.00241127080589	-0.1381556404406112	2.5102655591142837	0.5515210668302221	1.8844828715183081e-19	3.227552885800584	-0.1878549212229364	-0.5115301800858499	0.3236752588629135	86.81609386273476
10	4.0	perception	411	diff_vonmises	-0.0620939651465905	-3.5577221361320723	1.357860148565191	7.460443808919098	0.5325043132259925	10.01701867645508	0.5106631035745424	-0.7474508147121166	1.258113918286659	89.62496816882313
11	4.0	wm	411	diff_vonmises	-0.038142837857592	-2.185423627891841	0.6469143857243953	226.0366080969499	0.6339933053011457	228.9527604680591	-0.2384770328736394	-0.5579505110981842	0.3194734782245447	92.16814793856452
12	5.0	ltm	411	diff_vonmises	-0.024232046560196	-1.3883939968637369	1.8508842519224176	0.9923049805868884	5.834481541843849e-15	2.294748925396213	0.1231853697917917	-0.3531658266500148	0.4763511964418066	100.61726227763332
13	5.0	perception	411	diff_vonmises	-0.0367088740026	-2.103263551026493	1.8142043247454376	3.2756161237752117	0.2405635338504361	4.524590490966403	0.6899538587249222	-0.5272373321637788	1.217191190888701	91.46474831251962
14	5.0	wm	411	diff_vonmises	-0.0220419354881384	-1.2629098757699635	1.0693695760027755	2.384443499087568	0.2007987450908649	3.909529404615245	0.092989531505169	-0.4042731711492927	0.4972627026544618	110.20799663057689
15	6.0	ltm	411	diff_vonmises	-0.1103309938184887	-6.321500295283383	0.9437206836265551	1.1447733652979128	5.607045535631275e-19	2.292473020278381	0.0141017379590226	-0.307459842294728	0.3215615802537507	130.86853793515715
16	6.0	perception	411	diff_vonmises	-0.0708807344745952	-4.061166934181743	0.4974028836958839	9.699420745477848	0.2461652885598543	10.85817530613394	0.2111492736856233	-0.4475439695780075	0.6586932432636309	136.4044643647179
17	6.0	wm	411	diff_vonmises	0.0085100858504107	0.4875920025225335	0.4514788080416337	210.1976304383764	0.4425850199512107	211.47609561295755	0.0444406008145605	-0.3451527687270577	0.3895933695416183	123.78424187062598
18	7.0	ltm	411	diff_vonmises	0.0028533086430881	0.1634825428971521	0.8365427974385028	145.44688882181052	0.8163599873708035	147.30132795738683	-0.0084532586264671	-0.4090538048598375	0.4006005462333704	87.72875119828294
19	7.0	perception	411	diff_vonmises	0.099952311265493	5.726845588090664	0.6635573242258169	315.0146852220963	0.6499701488375667	316.7444327288269	0.3381157011605182	-0.5508686938199006	0.8889843949804188	106.53365368527663
20	7.0	wm	411	diff_vonmises	-0.0631002133999967	-3.615375914194658	1.1231341188352026	3.549970363689741	0.5086848106536042	5.537660480682358	-0.0801204632481378	-0.4104536850469532	0.3303332217988153	87.26456964809154
0	1.0	ltm	221	diff_vonmises	-0.1525676921667323	-8.74148485120491	2.9397667495590376	0.2412495651659996	2.3104434392678384e-20	1.8079501394973327	-0.131560013380041	-0.2873074704835682	0.1557474571035272	80.1545638145013
1	1.0	perception	221	diff_vonmises	-0.0246259631742092	-1.4109637563267805	13.958259741718951	0.7491130523932965	0.0638266430218632	2.5143427597238257	0.6796910538381729	-0.4119791152947532	1.091670169132926	36.005638680354735
2	1.0	wm	221	diff_vonmises	-0.2785570280118604	-15.960142058787053	0.0005866119442418	1154.6234611441016	3.9806755677506695e-27	1156.3221187881152	-0.1625358052781962	-0.3781320982364491	0.2155962929582529	177.7589330281349
3	2.0	ltm	221	diff_vonmises	0.0611338316558516	3.5027105393435702	5.423775750351735	0.289291843653617	7.492568167558336e-20	1.1439046476834465	0.0798240692085364	-0.1820529828445967	0.2618770520531331	58.57930318821408
4	2.0	perception	221	diff_vonmises	-0.0145377562429583	-0.8329520763114755	7.776615006095899	1.338356392514181	0.4788773051082974	2.092041674618365	0.9554352375845117	-0.3703541627268902	1.3257894003114017	46.356976228345104
5	2.0	wm	221	diff_vonmises	0.0414401373807997	2.3743449743621428	4.444384041380338	0.4423470320526235	0.1618086707507446	1.4346566526091349	0.0933828891051689	-0.2241813789558598	0.3175642680610286	60.81146461589455
6	3.0	ltm	221	diff_vonmises	0.0955458334420657	5.474373006290284	2.6201040688263757	0.7846173920544395	0.8467922402836227	1.1293995975016302	0.1222417428241066	-0.1208775104379681	0.2431192532620747	67.07155953712251
7	3.0	perception	221	diff_vonmises	-0.0058280740285946	-0.3339240445282803	4.691986951059871	1.8393152967081687	0.4814713854292692	2.047783498124673	1.04332829060274	-0.302822458185449	1.346150748788189	59.05107307329294
8	3.0	wm	221	diff_vonmises	-0.0716423936514041	-4.1048067904403	3.6088371278911424	0.5831409434198583	0.4620892790830216	1.1136781497278616	0.1567721398886857	-0.1608100393821764	0.3175821792708622	63.4527058953237
9	4.0	ltm	221	diff_vonmises	-0.0981960499485281	-5.626219226906488	1.274474677829801	113.75413083352956	1.254571086795968	114.72650839999454	0.0355789679129543	-0.2458699573250236	0.2814489252379779	71.91249732456933
10	4.0	perception	221	diff_vonmises	-0.0711306901072909	-4.0754883370007295	2.782669350926609	2.248405672134203	0.2951840018367572	3.237437534617128	0.7330861655750586	-0.4252820451942594	1.1583682107693178	75.2322445584436
11	4.0	wm	221	diff_vonmises	-0.0894964772441644	-5.127770427379233	1.18902468791622	234.04697021126916	1.1772399027738154	235.2730278719426	0.0510741796458376	-0.3050697240379705	0.3561439036838081	74.63838625385497
12	5.0	ltm	221	diff_vonmises	0.0634494063352586	3.635383195620948	1.6672128073986967	1.0988057330665713	0.2758351339621341	1.835792732259457	0.1297465714725118	-0.2081368131850915	0.3378833846576034	90.84436749270547
13	5.0	perception	221	diff_vonmises	-0.0068724554186002	-0.3937626903776058	2.430304840316497	1.9871749057257648	0.1232065049314496	2.5957838836566043	0.6862309796396002	-0.359075401409108	1.0453063810487082	84.2860070535333
14	5.0	wm	221	diff_vonmises	0.1008289536673862	5.7770734978613545	1.463868277240867	0.9720873003017368	2.7874312784431816e-16	1.815797534546024	0.1258974173222752	-0.26678853259224	0.3926859499145152	111.5489259763082
15	6.0	ltm	221	diff_vonmises	-0.1903515956524599	-10.906343054466742	0.494829384061645	123.06191216786324	0.4820998759136334	123.77160016426808	0.1195153385207916	-0.2443211433900369	0.3638364819108286	122.57475859354211
16	6.0	perception	221	diff_vonmises	-0.0269993020998898	-1.5469460601223866	0.5807218158432106	205.47136548427287	0.5656859637554715	206.25126805114544	0.38101732689573	-0.3913571107605484	0.7723744376562784	117.47558866852808
17	6.0	wm	221	diff_vonmises	-0.0672706400787489	-3.854323761655916	0.4253077244295581	41.70155924881868	0.3792464263757847	42.503985778532616	0.1724706959686255	-0.3195002313353088	0.4919709273039343	132.83521203340598
18	7.0	ltm	221	diff_vonmises	0.1601766079809788	9.177443614031583	0.9855390881808788	175.52768193612363	0.972886295508998	176.45525974418769	0.1086579372884202	-0.2452950147742498	0.3539529520626701	84.85274756301806
19	7.0	perception	221	diff_vonmises	-0.0090648696449544	-0.5193787724921435	1.9544037325273744	1.5084927581001513	9.797597781410666e-19	2.39080331020904	0.3868653368958746	-0.3651091473489729	0.7519744842448475	98.09175533202496
20	7.0	wm	221	diff_vonmises	0.2067417211546557	11.845428071432304	0.794998296796794	26.204070585862723	0.7294768009506059	27.169376620671724	0.0476874093345998	-0.2331955193692305	0.2808829287038303	94.40894797887589
0	1.0	ltm	0	diff_vonmises	-0.0556773247006724	-3.1900757199280214	3.270673613632431	0.3796542881263591	1.0590221974472305e-18	2.7163819087483376	-0.1712131911321445	-0.4319489284578111	0.2607357373256665	75.90904758837385
1	1.0	perception	0	diff_vonmises	-0.024910153106514	-1.4272466400279509	12.879243998113848	0.7762388143169865	0.0118385833319539	3.236226618501101	0.5785915303130067	-0.5170035544120104	1.095595084725017	37.69312170169496
2	1.0	wm	0	diff_vonmises	0.0113098827322419	0.6480085473453507	5.421213950943668	0.3782216568668418	7.3952355737710295e-19	2.837567472593999	-0.1092775494357682	-0.4516061948759525	0.3423286454401842	58.58871312192127
3	2.0	ltm	0	diff_vonmises	-0.0786516148551732	-4.506405583089879	3.1772534937126364	0.7315106497657737	0.1802466360953018	2.1714412421539837	0.0843992288330643	-0.3221990812705333	0.4065983101035977	70.047685352001
4	2.0	perception	0	diff_vonmises	-0.0364580985290803	-2.088895174788421	7.191141389897756	1.2564401452203435	0.1473015579429025	2.6916744221348305	0.8253849126251005	-0.4367532700095656	1.2621381826346665	49.503652121833454
5	2.0	wm	0	diff_vonmises	0.0044927159251137	0.2574136610602329	4.068129080335512	0.6098600150989484	0.093800446653761	2.1117758311785857	0.104873613531953	-0.3272731428941898	0.4321467564261428	64.67376948207405
6	3.0	ltm	0	diff_vonmises	-0.0138589047165677	-0.7940567489332803	2.4171369823937296	0.8168670487020969	0.137153276860446	1.6095693680547756	0.1795061481031171	-0.2255391775922606	0.4050453256953778	82.32765571387571
7	3.0	perception	0	diff_vonmises	-0.0169330404250546	-0.9701917506800388	3.909587411280565	2.0685644957791047	0.2417109388674623	2.7698404566606243	1.017416010893094	-0.4033431261023972	1.420759136995491	65.78541264769672
8	3.0	wm	0	diff_vonmises	-0.1005058208560144	-5.758559351547556	2.678563920015463	1.0451206803966038	0.3318077100036498	1.8811547726055649	0.2353231607661608	-0.2481532418820268	0.4834764026481877	74.1417395840273
9	4.0	ltm	0	diff_vonmises	-0.1310206578775073	-7.506930725408655	2.4929257913220173	0.8483388864245925	0.2013105937626918	2.479911631980261	0.0212495377368446	-0.3508008107991361	0.3720503485359808	76.33107492513511
10	4.0	perception	0	diff_vonmises	-0.0997543497932055	-5.715503231222392	1.899083378302031	3.880693682265076	0.4050754859241718	5.55154248774556	0.6680504920209531	-0.5870693713981543	1.2551198634191074	84.41636543365553
11	4.0	wm	0	diff_vonmises	-0.1360546279061482	-7.795355962245128	0.9490205615417728	274.92150933863365	0.9380786189264114	276.6928087785152	-0.0129610524275136	-0.394266604510797	0.3813055520832833	81.68853308430582
12	5.0	ltm	0	diff_vonmises	-0.0329069848679808	-1.8854313494361683	1.4401923175416915	1.1941823535076703	3.259244323376373e-14	2.054442557600881	0.1777162544939283	-0.2986547137690834	0.4763709682630118	112.3527191493828
13	5.0	perception	0	diff_vonmises	-0.0411725115054083	-2.359011141213722	2.229710714583577	2.418103791584917	0.1253436033668771	3.0617689924894265	0.7814540829963629	-0.4150187341962404	1.1964728171926031	87.76910540443242
14	5.0	wm	0	diff_vonmises	-0.0161945064671372	-0.9278768718642842	0.6617379836895011	151.799434691983	0.6472001562170061	152.66062478462635	0.1831603571116531	-0.2820254213445174	0.4651857784561706	107.05627804263725
15	6.0	ltm	0	diff_vonmises	-0.0707932857844355	-4.056156493311645	0.7529494260079803	1.4846249633026891	0.0594350285353662	2.1438524845784244	0.0756797625869915	-0.2241960410568488	0.2998758036438403	135.18839049114436
16	6.0	perception	0	diff_vonmises	-0.0856757476239697	-4.9088587454814565	0.7265794984976425	2.957234582277004	5.592783660147166e-10	3.58122106755276	0.2865249825072338	-0.3696942846378812	0.656219267145115	140.74630188008848
17	6.0	wm	0	diff_vonmises	-0.1046868084896738	-5.9981122971526295	0.4920570010532528	155.7562235415125	0.4816976999331127	156.4006011567356	0.1441531593066756	-0.2438979020956182	0.3880510614022938	123.6682665337223
18	7.0	ltm	0	diff_vonmises	0.1388548213594556	7.955795228939806	1.5888281934666002	1.3151785960478846	0.2202656012800518	2.2970114706388296	0.1397330952605882	-0.2701287796657029	0.4098618749262911	94.46437837727808
19	7.0	perception	0	diff_vonmises	0.0253328817364727	1.4514672064039322	0.8767412432049128	315.5117846477885	0.8642775817887365	316.29988784053256	0.5008673546711435	-0.3720964764476342	0.8729638311187777	96.22746909000978
20	7.0	wm	0	diff_vonmises	0.0621271052309676	3.559620923099585	0.8223682073218181	51.02736186270809	0.78167194542983	51.975067055141686	0.1120852697750418	-0.2538101714641136	0.3658954412391555	94.26322142203762
0	1.0	ltm	319	diff_vonmises	-0.0602871228535056	-3.454197698492563	6.058113723454163	0.3020937193800898	0.0472476453873397	1.7153873508515858	0.0038435181125699	-0.2731745777023505	0.2770180958149205	53.97391937049247
1	1.0	perception	319	diff_vonmises	-0.0559006079504011	-3.2028689077734414	15.190700623132372	0.6915915527473592	0.050120892423797	2.345989643052319	0.6738019634483524	-0.3824310680889838	1.0562330315373365	34.564135642114906
2	1.0	wm	319	diff_vonmises	-0.0424756352962535	-2.433674634612242	7.413803196621537	0.3155439317031672	4.1621397829292057e-17	1.9352466007059488	0.0285007016605446	-0.3080039402473583	0.3365046419079029	49.95824888234665
3	2.0	ltm	319	diff_vonmises	-0.0507378375268889	-2.9070639519112222	2.914956910040766	0.8610772471507546	0.49759558096372	1.5395351119769929	0.1756049492272939	-0.2020583164137324	0.3776632656410263	68.51383479598391
4	2.0	perception	319	diff_vonmises	-0.0375119875180003	-2.149278565928844	7.479448413158485	1.1823075498291986	0.4366026045517872	1.9132145171529849	0.8173593912061676	-0.3328406755332276	1.1502000667393952	47.32484203210512
5	2.0	wm	319	diff_vonmises	-0.0122260522226519	-0.7005011924644952	3.944886325468865	0.6158020532389433	0.3240435799102304	1.4238547203158085	0.1645905684577702	-0.2155537547943261	0.3801443232520963	62.34773392523184
6	3.0	ltm	319	diff_vonmises	0.036894968071812	2.1139259557847545	1.6075692631479606	112.45355359721228	1.5873241650967789	112.84677839949178	0.2137459535658905	-0.1694558254846683	0.3832017790505588	69.73509055388197
7	3.0	perception	319	diff_vonmises	-0.031965859299994	-1.8315088263986703	4.633220638355328	1.922660773187281	0.5612849818543101	2.310018002168096	1.0040506682492147	-0.3420712294048035	1.3461218976540184	58.51796334643075
8	3.0	wm	319	diff_vonmises	-0.0525690363518667	-3.011983916031768	1.5065168795155386	59.08885596711573	1.4647696056950554	59.69225631481805	0.1751821707344767	-0.2071805130975006	0.3823626838319773	70.58310304555962
9	4.0	ltm	319	diff_vonmises	-0.1905788879854344	-10.919365945861864	1.3346001499131228	157.51515206902275	1.3172134174617829	158.2244081847367	0.2114395393761654	-0.2375803518717134	0.4490198912478789	75.09198916947938
10	4.0	perception	319	diff_vonmises	-0.0826246528008826	-4.734043889224354	3.0215583888336446	1.85822775778063	0.1337395144063537	2.739748221883249	0.7257774508963906	-0.3937131109778472	1.1194905618742377	75.5710796630324
11	4.0	wm	319	diff_vonmises	-0.1779579156134245	-10.196237495594485	1.284905884396723	267.1686431574629	1.2734005237227726	268.11951477113087	0.1873963605340947	-0.2860791669268288	0.4734755274609235	75.19460149804073
12	5.0	ltm	319	diff_vonmises	0.0358037473680363	2.0514036149411106	1.6042436540375522	1.6079431129564623	0.2776617737832849	1.817401065954457	0.3509193899192767	-0.1868353483116938	0.5377547382309705	96.77600364692344
13	5.0	perception	319	diff_vonmises	-0.0362037301393776	-2.0743209396169155	2.478491582190653	1.8300169933638264	0.0853557882386575	2.0148743566063425	0.7244584494691373	-0.2867688699018718	1.011227319371009	84.9798829527449
14	5.0	wm	319	diff_vonmises	-0.0004633695269461	-0.026549118248985	0.8530259058415202	47.67118437343936	0.8109244623837847	47.88417743909704	0.3180039010289306	-0.1801792731407965	0.4981831741697271	100.57478996496886
15	6.0	ltm	319	diff_vonmises	-0.1237844808510617	-7.092328321983795	0.4776096458884183	57.867210542426186	0.4532460000459499	57.89278339619596	0.2559108890685095	-0.1662791150056186	0.4221900040741282	130.4665443741286
16	6.0	perception	319	diff_vonmises	-0.0089117212961403	-0.5106040184656963	1.4446947385976847	1.5822011790677395	2.2280777236143704e-11	1.7924717636865195	0.384624071693684	-0.2480233052285657	0.6326473769222498	112.21669010194864
17	6.0	wm	319	diff_vonmises	-0.1517789902202421	-8.696295558377269	0.547634632204547	69.59777091442685	0.5248084829822469	69.56393698669696	0.3069767047995881	-0.1705190463701029	0.4774957511696911	124.6671976530337
18	7.0	ltm	319	diff_vonmises	0.0625301869087282	3.582715802034323	0.983523039482282	156.1822427095611	0.9690478819186272	156.55214033536674	0.3042535925977603	-0.1948831547982816	0.4991367473960419	91.53210700448312
19	7.0	perception	319	diff_vonmises	-0.0895126475766915	-5.12869691918636	1.434629081429289	2.766256765337799	0.3787112598624846	3.0876219825388582	0.4737623095892491	-0.2622598002274888	0.7360221098167379	97.68181855911156
20	7.0	wm	319	diff_vonmises	0.1959829245819938	11.22899443517896	2.0772706928985825	0.8797998215467682	0.1753442252432263	1.1775918750834924	0.2427368749701759	-0.1509175674428593	0.3936544424130352	88.76739521286765
0	1.0	ltm	486	diff_vonmises	-0.0776695842774953	-4.4501393756361365	2.819919866086802	0.3011363567751097	5.673832892801899e-19	2.821235170444286	-0.258672072357356	-0.4483370387490772	0.1896649663917212	81.87635471123687
1	1.0	perception	486	diff_vonmises	-0.0056909981963735	-0.3260701778687684	12.988351207536892	0.8143091852858371	0.0648648245291465	3.413807349979192	0.579731585336053	-0.559157097212769	1.138888682548822	37.23601501305623
2	1.0	wm	486	diff_vonmises	0.0631555176872163	3.6185446164413193	4.702789693362601	0.3296875541726622	7.54775780493251e-19	2.980828102559826	-0.1977719207374071	-0.4743907646952778	0.2766188439578707	63.00922693013351
3	2.0	ltm	486	diff_vonmises	-0.0312205114035052	-1.7888035376609093	3.761167862382849	0.3996188365839704	1.1925558807141524e-18	1.8695633735625792	-0.0005029622289638	-0.2973895808096886	0.2968866185807248	70.66000682838882
4	2.0	perception	486	diff_vonmises	-0.0268875248549375	-1.5405416957410227	8.181752010195043	1.2509360910609673	0.224620131206099	2.7035221578340214	0.8720298081092729	-0.4547440362455569	1.3267738443548298	46.08716994888235
5	2.0	wm	486	diff_vonmises	0.0291693052780273	1.6712780837596457	4.218321461677344	0.5359633764500621	0.0864988184675338	2.1627837335550355	0.0495234084228593	-0.3373798291031665	0.3869032375260259	63.44306836497637
6	3.0	ltm	486	diff_vonmises	0.0204086144703234	1.1693274748591538	2.910083578735618	0.5302456392540781	0.2092977996991421	1.1337173375280447	0.1212684734345252	-0.1609534134130135	0.2822218868475388	73.57015137383112
7	3.0	perception	486	diff_vonmises	-0.0071079749826903	-0.4072569673927306	3.937771365117959	2.0491397035673367	0.3455782534894553	2.55439361156029	1.004307876381921	-0.3645200985337777	1.3688279749156989	64.65965097831892
8	3.0	wm	486	diff_vonmises	-0.1110011567255339	-6.35989780144329	3.246986527251035	0.6922168597233763	0.2740847143443209	1.438680232536437	0.1785226550107499	-0.2063003927143171	0.384823047725067	69.01689380902812
9	4.0	ltm	486	diff_vonmises	-0.0429190916716536	-2.4590828133208373	1.3821643024352877	2.881339835299312	0.6645952533602901	4.390790292453082	-0.0319056237978734	-0.3293967983481982	0.2974911745503247	78.63562108616168
10	4.0	perception	486	diff_vonmises	-0.0936088008908182	-5.363389216324347	2.01801916784794	3.9985070323474776	0.5358730123061257	5.403546004624464	0.7043228995275645	-0.5360282269512676	1.2403511264788325	80.10415595411692
11	4.0	wm	486	diff_vonmises	-0.0962221686257105	-5.513124157849336	0.9531306510384576	240.11575070195389	0.941986370943354	241.80110168484435	-0.0491364990766669	-0.3644153044056821	0.3152788053290152	80.15480034645825
12	5.0	ltm	486	diff_vonmises	0.0244009634864727	1.3980722238277148	1.5473589773078833	1.007535488390392	0.0964987656381446	2.3311580370703697	0.0370544087781147	-0.3159801743473407	0.3530345831254555	100.63072623092764
13	5.0	perception	486	diff_vonmises	-0.0159765456882412	-0.9153886391341576	2.4419803511647427	2.2531612016744824	0.1146021656698394	3.4472328803140413	0.6964467621272651	-0.4843019542191565	1.1807487163464216	83.78512065064825
14	5.0	wm	486	diff_vonmises	0.0001866364123299	0.010693478729972	0.5129898264498459	140.76841733561517	0.4982190342812577	142.23649390877208	0.0272134328144133	-0.3669047273601826	0.394118160174596	115.72941177153852
15	6.0	ltm	486	diff_vonmises	-0.1460360931003959	-8.367251791232249	0.4253527216472334	146.2473969262629	0.4147086866921846	147.6379039801483	-0.0343021534201213	-0.3279459331218675	0.2936437797017461	123.75661708582732
16	6.0	perception	486	diff_vonmises	-0.0679115930540496	-3.891047662006999	0.3391050645021375	181.59296072799285	0.3230783697056868	182.9245082846428	0.2399057166997593	-0.5260595114019786	0.765965228101738	140.6606290867404
17	6.0	wm	486	diff_vonmises	-0.1484871287424612	-8.50768578895873	0.4364242278902571	177.00784982616685	0.4246646834117978	178.50285327435478	0.03632721286057	-0.3978579526720054	0.4341851655325754	125.3047233833746
18	7.0	ltm	486	diff_vonmises	0.2496625144030095	14.304608377916574	0.7309446795495173	143.69626821694325	0.7166134597036788	144.929764353799	0.0379519732108661	-0.2902456079190738	0.32819758112994	96.13499118276684
19	7.0	perception	486	diff_vonmises	0.0218582791442717	1.2523871423856	1.0625518734151955	7.52614931886332	0.5877230110075085	8.613323473897845	0.3932300809396016	-0.3993925915348364	0.7926226724744381	97.45183303949597
20	7.0	wm	486	diff_vonmises	0.1300798273608902	7.45302510756938	0.803600431108044	61.80182236484216	0.7690894550109465	63.09278050827892	0.0229137989248968	-0.2951821981928146	0.3180959971177115	91.35830259210084
0	1.0	ltm	54	diff_vonmises	0.0781338022401784	4.476737105672041	4.331043076836632	0.3391010322096849	0.0203826949300209	3.696373174983059	-0.3281585406235917	-0.5847545878066163	0.2565960471830245	63.61780892471453
1	1.0	perception	54	diff_vonmises	0.0450926312759716	2.583617459252792	9.894763435393264	0.7823287864345522	0.075918574924917	4.11168968558402	0.2634847487962488	-0.6720743714095286	0.9355591202057776	42.32518005188129
2	1.0	wm	54	diff_vonmises	0.1173768859632838	6.72520017808452	3.637589341423413	0.5192185532774451	0.033045073278478	3.915629879384288	-0.2650585872711514	-0.6141644259784149	0.3491058387072634	68.78262037541018
3	2.0	ltm	54	diff_vonmises	0.0137565354020199	0.7881914192580486	3.1629579124248903	0.7078921575731321	0.1959754450641495	2.3406938860928808	0.0288942984443689	-0.3489492636083787	0.3778435620527476	69.0770270208601
4	2.0	perception	54	diff_vonmises	0.0021348263060542	0.1223165373304099	6.46891514181609	1.3461170206685609	0.2449924879903834	2.954582869096696	0.7453985176322667	-0.4847960139674202	1.230194531599687	51.235516958582906
5	2.0	wm	54	diff_vonmises	0.0897881233910228	5.144480520705475	4.117364390009311	0.7076725777399735	0.1690611467813577	2.4346862514811227	0.0971301494908259	-0.3779319335009544	0.4750620829917803	62.49818041609944
6	3.0	ltm	54	diff_vonmises	0.0245806309471414	1.408366411039864	3.410535898222188	0.5403373638584233	0.0693487773642475	1.5974350345162716	0.1082493763934807	-0.2442215362107372	0.352470912604218	71.33357893012288
7	3.0	perception	54	diff_vonmises	0.0103448606356228	0.5927168540722138	4.327625931887578	1.6856823601458613	0.1200330251628614	2.731928255299729	0.8640480569735225	-0.4164904224124499	1.2805384793859724	63.81282807195319
8	3.0	wm	54	diff_vonmises	-0.0012020143450823	-0.0688703488873981	3.2928643232526986	0.6935366292439495	0.1230880292438663	1.8845725768177044	0.1408669486661541	-0.2824842933569469	0.423351242023101	71.03335076039806
9	4.0	ltm	54	diff_vonmises	0.0090504978580346	0.5185553297575763	1.7645051752803924	0.8771920606842148	0.1237384772737362	3.1102074220844256	-0.1386959306122872	-0.4339401705660343	0.2952442399537471	89.24474716622774
10	4.0	perception	54	diff_vonmises	-0.0702001375824429	-4.022171604711698	1.5487175376322002	5.402452828972762	0.4947902359462325	7.353988566301411	0.5785418171964298	-0.6318426968286385	1.2103845140250682	87.84293993821044
11	4.0	wm	54	diff_vonmises	0.0107095676315911	0.6136130257000878	0.7730705360026644	210.08686108477545	0.7579259882053081	212.49254679057825	-0.1036362878132735	-0.4965576662041933	0.3929213783909198	88.4042032797689
12	5.0	ltm	54	diff_vonmises	-0.0572471950459354	-3.2800226650943376	1.42061338589056	1.3070480242234392	0.0440000253558003	2.870730048341584	0.070630964368015	-0.4050422993574458	0.4756732637254609	109.23291133493296
13	5.0	perception	54	diff_vonmises	-0.0455700246283202	-2.610970083509967	1.5334571010901044	4.727042414789399	0.4309540115259836	6.182186760509584	0.6289771451225792	-0.5496830907571278	1.1786602358797071	91.10173794551572
14	5.0	wm	54	diff_vonmises	0.0716882344257717	4.107433273341175	0.5935339960382862	251.8027479205386	0.5822537086073427	253.3915178134429	0.1203755505017909	-0.4271481373731056	0.5475236878748966	109.4689253062987
15	6.0	ltm	54	diff_vonmises	-0.0309731279485427	-1.774629509770194	0.4794422511076961	240.92217822629357	0.4699533985927442	242.4839866428537	0.0489057925331124	-0.4106675512796869	0.4595733438127993	120.21134185057592
16	6.0	perception	54	diff_vonmises	-0.105429572902315	-6.040669563169484	0.5026205538666377	261.0630466064449	0.4886302912370743	262.5001963750169	0.3306189047623604	-0.5457966673213264	0.8764155720836868	122.8300897311055
17	6.0	wm	54	diff_vonmises	-0.0318306062133427	-1.823759395367432	0.5506648298288571	254.64465886330757	0.5392075952874844	256.21274918070475	0.1503473295489783	-0.4516425579070819	0.6019898874560603	114.72263238144107
18	7.0	ltm	54	diff_vonmises	0.0529135944488866	3.031725640788065	0.5985730541140497	73.13568463017677	0.5613321021420586	75.53796880414787	-0.1059647141620061	-0.5003463327625912	0.394381618600585	102.38717794570982
19	7.0	perception	54	diff_vonmises	0.0219067663834344	1.2551652565498643	0.87529901724544	218.7641832620926	0.8482099036887534	220.90821498863	0.45962320514829	-0.6494368564616941	1.1090600616099842	92.858538937929
20	7.0	wm	54	diff_vonmises	0.1524574794457447	8.735170127443672	1.6373562438760558	1.707568899283236	0.2576952446695708	4.029136420359054	-0.036085022341413	-0.4909875467988856	0.4549025244574725	87.19393968388118
0	1.0	ltm	31	diff_vonmises	0.0160754015942955	0.921052665331008	4.492435239475091	0.2880827528080317	3.44560298169039e-17	2.841968912412792	-0.2164303982080113	-0.452283846223723	0.2358534480157116	64.50110321042436
1	1.0	perception	31	diff_vonmises	0.0191891493109016	1.0994572679610362	10.68590772321854	0.8132758991767167	0.0642856619325306	3.496581460962609	0.4547787481777576	-0.5693446180710144	1.024123366248772	40.966782615497294
2	1.0	wm	31	diff_vonmises	0.0912322241930454	5.227221401852824	3.805539363609319	0.4454398855010618	3.363798814964768e-14	3.064586532213365	-0.1544957751292103	-0.4875791481164409	0.3330833729872306	70.23528954828129
3	2.0	ltm	31	diff_vonmises	0.0523583979946755	2.999915227161144	3.34328926137862	0.6554020538923647	0.2572144169752853	1.8365313233168905	0.0845043995784636	-0.2724914232037486	0.3569958227822122	66.89100649828521
4	2.0	perception	31	diff_vonmises	-7.415790024302379e-06	-0.0004248934701477	6.564516869000559	1.4307286421544323	0.3562575997573163	2.4708066396923964	0.888156325110893	-0.4118487554645978	1.3000050805754908	50.55186117445911
5	2.0	wm	31	diff_vonmises	0.072808133295158	4.171598752038481	4.1646948663928525	0.6412267159159892	0.1850382530001304	1.898330528751066	0.1435061141115122	-0.2933993700903624	0.4369054842018746	62.38947385653512
6	3.0	ltm	31	diff_vonmises	0.0696491316921456	3.990601292710809	4.085374260343204	0.3761010153136349	0.0108371254265528	1.0138799574769686	0.1293992130521693	-0.1598894752457106	0.28928868829788	67.2838570303382
7	3.0	perception	31	diff_vonmises	0.0122086516939461	0.6995042156083567	4.746094157357017	1.5891163210775074	0.1772796617583611	2.148951937063654	0.9348843596465012	-0.3277492997555515	1.2626336594020529	60.72293834827519
8	3.0	wm	31	diff_vonmises	-0.0310551260037655	-1.7793276522627426	3.807415153451773	0.5686159381665998	0.1320273279770534	1.315529147339011	0.187630583781816	-0.1993078173893909	0.3869384011712069	66.79886959027363
9	4.0	ltm	31	diff_vonmises	-0.1132270376846986	-6.487431386101957	2.403588109715179	0.6902977044595824	0.1777653240147511	2.3130138616103206	-0.0388087502532644	-0.3306030532517127	0.2917943029984483	77.25877217455817
10	4.0	perception	31	diff_vonmises	-0.0556830403261112	-3.190403201142944	2.144602382250234	2.947366592369181	0.2756301953844603	4.4655118237291385	0.6670638017183916	-0.5458526855279513	1.212916487246343	83.76427968235146
11	4.0	wm	31	diff_vonmises	-0.0217209561099667	-1.2445191120899908	0.943925750244734	295.56297545206274	0.9330258723450509	297.38953549479595	0.0113037919432628	-0.4139412215948894	0.4252450135381522	82.65792724620155
12	5.0	ltm	31	diff_vonmises	-0.0569147864497598	-3.260977055459606	1.5014103138729091	1.0638421697991334	1.0895584470889145e-18	1.97257649339706	0.1471162956701863	-0.2910543373598733	0.4381706330300596	110.40681747450452
13	5.0	perception	31	diff_vonmises	-0.0276791160591563	-1.585896530842439	1.683023799901734	3.600146764567453	0.3764856688165235	4.300014377721832	0.7095612973694849	-0.4140671029149991	1.123628400284484	91.34422429760664
14	5.0	wm	31	diff_vonmises	0.101997662651316	5.8440355901195575	0.6209907873425309	103.28367831058569	0.5979833037405027	104.17325721817951	0.2142676993851964	-0.3138389674065038	0.5281066667917003	111.57447395787436
15	6.0	ltm	31	diff_vonmises	-0.0511342460585218	-2.929776487736765	0.4726213816787354	166.63659343456595	0.4617812003803199	167.36766116666303	0.1606161609406058	-0.2791403603953988	0.4397565213360046	125.74955090926012
16	6.0	perception	31	diff_vonmises	-0.0623204652501042	-3.57069963612268	0.5558870644540063	266.63571617199614	0.5433319678658761	267.26972574572915	0.4684448871423541	-0.415695883795415	0.8841407709377691	120.69487103354844
17	6.0	wm	31	diff_vonmises	-0.0062066778347811	-0.3556164447303577	0.507082361216573	122.92467581431576	0.4872810695341135	123.63460194966493	0.2812391647224608	-0.3406585688001886	0.6218977335226494	124.24095660326144
18	7.0	ltm	31	diff_vonmises	0.1127618623280104	6.460778801430227	0.7465159770854971	123.6005392198988	0.7260352490985441	125.13330860466054	0.0393057752506678	-0.3567591245276542	0.396064899778322	95.0103534646008
19	7.0	perception	31	diff_vonmises	0.0391331748773618	2.242165759420215	1.396657230622398	4.522214790681049	0.4354882244676252	5.873869894141319	0.4973065154307783	-0.4867656031299784	0.9840721185607568	93.6663333689382
20	7.0	wm	31	diff_vonmises	0.1488071325139269	8.526020654491983	0.6872854960813001	52.86531992323547	0.6427398114715104	54.36170171808917	0.0384830511958096	-0.3532386295403995	0.3917216807362091	100.29796681258318
0	1.0	ltm	129	diff_vonmises	-0.0974930823013946	-5.585942147591496	3.774815068325744	0.4282435847367087	7.236163700050507e-21	1.8978389261513209	0.0168861213011947	-0.3018825553636642	0.3187686766648589	70.53200328307355
1	1.0	perception	129	diff_vonmises	-0.0797035329782237	-4.566676051933993	16.808944573657097	0.6444950655050053	4.750552871724578e-17	2.3557985603610496	0.6706467493180144	-0.3749369858102292	1.0455837351282435	33.03588528994041
2	1.0	wm	129	diff_vonmises	-0.0242636302390773	-1.3902036083651352	4.739899688755845	0.4384201730275328	7.554182051723017e-19	2.075364943974137	0.0391255892404609	-0.3302763665459683	0.3694019557864292	62.75612959665514
3	2.0	ltm	129	diff_vonmises	-0.0766691516525899	-4.392818808541865	2.334033281447479	1.2946431316288605	0.5485229644795878	2.12261616750457	0.1895940455938961	-0.2428430221027108	0.4324370676966069	73.5954244778099
4	2.0	perception	129	diff_vonmises	-0.0504115424466828	-2.888368620939529	6.829333684300295	1.121156737616465	0.21065765242169	1.9879746289633289	0.759510307332786	-0.3237365169381546	1.0832468242709403	50.5154520617524
5	2.0	wm	129	diff_vonmises	-0.0311356642412102	-1.7839421533577442	3.871536430275013	0.6905611380294409	0.270087807699278	1.5875882860194666	0.1964662029677404	-0.239024472859058	0.4354906758267984	63.76928648285608
6	3.0	ltm	129	diff_vonmises	-0.0564756340115422	-3.2358154741868588	1.232102071295118	144.43005532351694	1.211930695891685	145.12368866847066	0.271846870383662	-0.2503489688950271	0.5221958392786892	79.3310821098579
7	3.0	perception	129	diff_vonmises	-0.0522241845018797	-2.9922253604702336	3.931578091012172	2.225496721016609	0.3509965462766672	2.947727154488853	1.048679443981471	-0.4226195586796686	1.4712990026611397	64.43170437929604
8	3.0	wm	129	diff_vonmises	-0.1015020971186446	-5.815641776625335	1.310114974106506	164.30188907156636	1.2907348251394375	165.12564012630452	0.2527266779303261	-0.2770820901525326	0.5298087680828587	75.9645580269989
9	4.0	ltm	129	diff_vonmises	-0.1956373493282382	-11.209194431634604	1.9250955862178287	2.21468870846972	0.675360363301224	3.1455526673829377	0.2360873643246469	-0.2853699119698841	0.5214572762945311	76.83012210883257
10	4.0	perception	129	diff_vonmises	-0.1124172022385485	-6.441031232937463	2.3055594506255823	2.742541208330317	0.2227841463758813	3.762382378643527	0.801672085007707	-0.4806643396935209	1.282336424701228	83.4157663641084
11	4.0	wm	129	diff_vonmises	-0.1821336613697242	-10.43549010375012	1.1902517875458194	310.49945247630865	1.17891355146534	311.6758844624054	0.2103018339825411	-0.3416196389075168	0.5519214728900579	78.01055671628299
12	5.0	ltm	129	diff_vonmises	-0.0014532594671468	-0.0832656340049431	0.6941420923657905	112.37099492696298	0.6739505647937484	112.74560029468704	0.3273949104967464	-0.2424713958731779	0.5698663063699243	109.53163569410223
13	5.0	perception	129	diff_vonmises	-0.0224672334819091	-1.2872776558484074	1.761438750399092	2.7119908673373065	0.2849464533641871	3.0794760176216087	0.6565682355895301	-0.3286260254085957	0.985194260998126	92.96308583471168
14	5.0	wm	129	diff_vonmises	-0.0455340595895468	-2.608909438578229	0.7707240884572053	157.91660628902886	0.7570791074983009	158.3301170606426	0.289246590146611	-0.2183452599532973	0.5075918500999084	103.06068586437344
15	6.0	ltm	129	diff_vonmises	-0.1463713643773534	-8.386461420393875	0.3339476191499305	101.3131155349403	0.3198323735383493	101.63346493191924	0.1893143122596861	-0.2217185527004002	0.4110328649600863	142.53591374156002
16	6.0	perception	129	diff_vonmises	0.0042627311221658	0.2442365024991694	0.6593246287533083	85.73564436697214	0.6278340717585018	86.17144502636118	0.3948600133782705	-0.3001980108066746	0.6950580241849451	112.93895885815134
17	6.0	wm	129	diff_vonmises	-0.1349058944370397	-7.729538382679788	0.5023747625235919	123.39686701646554	0.4880564902604595	123.69713872115828	0.2565540189169084	-0.2277623654656171	0.4843163843825255	125.9862651311826
18	7.0	ltm	129	diff_vonmises	0.0065370902094632	0.3745476792985348	0.9206739665355158	157.35594731063847	0.9030738313015272	158.0395009636101	0.3061309728647643	-0.2670238847331507	0.5731548575979151	92.84267460398064
19	7.0	perception	129	diff_vonmises	-0.0023642014054734	-0.1354587624525254	1.911458791512508	1.9411991855552009	0.0529178214120909	2.6483738937680354	0.530249098617702	-0.3781938246376838	0.908442923255386	96.84130130376562
20	7.0	wm	129	diff_vonmises	0.1276741953927924	7.315192548735625	1.4122309254169676	2.007653560819353	0.4298122326201058	2.629631800755478	0.2239652812399528	-0.2217514400379502	0.4457167212779031	93.4078401836758
0	1.0	ltm	227	diff_vonmises	-0.094472162522206	-5.412856193996399	5.015322165953494	0.3377010252006791	2.2784034908467568e-20	1.9170036160856248	-0.0118279275519294	-0.3050876853307397	0.2932597577788102	60.96775087799929
1	1.0	perception	227	diff_vonmises	-0.0656095110503139	-3.759148079099926	17.11450688511138	0.6681525098978999	0.0063154021588359	2.4873205081816088	0.6959138596640235	-0.3969178292168716	1.092831688880895	32.705261053477386
2	1.0	wm	227	diff_vonmises	-0.0307009966496493	-1.7590375348701883	5.081951866046128	0.381971038991051	9.927379722373249e-19	2.1620576234376463	-0.0100151305529675	-0.344089282304972	0.3340741517520045	60.55455388033215
3	2.0	ltm	227	diff_vonmises	-0.0445400514644503	-2.551956968208486	3.393025563291104	0.5975074138966021	0.1958876639730367	1.38412830408755	0.1540472754058856	-0.2041787748680743	0.35822605027396	68.89601974742183
4	2.0	perception	227	diff_vonmises	-0.0437433243247822	-2.5063078656819764	7.467199192399862	1.1591387235715045	0.3560680420324933	1.9556556200313664	0.8100633442735161	-0.3339256708822672	1.1439890151557832	47.71130682057395
5	2.0	wm	227	diff_vonmises	-0.0331126608442303	-1.897215714822497	3.7288324659556578	0.6973313366412317	0.3082530816795497	1.5995349041236355	0.1774961829045004	-0.2387126460788659	0.4162088289833664	64.09680775634666
6	3.0	ltm	227	diff_vonmises	-0.0182766170513308	-1.047173020818092	1.3998590417579762	87.00827220623295	1.3717258830051395	87.53056384212086	0.2237146870116433	-0.198223000607518	0.4219376876191614	74.49897853619532
7	3.0	perception	227	diff_vonmises	-0.0395107923492953	-2.263801646832409	4.119471341445043	2.176223956117105	0.498836870350294	2.640927744773035	1.04914010017615	-0.3747914668299143	1.4239315670060644	62.03644660238322
8	3.0	wm	227	diff_vonmises	-0.0990274689703792	-5.673856027865449	1.447163405212594	24.518229536705377	1.3330445082306437	25.225012493421435	0.2151174552763901	-0.2407890993581807	0.4559065546345708	73.30133838215875
9	4.0	ltm	227	diff_vonmises	-0.1793257474586757	-10.274608487410967	1.2381916613577395	124.96266500573404	1.2153434734120234	125.78663104482987	0.2105254777431824	-0.2608876575984471	0.4714131353416295	77.73531662471578
10	4.0	perception	227	diff_vonmises	-0.09246849393194	-5.298054440231229	2.683463250609313	2.344446879140452	0.2190565814910021	3.180760244163498	0.8173186343589469	-0.4248350242001764	1.2421536585591233	78.2402757888103
11	4.0	wm	227	diff_vonmises	-0.169494089498682	-9.711295980687131	1.2051062514162307	281.0668440931255	1.1934664019081902	282.1382084934701	0.199476927221184	-0.3143186555497692	0.5137955827709533	77.62914625035717
12	5.0	ltm	227	diff_vonmises	0.0222549151953249	1.275112714113684	0.7608284225566463	135.8366158869854	0.7445401387687894	136.30281520538907	0.2857661667821531	-0.2295660976975	0.5153322644796532	103.42255638578725
13	5.0	perception	227	diff_vonmises	-0.0034780443030748	-0.199277259525708	2.0282722762038907	2.2613196944377765	0.1949174569773203	2.7304077691771043	0.6534030096067522	-0.3381618732722236	0.9915648828789758	89.71417191651457
14	5.0	wm	227	diff_vonmises	-0.0329883107427583	-1.8900909788261269	0.7182769013174252	132.08072349308063	0.7021628899975266	132.59336443845066	0.2597508630667704	-0.2339901368781181	0.4937409999448885	105.85915917300548
15	6.0	ltm	227	diff_vonmises	-0.1667798916569924	-9.555783899594797	0.3857085930190627	144.7238113667286	0.3745837765373173	145.09414492064968	0.2112546274380022	-0.2397497023248096	0.4510043297628119	136.77607135819795
16	6.0	perception	227	diff_vonmises	0.0255666362436254	1.464860353105942	0.8399102306519295	7.718525522792123	0.4626591370948156	8.24971191302472	0.4243479277650732	-0.3362917824669367	0.7606397102320099	112.40513770191644
17	6.0	wm	227	diff_vonmises	-0.1514368653899296	-8.676693249533736	0.4615360919991151	105.44197688836287	0.4425969957442177	105.8128530439518	0.2826545104783129	-0.270801968950412	0.5534564794287249	129.9386333011322
18	7.0	ltm	227	diff_vonmises	0.0612729323427815	3.5106804216320238	0.9281617021241794	159.41356221363452	0.9127609787024804	160.0531908287827	0.2590769129210812	-0.238645447050505	0.4977223599715863	92.05027029242606
19	7.0	perception	227	diff_vonmises	-0.0136443389110822	-0.781763033851137	1.9255929424289835	1.6088724640400482	3.2001311546725856e-16	2.2567602219807887	0.4519750226390404	-0.3419334715282289	0.7939084941672694	98.7752474541716
20	7.0	wm	227	diff_vonmises	0.1814356441489044	10.395496662969691	0.8930144900985961	38.77411074488298	0.8411705674348398	39.37173184042402	0.1971814851782358	-0.2082827698997729	0.4054642550780087	94.17274246267844
0	1.0	ltm	348	diff_vonmises	0.0071158099116049	0.407705875752323	5.746424055990429	0.3713681362071087	0.0236351712266016	3.438175710000208	-0.2135850885244725	-0.5464730494634483	0.3328879609389758	55.58890200754172
1	1.0	perception	348	diff_vonmises	-0.0288798321635472	-1.654692496017429	14.895922233157997	0.6063189994233308	0.0216121590331309	3.6941041833980095	0.3245236024446266	-0.593794731773125	0.9183183342177516	34.947252665838164
2	1.0	wm	348	diff_vonmises	-0.0015548754269838	-0.0890877996347749	3.4077617564896787	0.6511358170685478	0.1136007039867521	3.993033029266461	-0.2514202401078495	-0.6193649560537533	0.3679447159459038	66.78555029573991
3	2.0	ltm	348	diff_vonmises	-0.0607883253980954	-3.482914488978781	2.621325304728419	0.98868576116171	0.2434212646496223	2.684913458655295	0.0619276709367151	-0.3777589227943133	0.4396865937310285	73.97571906727052
4	2.0	perception	348	diff_vonmises	-0.0375625266435978	-2.152174244525863	6.964425266794807	1.1326801324012523	0.1817403206056224	2.939652623781966	0.6129516742703105	-0.4818484392657986	1.0948001135361092	49.76129202299106
5	2.0	wm	348	diff_vonmises	0.0110260345309818	0.6317452433907705	3.686067445754723	0.8394344691294564	0.196654789672201	2.767967422804753	0.0859198138620158	-0.4226492447702965	0.5085690586323124	64.96421515228457
6	3.0	ltm	348	diff_vonmises	-0.0452131235245985	-2.590521156563156	1.9908647720538368	2.0616470196890755	0.4933748612770324	3.651505044952908	0.1641441778201416	-0.4028736706135311	0.5670178484336728	77.40149294316643
7	3.0	perception	348	diff_vonmises	-0.0370576934942903	-2.123249435712247	3.9160844073407697	2.248349140067879	0.2417996358794572	3.8050480075284168	0.9486303642597804	-0.5629201165598205	1.5115504808196008	65.04494630310762
8	3.0	wm	348	diff_vonmises	-0.0314220487153516	-1.80035077504412	2.371329559057079	1.4268157489665805	0.3306958909166557	3.2822421578335645	0.107445360825304	-0.432503749345913	0.5399491101712172	75.18968122324657
9	4.0	ltm	348	diff_vonmises	-0.10282070481293	-5.891192432341359	1.7090711299611048	1.640736074326802	0.2179477608049355	3.8063191320052248	0.0249048915121392	-0.4783779139199848	0.5032828054321241	88.67105746328633
10	4.0	perception	348	diff_vonmises	-0.0867884173209769	-4.972610023112073	1.745168900664329	4.193314922623838	0.3746062342946917	6.159020362386645	0.6145276435190337	-0.6419842897481352	1.2565119332671688	87.45460506471613
11	4.0	wm	348	diff_vonmises	-0.139674775938777	-8.002775165727348	0.8230125820965529	331.0507356391253	0.811723812602842	333.4317020806294	-0.0147232819871589	-0.523609845507444	0.508886563520285	88.13816568617378
12	5.0	ltm	348	diff_vonmises	-0.0146377498722522	-0.8386812892482131	1.064507035455223	3.830998257393372	0.3492599529862811	5.226120245242575	0.211404990444769	-0.4107249690427786	0.6221299594875477	103.90551314933968
13	5.0	perception	348	diff_vonmises	-0.0379947353227976	-2.1769379777129334	1.602264528071666	3.836877194865155	0.3432012403326673	5.197661488285489	0.5974871785102271	-0.5208630667975527	1.1183502453077798	92.30229209682724
14	5.0	wm	348	diff_vonmises	-0.0601658337450317	-3.4472483444761086	0.6745534562202646	270.20207388484727	0.6631546499671007	271.6756888176355	0.1770867665979523	-0.4124179902452631	0.5895047568432155	103.72368188028176
15	6.0	ltm	348	diff_vonmises	-0.0995398259687628	-5.703211921476822	0.9454728023104432	1.7492112812780551	1.0032620490168396e-17	2.97916918933013	0.1054842984728937	-0.3866637205961229	0.4921480190690167	130.81215177267143
16	6.0	perception	348	diff_vonmises	-0.0272556031278938	-1.561631027311885	1.180108131336869	2.2818131696774744	0.0401282174574947	3.556031975575931	0.2677985588579428	-0.4626032672489906	0.7304018261069334	118.78990374954256
17	6.0	wm	348	diff_vonmises	-0.1110267251090554	-6.361362761908041	0.4962603001484618	237.7439573248541	0.4862529071133528	238.9957815179163	0.1383947517419486	-0.3859638720030744	0.5243586237450231	121.0938445824913
18	7.0	ltm	348	diff_vonmises	-0.0773489017779144	-4.431765621846447	0.7638041773006955	246.47090184446117	0.7500849528096791	248.26964808543653	0.1165237681877471	-0.4462099105794834	0.5627336787672306	95.3754762079253
19	7.0	perception	348	diff_vonmises	-0.003499937599133	-0.2005316529894738	0.7255490644091264	267.279769640163	0.7083763667452948	268.9645573493061	0.3933151216937176	-0.5495863686814921	0.9429014903752098	102.47874220003656
20	7.0	wm	348	diff_vonmises	0.1005043990335126	5.758477887118987	0.9200006498770028	41.50923504304674	0.8409682170710029	43.268547292574645	0.0773077228004748	-0.4188707329919952	0.49617845579247	87.27988107763724
0	1.0	ltm	394	diff_vonmises	-0.0565776316775725	-3.2416595099705767	4.268047038662615	0.3318401676620195	1.0103281445822797e-17	3.1391589914789706	-0.235326173920614	-0.4995607990751712	0.2642346251545572	66.2202446529704
1	1.0	perception	394	diff_vonmises	-0.0107627452852823	-0.6166598808210049	13.614985075734957	0.7616169967596143	0.0430408783761928	3.6783576744841375	0.4992440320751194	-0.5968107404464733	1.0960547725215928	36.45920209147892
2	1.0	wm	394	diff_vonmises	0.0413193422988347	2.367423925979612	2.744624677622363	0.5103421112739047	3.4990347301965876e-20	3.476032059522148	-0.2356432398893426	-0.5519156130172271	0.3162723731278845	83.00384420062971
3	2.0	ltm	394	diff_vonmises	0.0483541619583737	2.770489402106856	3.972913725956856	0.4316412637378555	7.176784393987025e-16	1.739708866200873	0.0537475055626534	-0.2767661696292212	0.3305136751918746	68.70087454279198
4	2.0	perception	394	diff_vonmises	-0.0227404046891829	-1.3029292131096883	7.108675355729929	1.333301299469399	0.3202706745878811	2.520244084856239	0.8526440985486807	-0.424917493416919	1.2775615919655996	48.80753601036557
5	2.0	wm	394	diff_vonmises	0.0165394126047242	0.9476385378761756	3.7134504681571103	0.7652319422574875	0.1922921352227515	2.2355220906566955	0.1375713793773404	-0.3394435681460206	0.4770149475233611	65.41238565550967
6	3.0	ltm	394	diff_vonmises	0.0071384880738334	0.4090052387351282	3.8364612092506287	0.4688487228351587	4.026366151689641e-18	1.2496679448870365	0.1534089359813546	-0.1987268889679665	0.3521358249493211	69.94922527732587
7	3.0	perception	394	diff_vonmises	-0.0073989606294522	-0.4239292168510726	4.005392273009539	2.0452420715036776	0.2988653492915153	2.662109678629037	1.0147640798619657	-0.3858041603567348	1.4005682402187003	64.51985784575757
8	3.0	wm	394	diff_vonmises	-0.0967292471502175	-5.54217761718531	3.472396029343489	0.7657730646895375	0.175989766305864	1.69955577492708	0.2244933527652108	-0.2518658468076506	0.4763591995728614	68.81114237944865
9	4.0	ltm	394	diff_vonmises	-0.1149761745485078	-6.587649546188973	2.533350774345446	0.7745041680199015	0.1298885648712999	2.373675073326288	0.03162573860394	-0.344801332381186	0.376427070985126	78.60385615329974
10	4.0	perception	394	diff_vonmises	-0.0666798097169438	-3.820471675516298	2.1062625858407937	3.525344895665472	0.3751236447365885	4.85400780569705	0.7906741174577663	-0.5453079593408086	1.3359820767985748	82.56236418355428
11	4.0	wm	394	diff_vonmises	-0.0725062169849356	-4.154300221696578	0.911268535586062	317.5375326282991	0.9006574570824223	319.3704486789101	0.0497882944192156	-0.4264314953004131	0.4762197897196287	85.23395946016407
12	5.0	ltm	394	diff_vonmises	-0.0477601977555534	-2.7364577601034	0.5701681696972973	137.82800522219785	0.5542799159039952	139.0416820029137	0.1009595592402519	-0.3365688510535261	0.437528410293778	112.38857069485698
13	5.0	perception	394	diff_vonmises	0.0181955113806878	1.0425260081956718	1.4898055831073325	4.295587763041215	0.402879860719429	5.372742964512416	0.6240177664998998	-0.4742246374219759	1.0982424039218757	93.71932005601974
14	5.0	wm	394	diff_vonmises	0.0242627858173558	1.390155226564363	0.5259470796118989	193.26128717654504	0.5132299640382724	194.56000797290636	0.1370293835433145	-0.388394404307121	0.5254237878504355	117.82059343491662
15	6.0	ltm	394	diff_vonmises	-0.1183607924989614	-6.781573870014186	0.3955663792598292	215.3895007401139	0.3864305375607406	216.5915392245784	0.0889513518666689	-0.3683594534892336	0.4573108053559025	131.88153487605007
16	6.0	perception	394	diff_vonmises	0.0102127566147387	0.5851478512188452	0.5288562842282037	264.2340041054662	0.5143176706791691	265.37768830354617	0.4350315951866861	-0.5270556233363486	0.9620872185230348	121.6989741865965
17	6.0	wm	394	diff_vonmises	-0.0553697983948919	-3.1724557605175465	0.3969104147366105	223.43105639959407	0.3848512275383854	224.7461397634747	0.1968426446168933	-0.4701942423146334	0.6670368869315269	133.3601438197967
18	7.0	ltm	394	diff_vonmises	0.1359739613174874	7.790734107167148	0.732238008231547	183.1083509591498	0.7188554469535948	184.66700804938915	0.0183732946727275	-0.3544401791958869	0.3728134738686144	94.9855847217106
19	7.0	perception	394	diff_vonmises	0.1078269106197567	6.178026896446418	1.844207450750392	1.9809302151207815	0.0670684434072585	3.444822279162259	0.3872610417597885	-0.4877854919533592	0.8750465337131477	96.98672807097478
20	7.0	wm	394	diff_vonmises	0.1548585711606547	8.872742548931845	0.6888785865622636	148.72742121858357	0.6728033162933358	150.37269517768854	-0.0043813071390204	-0.3665062798216407	0.3621249726826203	97.33157587021095
0	1.0	ltm	204	diff_vonmises	-0.0102915859201288	-0.5896644377196422	5.8424490937464695	0.3299264372581348	0.0346400330249751	2.614373498549425	-0.1199810730762431	-0.4159869495963965	0.2960058765201534	54.89333542865165
1	1.0	perception	204	diff_vonmises	-0.0211578266929769	-1.2122541731768146	12.937996104847056	0.677507177258627	0.051575575110968	3.1003521324392955	0.4431706415698729	-0.5045786925416978	0.9477493341115708	37.34938771130823
2	1.0	wm	204	diff_vonmises	0.0337489656654799	1.933673295563922	4.509890798177081	0.4709370389794537	0.0600038935382351	2.932670011140277	-0.1087559677516639	-0.4624774292020512	0.3537214614503872	61.39597884641677
3	2.0	ltm	204	diff_vonmises	-0.0410245544410882	-2.3505338258790345	2.7397315441957084	0.9347720667401108	0.3839862865679827	2.0699004310136933	0.1148079195187339	-0.2808014904152157	0.3956094099339496	70.51120139222846
4	2.0	perception	204	diff_vonmises	-0.0226538337563209	-1.297969064028185	7.012668567146737	1.1768796432703408	0.2899310364901167	2.346749254560102	0.7305931601637596	-0.3926308975311676	1.1232240576949273	49.21526672635
5	2.0	wm	204	diff_vonmises	0.0400715439143477	2.295930344865265	4.126703041511225	0.6711812046028259	0.2406881109351688	1.9290876221419384	0.1398810685365189	-0.2982328348599244	0.4381139033964433	61.66822717974517
6	3.0	ltm	204	diff_vonmises	-0.002658133895395	-0.1522998535868059	1.761556394265008	2.6214904165056483	0.8590094749122451	3.4429383621791976	0.1678748975925394	-0.2445235476662141	0.4123984452587537	75.1277222362582
7	3.0	perception	204	diff_vonmises	-0.0210893492493262	-1.208330704663783	4.501963771587026	1.7746262677705174	0.291474850432908	2.587743719765777	0.9149930289178942	-0.3899161447503782	1.3049091736682723	60.95959383284108
8	3.0	wm	204	diff_vonmises	-0.0183227987416385	-1.049819036763505	2.3594006422568463	1.2933060870845126	0.548638273799541	2.2934154501370227	0.1498310709426769	-0.2701945500570058	0.4200256209996827	72.27970795646675
9	4.0	ltm	204	diff_vonmises	-0.1450573053503608	-8.31117138411613	1.018297531334643	108.65800314379489	0.9919015611107818	109.99705895930008	0.0867969999002227	-0.3313711118567166	0.4181681117569393	82.15431442206975
10	4.0	perception	204	diff_vonmises	-0.089382844904032	-5.121259773873454	2.316632646463201	2.581863005351182	0.2568763856727817	3.8881769518826816	0.667635597632259	-0.492673558764709	1.160309156396968	81.76172486150006
11	4.0	wm	204	diff_vonmises	-0.1313945594120987	-7.528353705294205	1.0578029148235772	328.9832816039957	1.0476404865635778	330.5168263702161	0.091415265856142	-0.379500584942825	0.470915850798967	80.00644908582149
12	5.0	ltm	204	diff_vonmises	-0.0008950415325591	-0.0512821023045631	1.1268421793732502	2.9302817227830418	0.3483622519113331	3.815756106325409	0.2363096194357036	-0.3050816865416742	0.5413913059773778	103.67107626470064
13	5.0	perception	204	diff_vonmises	-0.0448923747111386	-2.572143603268075	1.9998670959556415	2.6241652604841423	0.2541153548064855	3.4458356201342464	0.6578305829723416	-0.4083019862576235	1.0661325692299652	87.95207060174249
14	5.0	wm	204	diff_vonmises	0.012815252494994	0.7342598813576577	0.7255638622701917	202.96732221129173	0.7129882020295089	203.83375996061773	0.2381621844255192	-0.2988991301091239	0.5370613145346432	102.94060590695932
15	6.0	ltm	204	diff_vonmises	-0.0853790831594194	-4.891861123731214	0.4779306608538913	156.01921350397654	0.4655274649575144	156.7027617882061	0.1957460780630029	-0.2883946871151579	0.4841407651781608	125.96574543956687
16	6.0	perception	204	diff_vonmises	-0.0510739688677584	-2.92632285910512	1.050981588833173	3.331973965866303	0.2115021720141338	4.112301875362011	0.3709492931936569	-0.3807807162945679	0.7517300094882249	114.9085406365961
17	6.0	wm	204	diff_vonmises	-0.1271537420046556	-7.285372766162104	0.5721818138688236	142.1650952374365	0.5563064494545038	142.80105870631013	0.2618878147150241	-0.294051379397553	0.5559391941125771	117.7727956235049
18	7.0	ltm	204	diff_vonmises	0.0202504611487672	1.1602659570180065	0.7832518742907992	212.63379912273223	0.7696956787785667	213.8444181669801	0.1898624264278368	-0.3454862914683723	0.5353487178962091	96.85182074069132
19	7.0	perception	204	diff_vonmises	-0.0589764717289831	-3.3791029206433505	1.761075124254864	2.722607304394137	0.2541219485135089	3.805668940550445	0.5316475081559706	-0.4341772255706458	0.9658247337266164	91.94068966948429
20	7.0	wm	204	diff_vonmises	0.1978740710154974	11.337349144259935	2.3103826922436044	1.0434280100772515	0.1456368247405066	2.12616591146386	0.1975483998213927	-0.294672031232649	0.4922204310540418	83.44173483803957
0	1.0	ltm	83	diff_vonmises	0.0168816136387233	0.9672452128693336	5.965544301414474	0.2941461914915961	3.5826286258609245e-14	3.5606617764463127	-0.2866422779819612	-0.5666950789229525	0.2800528009409913	55.790728086898895
1	1.0	perception	83	diff_vonmises	-0.0013744772378211	-0.0787517447639493	12.79845761352857	0.7361562000372205	0.0424401661328509	4.060598446528305	0.3660151587868252	-0.6581535076800712	1.0241686664668963	37.55136034865348
2	1.0	wm	83	diff_vonmises	-0.0074988098541068	-0.4296501560114351	4.47843978150514	0.4077661695020901	0.0151758241445473	3.909129972960241	-0.2983556150560776	-0.618781643183012	0.3204260281269344	63.183089467538906
3	2.0	ltm	83	diff_vonmises	0.0102375492402618	0.5865683640243675	3.0408763373025414	0.7422095168983875	0.1655957911865652	2.417928523883885	0.038806019638938	-0.3589460613532309	0.397752080992169	71.2724993350557
4	2.0	perception	83	diff_vonmises	-0.0222044003661479	-1.2722184275990165	6.944387444760971	1.338445247053798	0.2520746689461946	3.0759958036574004	0.759726384728411	-0.5117062056345976	1.2714325903630086	49.46141259915848
5	2.0	wm	83	diff_vonmises	0.0157867381963741	0.9045134709302108	3.5750115681299404	0.8077708070956755	0.158419678439836	2.7368472641993464	0.0766811932314363	-0.4167463590408023	0.4934275522722386	66.6997392036296
6	3.0	ltm	83	diff_vonmises	0.0337219117307035	1.932123219282012	3.473278176444959	0.6476031051575039	0.0533221429766074	1.8990452301934333	0.1420643320527991	-0.2922185049892074	0.4342828370420065	71.28496989079821
7	3.0	perception	83	diff_vonmises	-0.0071034522179568	-0.4069978320617695	4.367625963728592	2.056663785533671	0.2117783818731384	3.243083570343519	1.0276226184535149	-0.4897056650104113	1.517328283463926	62.46807892089805
8	3.0	wm	83	diff_vonmises	-0.0455721806131892	-2.611093612343658	3.664589326802336	0.7524244683780584	0.0742149361173568	2.2505912405462825	0.1660437585981927	-0.3456529054806159	0.5116966640788086	68.79672715777508
9	4.0	ltm	83	diff_vonmises	-0.0734169728620129	-4.206482689619844	2.1949976305306342	0.7705924209778401	4.875082659099727e-19	3.141127854579795	-0.0795085716055711	-0.4947123686102442	0.415203797004673	92.76464244928204
10	4.0	perception	83	diff_vonmises	-0.0393652956818829	-2.2554653018564585	1.908742780821442	3.567976321056094	0.29067113248476	5.76714801603905	0.5873409391278321	-0.6765073544805499	1.263848293608382	86.43183726502005
11	4.0	wm	83	diff_vonmises	-0.0527842804282519	-3.02431649317383	0.7248122773217995	317.9585118607428	0.7139848642730896	320.57779144739374	-0.0956426350208374	-0.5459866469243053	0.4503440119034678	91.93833574363973
12	5.0	ltm	83	diff_vonmises	-0.0438820454760948	-2.5142560021813822	1.7386778653736816	1.1746597252819324	1.4217166778255163e-24	2.323557721035765	0.1867603266782905	-0.352611790531134	0.5393721172094246	103.5408747833916
13	5.0	perception	83	diff_vonmises	-0.0253128585696449	-1.450319963452216	1.6868345035498715	3.5894990086093155	0.3000486383504606	4.635365822973628	0.6958559427207178	-0.4903640553286758	1.1862199980493937	92.71004676575328
14	5.0	wm	83	diff_vonmises	0.0010932806546237	0.06264036733324	1.2903623060285028	1.9998719102158764	0.1374400757937243	3.261729757310306	0.1985711854138361	-0.3904071499457509	0.588978335359587	108.1864737611001
15	6.0	ltm	83	diff_vonmises	-0.0715392472670756	-4.098896937946244	0.9672410040004796	1.5068429450417833	1.1706345900422617e-19	2.3717859150419227	0.1280710798834667	-0.3044293565068991	0.4325004363903659	129.92235744158012
16	6.0	perception	83	diff_vonmises	-0.0259298596981285	-1.4856715240691336	1.049409803466814	2.4734966485237457	6.082242500490161e-19	3.357998311976488	0.333812306602862	-0.4279851011668225	0.7617974077696845	126.55286789766264
17	6.0	wm	83	diff_vonmises	-0.0136050250191207	-0.7795105137655101	0.4494267676160291	252.7005857651109	0.4406740244094794	253.65253709102305	0.1851249264133656	-0.3544010006637457	0.5395259270771113	127.85158349613408
18	7.0	ltm	83	diff_vonmises	0.01055185648959	0.6045768428812396	0.7727392110130329	187.74997255137168	0.757815101179759	189.3845701840508	0.0518408514948376	-0.3831720480510299	0.4350128995458675	93.38904144663644
19	7.0	perception	83	diff_vonmises	0.0791571306210226	4.535369502950369	0.6999417786069947	258.4656358697833	0.6839743798650477	259.93428996305005	0.3728506269983285	-0.4996363047151249	0.8724869317134534	104.7049463677088
20	7.0	wm	83	diff_vonmises	0.0479472190825614	2.7471732928198938	0.7416923390819801	192.09737660126729	0.7281422798765488	193.7995499015153	0.0032230325005784	-0.3799360459823617	0.3831590784829402	93.74934285397666
0	1.0	ltm	60	diff_vonmises	-0.162819125328364	-9.328848705326864	1.43018521902256	0.4287376583299526	8.759015452855144e-16	1.9336754461983032	-0.1273231257796372	-0.2974242931947837	0.1701011674151465	112.58314275457104
1	1.0	perception	60	diff_vonmises	-0.0196629211759761	-1.1266023962818443	12.507215615579904	0.8273763636364876	0.0343252822002328	2.509122680580592	0.7420170149004996	-0.4042480311623003	1.1462650460628	38.15432324950552
2	1.0	wm	60	diff_vonmises	0.0351928388403483	2.0164011346360406	5.321638509493271	0.3085808537458795	5.223960696217589e-22	1.8936414260573555	-0.024782571091553	-0.3013757935271753	0.2765932224356223	59.14358158393432
3	2.0	ltm	60	diff_vonmises	0.008005078787746	0.4586572292075496	4.792786183930181	0.3735332657008595	0.0712255838238228	1.2974171916873094	0.0951628711842756	-0.2036380877093221	0.2988009588935977	60.44501579462033
4	2.0	perception	60	diff_vonmises	-0.0163918940249893	-0.9391863458575992	7.642862405613666	1.3656103080126405	0.3205419882112766	2.152280258182792	1.0197445970499093	-0.3645271338665341	1.3842717309164434	47.46756712142266
5	2.0	wm	60	diff_vonmises	0.0384581451498589	2.2034894049884337	4.719175340805179	0.3925516689517719	0.0474710853898966	1.3801180146101597	0.0998288582747016	-0.2166854483897585	0.3165143066644602	61.43021625143348
6	3.0	ltm	60	diff_vonmises	0.1084418531964805	6.213260510735592	3.343569402693133	0.3982361355721335	0.2617934494049705	0.6972066345300282	0.1355675322853254	-0.0993843765528647	0.2349519088381902	69.24364786504105
7	3.0	perception	60	diff_vonmises	0.0009402493896104	0.0538723217144314	4.666660258814706	1.7446215150835451	0.3435625057107337	1.869868738223365	1.0505330980570768	-0.2772449191109745	1.327778017168051	60.29286379342906
8	3.0	wm	60	diff_vonmises	-0.0977464328534133	-5.600458064959478	3.461456783363191	0.5679974463952419	0.3643402878385769	0.938712523537542	0.1951055173379413	-0.1321816339625783	0.3272871513005197	66.87295019350049
9	4.0	ltm	60	diff_vonmises	-0.095931920526987	-5.496494166780788	1.2524131386503747	33.86318005925266	1.186970467446947	34.94077532031434	0.0021370380785672	-0.2590737110664349	0.2612107491450022	71.94303946985914
10	4.0	perception	60	diff_vonmises	-0.0812822651563249	-4.657130742720685	2.5388073441798173	2.476830649598341	0.301604866079946	3.71560685594483	0.6912861123993592	-0.474528664843124	1.1658147772424834	77.74539215148846
11	4.0	wm	60	diff_vonmises	-0.0908943783119919	-5.207864258742582	1.1586495117205102	207.59010951181912	1.1463185905777002	208.86479114571705	0.0054535914972717	-0.301519668551542	0.3069732600488137	74.17708562215856
12	5.0	ltm	60	diff_vonmises	0.0169412492548765	0.9706620819835762	1.8988078575989624	0.6926719787645839	3.959132098299728e-19	1.2144015391387022	0.152998607938322	-0.1855130369764348	0.3385116449147568	99.42332358495028
13	5.0	perception	60	diff_vonmises	-0.0331851344201899	-1.901368144851204	2.5932503346335016	1.980752302509628	0.0537676199699935	2.1829511243392568	0.8263340913271002	-0.322335374831541	1.1486694661586414	83.93262117453054
14	5.0	wm	60	diff_vonmises	0.0861364457069047	4.935254801263397	1.5651011134065915	0.9287635964710956	1.365665251034437e-16	1.4708849899296712	0.1787025344971984	-0.2160554729352534	0.3947580074324518	108.44057103643362
15	6.0	ltm	60	diff_vonmises	-0.1130084667037211	-6.47490819136791	0.4697935463675056	67.08044523878995	0.4544498009098787	67.46865145887207	0.0986588440880211	-0.1572038620620128	0.255862706150034	126.64445865903622
16	6.0	perception	60	diff_vonmises	-0.0859890109256781	-4.926807410545681	0.4572253916152516	24.02717392693131	0.3624371975063057	24.376007895437663	0.3413984010238451	-0.3145246035613347	0.6559230045851798	134.59183877439597
17	6.0	wm	60	diff_vonmises	-0.0513723291649483	-2.9434176449083664	0.4675233087968321	44.51760463829637	0.4356888802988287	44.9155979340283	0.1692602144458863	-0.2057013901340383	0.3749616045799246	129.03066853615027
18	7.0	ltm	60	diff_vonmises	0.20364510568306	11.66800507413496	0.9602580579660422	62.46559880263268	0.9318967666770984	63.11492612231826	0.1230179685727961	-0.1884615321743519	0.311479500747148	88.01064431396557
19	7.0	perception	60	diff_vonmises	0.0036571668279687	0.2095402242178534	0.9214040962911886	29.56966217155178	0.8140536299079091	30.09307629523696	0.4449159433815683	-0.2936431372489063	0.7385590806304747	97.2357393120821
20	7.0	wm	60	diff_vonmises	0.0841613615741846	4.822090816275282	0.7077171089448769	35.47397532812772	0.6694401921174149	36.12912286063163	0.0760453023516802	-0.1805735995778672	0.2566189019295475	102.03723373495606
0	1.0	ltm	279	diff_vonmises	0.069675476418603	3.992110734349249	3.982325483421497	0.2453534749623966	3.917375026566106e-17	3.136152890897601	-0.3109480480074391	-0.4990688339654557	0.1881207859580165	68.61628527259637
1	1.0	perception	279	diff_vonmises	0.008477935504916	0.4857499234158043	12.898835021735152	0.6482852493806223	0.0529603696936456	3.5525711542378398	0.3233592873362302	-0.5789690995870862	0.9023283869233164	37.35187863369228
2	1.0	wm	279	diff_vonmises	0.075566478029104	4.329640263735726	4.702673186621152	0.3306657922517958	0.0110093513695444	3.379444883118787	-0.266326849144639	-0.5357083574034794	0.2693815082588404	61.946176094420366
3	2.0	ltm	279	diff_vonmises	-0.0016665641423154	-0.0954870916425132	4.352453929700996	0.4123182806070262	1.3854388205264464e-15	2.224268824091999	-0.0221134474631377	-0.3539483599827956	0.3318349125196578	65.55658102633751
4	2.0	perception	279	diff_vonmises	-0.0099939680042889	-0.5726121872345389	7.590332589255961	1.205857574570851	0.2008732868415728	3.1645718612751828	0.692242198919918	-0.5266298142255486	1.218872013145467	47.647072871635686
5	2.0	wm	279	diff_vonmises	0.0809147631641199	4.636074429604689	4.212438427034512	0.5899260568813196	0.1165022907172172	2.6788014751354954	-0.0109182550129885	-0.4194384610421645	0.4085202060291759	62.27656691649662
6	3.0	ltm	279	diff_vonmises	0.0301232109188573	1.7259328510329248	2.313336879272144	1.1947228721528955	0.4714361067345436	2.4432041344595583	0.082727974672534	-0.3022304299143764	0.3849584045869104	72.80785851610338
7	3.0	perception	279	diff_vonmises	-0.0092446434885944	-0.5296790549995585	4.220777488865944	2.025195512585186	0.2177374908249179	3.332383459122002	0.951415648384412	-0.5008339176084329	1.4522495659928447	63.2790295530404
8	3.0	wm	279	diff_vonmises	-0.01114922943664	-0.6388037915424967	3.107248480184325	0.7407311890640034	0.1999080921497414	2.310734590422876	0.0502081082711308	-0.342020273083562	0.3922283813546928	69.79012008482385
9	4.0	ltm	279	diff_vonmises	0.0432832129850067	2.479945427806729	0.7712902991926389	154.93241576175248	0.7543267499971962	157.19157937575886	-0.1644732433685973	-0.4441980859320438	0.2797248425634464	85.39689393447588
10	4.0	perception	279	diff_vonmises	-0.0832520407173598	-4.769990568956001	1.6063356020357815	5.440229802074989	0.5523042372517775	7.496243870767874	0.533318692097936	-0.6344261950899602	1.1677448871878964	84.78964490865928
11	4.0	wm	279	diff_vonmises	-0.0464056242797058	-2.658846416896964	0.7757872311360723	189.85261218635983	0.7605910617482515	192.3625393283661	-0.1923469647067861	-0.4910035157315313	0.2986565510247452	84.5993515874338
12	5.0	ltm	279	diff_vonmises	0.0285876144241341	1.6379496528502042	1.599470986813726	1.4260773859589837	0.2016339777639038	3.209725874206689	0.0235841429630572	-0.3988875074180468	0.422471650381104	92.01216875024387
13	5.0	perception	279	diff_vonmises	-0.0468822347326782	-2.686154184324105	2.057319261734237	2.849912512747713	0.2290810205839792	4.651265323445803	0.5767221657898535	-0.5834005383621016	1.160122704151955	85.99527021151147
14	5.0	wm	279	diff_vonmises	0.0121215398733667	0.694513075943456	0.5473482063257202	183.004718569015	0.5331217510785238	185.07013289341413	-0.033026177007585	-0.4656674126580782	0.4326412356504931	109.1640288628641
15	6.0	ltm	279	diff_vonmises	-0.1413604862963358	-8.099359254696957	0.4873282776835441	207.29450685402995	0.4769276551966915	209.28646282019557	-0.0811107040515892	-0.4333182025713213	0.3522074985197321	113.68753463990905
16	6.0	perception	279	diff_vonmises	-0.1101192690078638	-6.309369357216366	0.4647566987014262	130.2829499493562	0.4402715302752489	132.23331211803506	0.1318532227320794	-0.5652513121447118	0.6971045348767912	124.31565876987304
17	6.0	wm	279	diff_vonmises	-0.0664791996927043	-3.808977567799357	0.5004980559112525	237.006710461414	0.4902525413509166	239.12418480678085	-0.0650887132380049	-0.4699633574804558	0.4048746442424509	113.07107394783574
18	7.0	ltm	279	diff_vonmises	-0.0190081079227224	-1.0890843605011793	0.8060058659883408	232.39715038666432	0.7923415521147008	234.70687410990644	-0.0915249650761609	-0.4808061478026637	0.3892811827265028	86.7319582008856
19	7.0	perception	279	diff_vonmises	-0.0206713502621266	-1.1843811268565054	1.328172515052573	3.83808635407232	0.2723515556881783	6.007162518067529	0.3126972179684313	-0.614120094423998	0.9268173123924291	99.07618766243831
20	7.0	wm	279	diff_vonmises	0.1081993348949748	6.199365235604632	1.6948659785434743	1.6831913502563816	0.3730591685389623	4.038910669374919	-0.116562217113439	-0.4770758974279586	0.3605136803145196	79.56906507509902
0	1.0	ltm	446	diff_vonmises	0.0432483587501465	2.4779484272510817	3.5971974595671616	0.3583000312010885	2.9847324425685017e-14	3.648613305246293	-0.3208613480373385	-0.5804997157533361	0.2596383677159976	72.30120483847867
1	1.0	perception	446	diff_vonmises	0.0088575172959444	0.5074983580217471	11.793312654929617	0.7601657007547469	0.0280578857844063	4.080597146638561	0.3617101937061051	-0.65599869621135	1.0177088899174551	39.22948698561629
2	1.0	wm	446	diff_vonmises	0.0360543771613429	2.065763644317819	4.0193846886996285	0.427230799600883	4.178712292559007e-26	3.829401931961751	-0.2801217931527111	-0.6093619639723403	0.3292401708196292	68.28978679474952
3	2.0	ltm	446	diff_vonmises	0.0065433165234523	0.374904420812033	3.1995095559265554	0.7028347094540819	0.1282196688893219	2.5466755683166635	0.018534906105293	-0.3844914458975115	0.4030263520028045	70.57911464595975
4	2.0	perception	446	diff_vonmises	-0.016355850449264	-0.93712120108998	6.613263086006838	1.3837479730660414	0.1900110190584534	3.2158109783604023	0.7772575654863755	-0.5235198758405964	1.300777441326972	51.07033393273571
5	2.0	wm	446	diff_vonmises	0.0377721272362874	2.164183473870417	3.8218553336518486	0.7375650436068928	0.1104657182899852	2.7248143849553017	0.0702581798744318	-0.4202452485181023	0.4905034283925342	65.85469046517252
6	3.0	ltm	446	diff_vonmises	0.0241980251792289	1.386444715321119	2.999006931362933	0.6711660553818528	1.3825220703458122e-14	1.9443963237036848	0.1300121259320265	-0.3083686283905767	0.4383807543226032	79.35115038312796
7	3.0	perception	446	diff_vonmises	-0.0002422579923222	-0.0138803605133796	4.031721912630394	2.068575188611689	0.1371424861239815	3.261081016704594	1.0047897352376856	-0.4906832822694435	1.4954730175071291	65.80227547920964
8	3.0	wm	446	diff_vonmises	-0.0615747286465087	-3.5279720761082385	3.4705277263980547	0.7760665117128261	0.033631280412367	2.1799914644318257	0.1929800292535713	-0.3380606636251013	0.5310406928786726	72.10208379863337
9	4.0	ltm	446	diff_vonmises	-0.0184521147333222	-1.057228297310529	2.076324593761761	0.6692035522550602	2.2508891669548222e-20	3.2343435485534107	-0.1616390926553672	-0.5092097069649996	0.3475706143096323	95.29867297261404
10	4.0	perception	446	diff_vonmises	-0.0540706895859309	-3.098022308635819	1.3937469893422751	6.8900225644929325	0.5063470127770711	9.25053727566922	0.5615290900700658	-0.7231682359343279	1.2846973260043937	90.155169556849
11	4.0	wm	446	diff_vonmises	-0.0013203663899903	-0.0756514215573697	0.6717368339203323	231.190741976724	0.6581516299263559	233.94886588685807	-0.1653391083521	-0.5505261160592205	0.3851870077071204	93.37869648983298
12	5.0	ltm	446	diff_vonmises	-0.065914683912648	-3.776633196133598	1.4921101067410805	1.1923576649033634	8.214544558315359e-20	2.464239055402808	0.1226244737360123	-0.3661561767337347	0.4887806504697471	110.69298590391948
13	5.0	perception	446	diff_vonmises	-0.0328450585200599	-1.8818832310596405	1.599255002339392	4.111691519287023	0.3425292681928145	5.260059448029099	0.7063204364786826	-0.5187738961019431	1.2250943325806256	93.19269861580386
14	5.0	wm	446	diff_vonmises	0.0166104306254194	0.9517075707313846	0.6798012281716201	12.797335141422062	0.4813740710722115	14.170862336945763	0.1451042916419247	-0.3940958915892689	0.5392001832311937	111.56238702556566
15	6.0	ltm	446	diff_vonmises	-0.0504757220841828	-2.8920458432989578	0.8698304167841284	1.534591770936848	0.0317682913271531	2.6218719008505205	0.0557789215928093	-0.3187274412078019	0.3745063628006112	131.56496700425407
16	6.0	perception	446	diff_vonmises	-0.067826111528266	-3.886149931353265	0.4021455380372334	178.3678420505214	0.3856888750822653	179.4025118641665	0.3043766882329137	-0.4697002224503634	0.7740769106832772	134.39289573044528
17	6.0	wm	446	diff_vonmises	0.0056069624242648	0.3212552827988188	0.4726621619063018	251.9349159314036	0.4638723194946653	253.1112383375073	0.1293994619388812	-0.3683352139040821	0.4977346758429632	123.713843067044
18	7.0	ltm	446	diff_vonmises	0.0499506552713502	2.8619617309612693	0.9164050907332516	5.918239392463602	0.5151543189003305	7.827271719844995	-0.0250511987146444	-0.415119737221418	0.3900685385067736	94.9143891912199
19	7.0	perception	446	diff_vonmises	0.1048374134114652	6.00674132354517	0.7639580701549041	357.8300349624608	0.750526745374914	359.548095815335	0.4121626366341218	-0.5554073143528235	0.9675699509869452	99.7280810102884
20	7.0	wm	446	diff_vonmises	0.0058082571343669	0.3327886201259784	0.7238543407383353	154.47005908369505	0.7062649520217914	156.4506201574795	-0.0477777786008175	-0.4223119008849991	0.3745341222841816	93.27936951249478
0	1.0	ltm	135	diff_vonmises	-0.002971239125083	-0.1702394617913992	3.0262917285566107	0.3112684450340824	4.606216422252887e-20	2.5258530244190087	-0.1971212474330488	-0.4015201473647004	0.2043988999316515	78.98369839610336
1	1.0	perception	135	diff_vonmises	-0.0137564253695346	-0.7881851148610296	13.05422414565517	0.6740018373390698	0.0216857010457769	3.020769183319436	0.4705273777463524	-0.4846987075187255	0.955226085265078	37.36179802177776
2	1.0	wm	135	diff_vonmises	0.0610457225244724	3.497662257978976	4.191057217685428	0.3704219677790802	1.4816933506297666e-19	2.6917491976522445	-0.1363237266489739	-0.4283383043631507	0.2920145777141768	66.84619497780116
3	2.0	ltm	135	diff_vonmises	0.0121898128394665	0.6984248287558169	4.060974311387798	0.4779088979555994	0.0810594227890556	1.8254724349273657	0.0559202726537146	-0.2837009678165734	0.3396212404702881	64.8503875470594
4	2.0	perception	135	diff_vonmises	-0.0107074073412597	-0.6134892501815788	7.13024577187071	1.2671888142961718	0.2408086946690126	2.6100325101428807	0.8033657431522501	-0.4327621964113922	1.2361279395636422	49.112368298317534
5	2.0	wm	135	diff_vonmises	0.0643476730773487	3.686850088819678	4.375277007870009	0.5462648943718865	0.1289415356550265	2.0274357565503074	0.0753639588640625	-0.3169718778341841	0.3923358366982467	61.54044809693522
6	3.0	ltm	135	diff_vonmises	0.0416612962297301	2.3870164430078247	2.609130245271887	0.8610038714977675	0.3826298759061126	1.7318573687340164	0.1305486640675213	-0.2275290134047387	0.3580776774722601	72.66826177193448
7	3.0	perception	135	diff_vonmises	-0.0087268892969044	-0.5000139249905174	4.38267575895569	1.894842160984892	0.2205262697211269	2.740112796312979	0.9935452206071383	-0.4118933640681473	1.4054385846752857	62.47216670850801
8	3.0	wm	135	diff_vonmises	-0.043018678347171	-2.464788709523721	3.112369082629258	0.7692537326866574	0.2667815431680715	1.8233147630584456	0.1421555112566303	-0.2622579815101925	0.4044134927668228	69.59896791994066
9	4.0	ltm	135	diff_vonmises	-0.0753955596694324	-4.31984736308524	1.563361553458528	1.839021819823223	0.5111721888991282	3.5230870191930914	-0.0598304654254111	-0.354738392623494	0.2949079271980829	78.56465825987434
10	4.0	perception	135	diff_vonmises	-0.0838407156778137	-4.80371915969504	1.974228075057759	3.465465157253658	0.3798892822627921	5.107284099881954	0.6270587396557525	-0.5635926235991057	1.190651363254858	83.6421735311088
11	4.0	wm	135	diff_vonmises	-0.0763087566231862	-4.37216969439954	0.9624542932850771	300.1601601131182	0.9521831473211702	302.07360081263454	-0.0513391954333286	-0.4158469273170198	0.3645077318836911	79.8848339410041
12	5.0	ltm	135	diff_vonmises	0.006975744550007	0.3996807216767902	1.6786729006438237	1.0782750493697346	0.0910602498695644	2.1816410883114896	0.1205664652639799	-0.2989238731261093	0.4194903383900892	98.73129270170068
13	5.0	perception	135	diff_vonmises	-0.0377798145523987	-2.1646239246393795	1.9710591769227843	2.759939190719679	0.2482802313499317	3.7657971105852046	0.6547563600398721	-0.4484057328076614	1.1031620928475334	88.33191238612571
14	5.0	wm	135	diff_vonmises	0.0509814352500754	2.9210210733488067	0.6069670565859759	89.70586652100897	0.581635000521819	90.92467577936692	0.110428765168546	-0.3360632029014478	0.4464919680699939	109.40038333974869
15	6.0	ltm	135	diff_vonmises	-0.1295962971934971	-7.425320869710501	0.4607172954729464	166.19053809464273	0.4504048383172802	167.2912580447946	0.0564878545245548	-0.3070139733723973	0.3635018278969522	123.36147762539228
16	6.0	perception	135	diff_vonmises	-0.0782691806140344	-4.484493715131333	0.5272299752765339	235.08640516374783	0.5141908375644935	236.19280026392275	0.2987306161231515	-0.4381152764263163	0.7368458925494679	120.74749348647651
17	6.0	wm	135	diff_vonmises	-0.0445585470500158	-2.5530166872010143	0.5000873447808585	174.6399834782906	0.4879443660820206	175.8086343688462	0.1102471591889724	-0.3480984665586923	0.4583456257476648	120.35383077027302
18	7.0	ltm	135	diff_vonmises	0.0513233500818291	2.9406113501612183	0.8492678730993909	164.8817395077603	0.8320663080336832	166.50344153305744	0.0389740797291864	-0.3743164424091745	0.4132905221383609	88.5034672948398
19	7.0	perception	135	diff_vonmises	0.0039594324639019	0.2268587694486664	1.666276985884624	2.628515882902602	0.179057040934777	4.149984799388713	0.429929683646442	-0.507317812104826	0.937247495751268	95.9058076155658
20	7.0	wm	135	diff_vonmises	0.1228631445863497	7.039539642503446	1.5057251342782427	1.538955463277691	0.3129716061181566	3.159868034827233	-0.0030388950932356	-0.3524886889497529	0.3494497938565173	88.31357290938175
0	1.0	ltm	256	diff_vonmises	-0.0352386369454259	-2.019025172766684	7.025571472320518	0.1705516753717478	5.433363452469274e-16	2.433655431590344	-0.2104311273738446	-0.3873281519586043	0.1768970245847596	51.33425305924894
1	1.0	perception	256	diff_vonmises	-0.0081723493350706	-0.4682411256060925	13.36540182126492	0.7565668374753165	0.0964170243721037	3.167580384597718	0.5383892953493525	-0.5279073096233222	1.0662966049726748	36.57505754281539
2	1.0	wm	256	diff_vonmises	0.0173497836910085	0.9940693809597	6.460993826221425	0.2470806972721436	4.401150912007441e-19	2.7428017689838198	-0.1912286482464685	-0.4365298600051246	0.245301211758656	53.56890296370551
3	2.0	ltm	256	diff_vonmises	0.0153392374246867	0.8788735653836703	5.020810931672014	0.3324464005811468	4.990861524857511e-17	1.5391440088055628	0.0439496894814885	-0.2449497949931816	0.2888994844746702	60.93061731688465
4	2.0	perception	256	diff_vonmises	-0.018762079825689	-1.0749879888995322	7.99965327947119	1.3055169636815376	0.4052369011217679	2.592426180581715	0.8544744061503642	-0.4586764292900011	1.3131508354403651	45.69205516029649
5	2.0	wm	256	diff_vonmises	0.0349568570981123	2.002880376763772	4.047653494810108	0.5407863906998898	0.1587817118159621	2.0310713995514904	0.0419777742992411	-0.3155680724547391	0.3575458467539802	62.87223863334867
6	3.0	ltm	256	diff_vonmises	0.0905204671419235	5.1864407267848645	2.417086685619433	1.0319522329767483	0.803662055928302	1.600585627775504	0.1090949605125943	-0.1698925903270199	0.2789875508396142	68.07300725458757
7	3.0	perception	256	diff_vonmises	-0.0060156223688193	-0.344669772877842	4.7835035873662015	1.8919678856520707	0.4489370631271211	2.441912709732256	1.022819157184803	-0.3697614406335183	1.3925805978183217	58.32585389412449
8	3.0	wm	256	diff_vonmises	-0.0437821829568752	-2.5085343012985564	3.792570035772985	0.5568653074797499	0.320194566805061	1.4293386630486409	0.1103273255156466	-0.216421682441171	0.3267490079568176	62.85583288367508
9	4.0	ltm	256	diff_vonmises	-0.07421051991409	-4.25194958654891	1.0363695480992303	162.26492096726787	1.0209636591477864	163.65451641691038	-0.0086894119343625	-0.3148698389520561	0.3061804270176935	78.15673385499562
10	4.0	perception	256	diff_vonmises	-0.0557989161155262	-3.19704239482417	2.709583527036818	2.265205110011805	0.2831165159202061	3.6590009010514977	0.6415673566338349	-0.4852985686047342	1.126865925238569	75.63255117336976
11	4.0	wm	256	diff_vonmises	-0.1011078734948224	-5.79305442679597	1.0206088008080447	303.9831367987274	1.0110223046542188	305.6416293536279	-0.0196865000150694	-0.3720833391775642	0.3523968391624947	78.36116903082578
12	5.0	ltm	256	diff_vonmises	0.0515356028613701	2.952772538618841	1.9259839102043117	1.0997762781145923	0.2151868057094936	2.096111981653437	0.1455973910955288	-0.2653748347023074	0.4109722257978363	87.35665762692395
13	5.0	perception	256	diff_vonmises	-0.024092259397917	-1.3803847824350424	2.569332289841869	2.028667760232247	0.0966936335817356	2.960089069921425	0.6971483482631378	-0.4238912844243707	1.1210396326875085	82.51079767337845
14	5.0	wm	256	diff_vonmises	0.047006180192704	2.6932557360733864	1.6545181917894	1.0215799015438185	4.446295061788623e-16	2.1942293431077324	0.1204277801596819	-0.3320552690611393	0.4524830492208213	105.85847146214968
15	6.0	ltm	256	diff_vonmises	-0.1425558172929972	-8.167846675926818	0.5205244223156126	119.78344950130136	0.5055870938980279	120.63722744953807	0.1235234347846265	-0.2764494476727588	0.3999728824573854	119.50399162687636
16	6.0	perception	256	diff_vonmises	-0.0367282670584354	-2.104374691277721	1.0367665288309509	2.590940336395311	0.0729927964194237	3.558660502917588	0.2948852524906319	-0.4122219778332762	0.7071072303239081	122.56148755730024
17	6.0	wm	256	diff_vonmises	-0.0876250198274373	-5.020543815862315	0.4325495364370051	142.6076376595545	0.418680772859835	143.56995329715957	0.1418761507681551	-0.3340760243686738	0.4759521751368289	129.30141288947794
18	7.0	ltm	256	diff_vonmises	0.1184469830607293	6.786512225437344	0.9321904425054568	187.48350649000585	0.9196117670207294	188.54414987106423	0.1022778240519386	-0.2724574447302395	0.3747352687821781	86.8039766819359
19	7.0	perception	256	diff_vonmises	-0.0375474145862947	-2.151308387422634	1.5082718477152843	2.073420749140991	0.1426832016738183	3.028057681157804	0.3480785219615278	-0.3716014944333789	0.7196800163949066	102.50927841224488
20	7.0	wm	256	diff_vonmises	0.1763461336967612	10.103889194274169	0.8212621345678432	87.56638935988276	0.7984953106021452	88.66829126489623	0.04641796945792	-0.2618552609363025	0.3082732303942226	91.11134643280568
0	1.0	ltm	112	diff_vonmises	-0.1527681285710177	-8.752969011231244	1.8057076663246523	0.5047432768982093	1.2734546888722178e-16	2.0284278465201666	-0.0781010998412078	-0.3162229745716627	0.2381218747304549	101.7246567755918
1	1.0	perception	112	diff_vonmises	-0.047666572692941	-2.7310934391590624	13.706214456041955	0.728502753760612	1.6293861245189536e-22	2.4776980190023514	0.6713174643200086	-0.3943378872118946	1.0656553515319032	36.60608862122518
2	1.0	wm	112	diff_vonmises	0.0086674223212886	0.49660671826732	2.929475052869248	0.4802936835495696	4.599813058469044e-30	2.103983483672468	-0.0245669437242553	-0.3339735280069542	0.3094065842826988	80.30878234969015
3	2.0	ltm	112	diff_vonmises	0.0354696317783843	2.032260201784528	3.577428104242675	0.6026226142559563	0.2340135514417073	1.492488629163446	0.1396355495104869	-0.222545055271631	0.3621806047821179	66.259205047591
4	2.0	perception	112	diff_vonmises	-0.0192721605669907	-1.1042134625870212	6.716109115746151	1.3503498054323428	0.2986335015608444	2.101350815928094	0.9270944488367028	-0.3458070164778133	1.272901465314516	50.55746820599754
5	2.0	wm	112	diff_vonmises	0.0107317549457102	0.6148842651578458	4.162088401304193	0.5419159330836152	0.1342912664218323	1.487713298806146	0.156136821934346	-0.2291501708461796	0.3852869927805257	63.66111979530024
6	3.0	ltm	112	diff_vonmises	0.0535856807665317	3.0702333502576176	3.32091529648684	0.5771743669012998	0.1110143577136205	1.1542386501910369	0.1957367576003131	-0.1718295660390462	0.3675663236393593	72.01072251415431
7	3.0	perception	112	diff_vonmises	-0.0135680885454615	-0.7773942097147414	4.41775073654095	1.9501244793166543	0.246146056544019	2.401920167041756	1.100714181013028	-0.3575625209870868	1.4582767020001148	62.332314246621536
8	3.0	wm	112	diff_vonmises	-0.0958470904097325	-5.491633759086502	3.1102542489223994	0.8590604152402318	0.3189867434466325	1.5123973857854034	0.2513660183888515	-0.2091398390557426	0.4605058574445941	70.29358591189424
9	4.0	ltm	112	diff_vonmises	-0.1742630218176812	-9.98453567534932	2.7963495760261123	0.7944569471000171	0.3276834472527006	2.018930348215856	0.0655961382118681	-0.2830291904441821	0.3486253286560503	70.26050918480865
10	4.0	perception	112	diff_vonmises	-0.0741410460777872	-4.247969028942178	2.302226359050389	2.7073021063904186	0.2050541328052297	4.029083128621812	0.7406886622044478	-0.5247378440078114	1.2654265062122594	83.45447985944921
11	4.0	wm	112	diff_vonmises	-0.097832050486011	-5.605363593959227	1.1015762451806566	302.21667908323457	1.0908273499650112	303.6878368730355	0.0805679708519164	-0.3646591789126674	0.4452271497645839	78.15471508227171
12	5.0	ltm	112	diff_vonmises	-0.024926023317251	-1.4281559361231626	1.5640482838787089	1.0115377570485418	4.1270311838279814e-14	1.4704551546966154	0.2153580657732441	-0.2143447909202832	0.4297028566935274	108.50587617109828
13	5.0	perception	112	diff_vonmises	-0.0167237616625044	-0.958200960844194	1.7680951860364875	2.8506811599922504	0.2909151984100361	3.075138154350816	0.7235897159539849	-0.3234772689522051	1.04706698490619	93.12969979093036
14	5.0	wm	112	diff_vonmises	0.0524277307360505	3.003887700624002	1.2584551705954583	1.588045689018251	0.1550934950882383	2.062976359062152	0.2380369065062614	-0.2295084370428947	0.4675453435491562	110.3545756113434
15	6.0	ltm	112	diff_vonmises	-0.1243523872218459	-7.124866960188322	0.3874315133827077	111.86952567139404	0.3766189027215695	112.22303741923768	0.1418573302144778	-0.1877677035654592	0.3296250337799371	136.15273094194075
16	6.0	perception	112	diff_vonmises	-0.0245962192796536	-1.4092595567024575	0.5932084031387763	189.00738009204304	0.5788506923039233	189.32590938575748	0.429563143951583	-0.3092816501574553	0.7388447941090384	118.5931306066341
17	6.0	wm	112	diff_vonmises	-0.0041174962128648	-0.2359151551582572	0.4471111433192883	80.26218719565297	0.4258987199351866	80.62474903806576	0.2302292159435452	-0.2387315019755158	0.4689607179190611	131.34193841629408
18	7.0	ltm	112	diff_vonmises	0.0755524627409425	4.32883724687541	0.972192449432292	105.8581386718945	0.9486341156360732	106.81819418547455	0.1545195256009961	-0.2685970345300852	0.4231165601310813	86.75410019829755
19	7.0	perception	112	diff_vonmises	0.0731105834397996	4.188927868839567	1.7241201063209437	2.111712109771029	0.0845233163960287	3.0191459355056867	0.473535754558552	-0.4091203268517951	0.8826560814103471	99.84230884051247
20	7.0	wm	112	diff_vonmises	0.0156847744224836	0.898671377023058	0.5945765528963838	76.47983175750863	0.5726051854467961	77.45787681573509	0.0628489460294012	-0.257592947503424	0.3204418935328252	109.42738356661714
0	1.0	ltm	210	diff_vonmises	0.0103821576028083	0.5948538128805768	5.038265207640311	0.2822387531365893	0.0064322571837073	2.4720878701555007	-0.1502747999681154	-0.392359097722459	0.2420842977543436	60.29403568836369
1	1.0	perception	210	diff_vonmises	-0.0101552119490222	-0.5818507847397957	12.353511085125705	0.6511660482550709	0.0439993344139218	2.967851348087981	0.4098038430242577	-0.4807513910244291	0.8905552340486869	38.26570460302895
2	1.0	wm	210	diff_vonmises	0.0715377960948829	4.098813791904254	4.348429100211342	0.4250919825030635	0.0304415436498858	2.729768500408353	-0.1057805134222869	-0.4301781150994547	0.3243976016771678	63.685493878089545
3	2.0	ltm	210	diff_vonmises	-0.0193184918971474	-1.106868052264227	3.1151037859082726	0.7392256535959741	0.2938330887295638	1.9305833853868308	0.0911745510420171	-0.2797427649044773	0.3709173159464944	68.25748766904485
4	2.0	perception	210	diff_vonmises	-0.0088953191000881	-0.5096642418571582	6.912654442245708	1.199951906872848	0.2715210773273543	2.4090351966581105	0.7399465726698499	-0.4003575885441898	1.1403041612140397	49.66060270976362
5	2.0	wm	210	diff_vonmises	0.0724027831189361	4.148373897716084	4.395519025191963	0.5958736417092126	0.2092156587333943	1.89223399164629	0.1149821518309535	-0.2963017308860936	0.4112838827170471	60.24943281036499
6	3.0	ltm	210	diff_vonmises	0.0165417679590791	0.9477734897399714	1.83784486434974	2.1820475260538963	0.8149049929106151	3.03452117603002	0.139377098889578	-0.2423069196266288	0.3816840185162068	74.21354364566548
7	3.0	perception	210	diff_vonmises	-0.0134050868546523	-0.7680549007778787	4.5768493634542144	1.7063421438435895	0.2292532777350305	2.5706062978667994	0.9033321870608624	-0.390340403757483	1.2936725908183455	61.04616946437597
8	3.0	wm	210	diff_vonmises	0.0016375588873961	0.0938252129519362	2.574884119751084	1.0193463169339076	0.4526534845515417	2.050301372466735	0.1234296299998858	-0.2644599623656232	0.3878895923655091	71.20902981448077
9	4.0	ltm	210	diff_vonmises	-0.1134732852982776	-6.501540335075204	1.0081552968480354	130.27403166046213	0.9876886643210586	131.73182510267884	0.0096958311501822	-0.3337917047536116	0.3434875359037939	80.07616796256994
10	4.0	perception	210	diff_vonmises	-0.0938078046797627	-5.374791293537981	2.115814281361229	2.918799928632863	0.3256776612920947	4.328194375762056	0.6284409472207454	-0.5091707876329568	1.137611734853702	82.99129677543175
11	4.0	wm	210	diff_vonmises	-0.1022678198596185	-5.859514457960326	1.0435314109518938	313.3229861443214	1.0332687370260922	314.9818653332941	0.0288370761233522	-0.3881098525902828	0.4169469287136351	78.92162443525146
12	5.0	ltm	210	diff_vonmises	0.008432641257467	0.4831547542007542	1.2407844896302476	2.175343790720864	0.2899372782303596	3.240632880699873	0.1660848826290125	-0.3104834708307696	0.4765683534597822	101.08785240576312
13	5.0	perception	210	diff_vonmises	-0.0526928535011593	-3.019078116117572	1.9560402897780556	2.7768416276138783	0.2870921459798062	3.7722803665833657	0.6296017497638007	-0.4343763476925094	1.0639780974563102	87.47463827686502
14	5.0	wm	210	diff_vonmises	0.0510053579610817	2.9223917437239804	0.6834948340899833	185.5351824837812	0.6701549255329201	186.61612703583515	0.1697544161524788	-0.3204021498993867	0.4901565660518656	104.04644506688471
15	6.0	ltm	210	diff_vonmises	-0.0978483640256025	-5.606298290926739	0.5029089136410558	193.3059672099969	0.4925816836895382	194.3016032279572	0.1286928807590754	-0.3168011211059678	0.4454940018650433	120.84489957840414
16	6.0	perception	210	diff_vonmises	-0.0862172530793421	-4.939884722657602	0.6162388115447649	169.5033648340821	0.5970791241369781	170.55411771627976	0.336616335580878	-0.4166321908154913	0.7532485263963693	112.94509087060528
17	6.0	wm	210	diff_vonmises	-0.1017945545463444	-5.832398352919782	0.5895504396817167	161.54318407515692	0.5749134417362841	162.51844683489736	0.1923548900252996	-0.3281064527435973	0.5204613427688969	113.4429870215114
18	7.0	ltm	210	diff_vonmises	0.0124269308925938	0.7120106924463667	0.7980073133171968	220.67158685177543	0.7842129546224857	222.26568776340747	0.1020802980550854	-0.3929909891024792	0.4950712871575646	93.15229517494107
19	7.0	perception	210	diff_vonmises	-0.0629241936678164	-3.6052907264297	2.3300943847083726	1.988447207260628	0.0637377160648146	3.4625189586673613	0.5373826764932015	-0.5064174935670641	1.0438001700602657	87.09818215046496
20	7.0	wm	210	diff_vonmises	0.2096966997684241	12.014735874552652	2.699498010235616	0.8632427027256669	0.1002487498934029	2.326116602759184	0.123863769024008	-0.3426593416725629	0.466523110696571	78.42711802718125
0	1.0	ltm	308	diff_vonmises	-0.0085177054739777	-0.4880285747944009	6.868291927368637	0.2909466781168152	4.145290292478387e-14	4.048891211071851	-0.3462456971944946	-0.6444007274812141	0.2981550302867195	51.93878313448167
1	1.0	perception	308	diff_vonmises	0.027558254671198	1.578971683406335	10.9284799439086	0.9343630330489562	0.0883603741467197	4.6639179012503895	0.4079097775191203	-0.7692530089674474	1.1771627864865677	40.27821668953777
2	1.0	wm	308	diff_vonmises	0.0397205032048775	2.275817193775341	5.182804029050282	0.3910919984953412	6.227875919136248e-19	4.312399178466864	-0.3406862054144222	-0.6863287573733233	0.3456425519589011	59.95039485238272
3	2.0	ltm	308	diff_vonmises	-0.0266069268913052	-1.5244646166849258	3.2546027730720506	0.6416650213259868	0.105209558822297	2.357010444813314	0.0244562766465433	-0.3579137608916456	0.3823700375381889	70.87061757794302
4	2.0	perception	308	diff_vonmises	-0.0263232218496299	-1.5082095151703458	7.208755674056833	1.372700935256506	0.2424684309738483	3.0609247846065726	0.8308038135194437	-0.5099074626522815	1.3407112761717253	48.73879740755311
5	2.0	wm	308	diff_vonmises	0.0220616492773736	1.2640393926913551	3.6890432764097536	0.8101231611520945	0.1458850626766889	2.6791065948860444	0.1050377074337054	-0.4093582676112181	0.5143959750449236	66.26017599769551
6	3.0	ltm	308	diff_vonmises	0.0013811710980525	0.0791352747038631	2.9486066641970257	0.5157401397414028	6.229535530222789e-19	1.31781945040461	0.1247338497627559	-0.2088186518232254	0.3335525015859815	80.0348892982392
7	3.0	perception	308	diff_vonmises	0.0054475226559328	0.3121200569868514	4.080871013033185	1.883457458298824	0.2326016738417411	2.6112392416054204	0.946509139002245	-0.385334930101583	1.331844069103828	64.52231219565292
8	3.0	wm	308	diff_vonmises	-0.0799684589625562	-4.581855192719591	3.501208864525001	0.6790603307663883	0.0965432892570601	1.5883124799529422	0.2073612133281346	-0.2401262168518891	0.4474874301800238	70.23140682064411
9	4.0	ltm	308	diff_vonmises	-0.0875802299229859	-5.0179775433724565	2.311243037746412	0.7149849184282402	7.160896773282252e-12	2.821051551341686	-0.0467050124882194	-0.4450305639495982	0.3983255514613787	90.44517436038444
10	4.0	perception	308	diff_vonmises	-0.0591492401666361	-3.38900182295394	1.8864251395024525	4.118288086668207	0.4180211781874239	5.983360869657287	0.6652673537930451	-0.6279756274471229	1.293242981240168	84.02443039848546
11	4.0	wm	308	diff_vonmises	-0.0551895264052569	-3.162126936347039	0.7500197025102727	297.2417235446546	0.7395599987723736	299.4700377532487	-0.057440786956505	-0.4734283487193593	0.4159875617628543	91.15817208665057
12	5.0	ltm	308	diff_vonmises	-0.0788189416360181	-4.515992701431801	1.3198301451127392	1.345007860192017	5.805039718844861e-17	2.645886926043221	0.1183022086613985	-0.3825964243584245	0.5008986330198231	116.36376060111068
13	5.0	perception	308	diff_vonmises	-0.0207918105670317	-1.191282993926427	1.995818364004026	3.0377146598307228	0.2052446259203525	4.143355848120389	0.7639030239831031	-0.5129236310345943	1.2768266550176972	89.22355395221209
14	5.0	wm	308	diff_vonmises	0.00637105392892	0.3650345011773576	0.5933408111627363	232.0179764926567	0.5815859591406854	233.315197346646	0.1755699914816944	-0.3905722983016737	0.5661422897833681	111.4745221477926
15	6.0	ltm	308	diff_vonmises	-0.0150763959928203	-0.8638138606565529	0.4896279211465794	11.864041420113516	0.3447765229845931	12.874402708601092	0.095859673886077	-0.3184521622281859	0.414311836114263	129.49740003871182
16	6.0	perception	308	diff_vonmises	-0.0538599213972274	-3.085946180967486	0.6619421715776104	4.179911385627549	6.271339286138161e-12	5.087868173806585	0.3493757411158374	-0.5013134403983908	0.8506891815142282	143.9301599453079
17	6.0	wm	308	diff_vonmises	-0.0761401944991799	-4.362511796108217	0.4542198306398821	216.78393766556647	0.4431554969670068	217.8170355908616	0.2003935591218777	-0.3832327335952037	0.5836262927170814	127.41827974226604
18	7.0	ltm	308	diff_vonmises	0.1782092121271635	10.210635725238076	0.6407610876155461	35.262248319300326	0.581366747907446	36.60826829597551	0.044082582916701	-0.3280777701221731	0.3721603530388742	105.31805605178936
19	7.0	perception	308	diff_vonmises	0.070795459734433	4.056281051471372	0.865711734653676	311.49010752045194	0.8524019943455657	312.57791381009673	0.4497025768746425	-0.4168347643482519	0.8665373412228945	95.43399341137314
20	7.0	wm	308	diff_vonmises	0.1047378750299926	6.001038194387228	0.7512904847184144	160.93325898089134	0.7361416049514803	162.2967220160241	0.0679657590702973	-0.3305678970968024	0.3985336561670998	95.6458136829966
0	1.0	ltm	475	diff_vonmises	0.0820163049854752	4.699188126925503	5.228660394900105	0.1694830212336633	6.04776501293789e-19	2.984721164792713	-0.3245404414642037	-0.475028801777616	0.1504883603134123	59.681252329913576
1	1.0	perception	475	diff_vonmises	0.0233791673281553	1.3395276164334482	11.877891672402464	0.7245904100031919	0.0797268513241306	3.633930681839888	0.3597815751882444	-0.5986684831565506	0.958450058344795	38.738405137368574
2	1.0	wm	475	diff_vonmises	0.0541630242487841	3.1033126951200654	5.839136693969465	0.2515253104216146	5.833153782797738e-16	3.2629554108305703	-0.2825266559483039	-0.5193134756648828	0.2367868197165789	56.40502509840067
3	2.0	ltm	475	diff_vonmises	0.0588206521860838	3.3701751184695614	4.527959097303961	0.3916872051163739	0.0287585351968221	2.039248621306054	-0.0119080739438501	-0.3213509863307758	0.3094429123869257	62.80876271560575
4	2.0	perception	475	diff_vonmises	-1.932676725513217e-05	-0.0011073421953507	7.518354958599735	1.3757032850436794	0.3102098083165036	3.205361101055168	0.7988611428334258	-0.5490495974752495	1.3479107403086754	47.273422809019024
5	2.0	wm	475	diff_vonmises	0.0872758435983814	5.000537491631119	4.121467288919613	0.5550055705766088	0.10800953752691	2.555876135157364	-0.0181254373104209	-0.399377627760404	0.381252190449983	63.07983128980328
6	3.0	ltm	475	diff_vonmises	0.1174701982402782	6.730546577733051	3.1242378853144364	0.661828864616117	0.3837094136563526	1.6368173769801888	0.0749082376287786	-0.2349342748605784	0.3098425124893571	66.43317854747042
7	3.0	perception	475	diff_vonmises	0.0090793447473953	0.5202081347700278	5.070642594018612	1.836823044683336	0.2401365704828907	2.9084639149510694	1.0243023983305592	-0.4514785121838008	1.4757809105143602	58.02621037944954
8	3.0	wm	475	diff_vonmises	0.0121468614473777	0.6959638952649131	4.557702412022946	0.4510780719308188	0.0798160760908031	1.8190764806231217	0.05912903297548	-0.2853114778588116	0.3444405108342916	61.406006099849805
9	4.0	ltm	475	diff_vonmises	0.0998302833080652	5.719853901147447	0.6948110383223757	153.31527806086993	0.6798971328310486	155.64188306664784	-0.2175906740385613	-0.4379022214161381	0.2203115473775767	86.88648815300093
10	4.0	perception	475	diff_vonmises	-0.0312057335711515	-1.7879568302366875	2.179148694805709	2.841011245725648	0.2955418228962934	5.078731898979557	0.4803727376456863	-0.6333551299494256	1.113727867595112	81.19174931315345
11	4.0	wm	475	diff_vonmises	0.0361931938819856	2.073717256536487	0.7354827379704352	182.9876248601586	0.7203202919214571	185.6361179607425	-0.2345352715755666	-0.5054624169345949	0.2709271453590283	85.21569615535552
12	5.0	ltm	475	diff_vonmises	0.0108077395653009	0.6192378631682965	2.5041527579252487	0.742054009928469	0.0389641012369351	2.042856455116187	0.0998197582639301	-0.3102063756482869	0.4100261339122171	84.22415241438554
13	5.0	perception	475	diff_vonmises	-0.0457836881613308	-2.623212102187329	2.2230954927301885	2.591582345681532	0.1835973197573341	3.9085599396351136	0.6834846013187391	-0.5121935439275651	1.1956781452463043	85.26556497944233
14	5.0	wm	475	diff_vonmises	0.0776533992502816	4.44921204188549	1.6532440856936814	1.0967766300355375	1.1311468108914547e-16	2.720444609146935	0.070998101433394	-0.4145025207215936	0.4855006221549877	105.88476230915768
15	6.0	ltm	475	diff_vonmises	-0.1083533873614615	-6.2081917917579	0.5374901485223379	122.32868806019208	0.5216930627551885	123.5315011809224	0.061078559034609	-0.3185682249130508	0.3796467839476598	114.62719932025928
16	6.0	perception	475	diff_vonmises	-0.0913025183687502	-5.231248961445065	0.8860054021589078	3.209119911541248	0.1218588888111241	4.47661537613083	0.2252642371009048	-0.453802260414613	0.6790664975155178	125.19557487697608
17	6.0	wm	475	diff_vonmises	0.0350582959719729	2.0086923961145424	0.4797077373518882	185.71787227745156	0.4682409129093985	187.0992904908697	0.0636727995306216	-0.3760613942213311	0.4397341937519528	120.97068380395037
18	7.0	ltm	475	diff_vonmises	0.033665155010136	1.928871298734495	0.8925176126388424	250.2102537320829	0.8807936860182489	252.06789835402665	-0.0336687622552887	-0.403719952840941	0.3700511905856523	83.7107620911371
19	7.0	perception	475	diff_vonmises	0.0019115605885642	0.1095243540082731	0.6616982361286462	214.86331701792489	0.6428547817055236	216.58171996736843	0.2993373618636354	-0.5304988377786621	0.8298361996422976	106.4675628011281
20	7.0	wm	475	diff_vonmises	0.073761759849447	4.226237528830845	0.7523407327523571	99.96402429641128	0.7281369849071185	101.9329016325319	-0.1090433874648475	-0.3973079909715142	0.2882646035066667	88.75445634924435
0	1.0	ltm	285	diff_vonmises	3.947691846059261e-05	0.002261860815974	4.385656431164418	0.3685156902966787	0.019155768336044	2.6890913453750493	-0.1383657693282343	-0.424794439641128	0.2864286703128937	63.86736424614699
1	1.0	perception	285	diff_vonmises	-0.0190355956355516	-1.0906592904347605	12.816653632678491	0.6242707145644824	0.024636385708282	3.038976285092013	0.3869091131820106	-0.4882377070804161	0.8751468202624266	37.67137702388973
2	1.0	wm	285	diff_vonmises	0.0953951700979546	5.465740632545391	3.445828246370577	0.5733493480703615	0.0642852911776305	2.984735223228092	-0.1000781439028781	-0.4623415000184439	0.3622633561155657	69.6495755371856
3	2.0	ltm	285	diff_vonmises	-0.0564386969748953	-3.2336991378792708	2.783777162045544	0.8831841070732561	0.3217559926992592	2.136877326952962	0.0968749862466045	-0.297473479560848	0.3943484658074526	70.96896061980465
4	2.0	perception	285	diff_vonmises	-0.0167959904046564	-0.962339362929044	6.650900440820754	1.137673535277257	0.2084132470527586	2.3786154371796	0.6854582563206872	-0.387860233586679	1.0733184899073662	50.94261357730872
5	2.0	wm	285	diff_vonmises	0.0637526499125985	3.652757772766975	4.3867753182777225	0.65026532830494	0.2244222304369766	1.9571650243842316	0.1406094081481353	-0.3060205472914721	0.4466299554396075	60.22307543639343
6	3.0	ltm	285	diff_vonmises	-0.040435154917568	-2.316763720734304	1.7256349342198396	2.594474812145504	0.7594886374086791	3.5763653173274106	0.1654466791778739	-0.2772685818776308	0.4427152610555047	76.91697567525065
7	3.0	perception	285	diff_vonmises	-0.0244116564249854	-1.3986848840750854	3.995712927789909	1.8334813994260573	0.2165746657430567	2.7963976028245714	0.862468290217732	-0.4140610483069693	1.2765293385247012	65.09573186386791
8	3.0	wm	285	diff_vonmises	-0.0183787668511398	-1.0530257732252557	1.8906768260764224	2.037583410189121	0.6633178849793411	3.1294255112585434	0.1473239015578472	-0.2941572689104318	0.4414811704682791	75.81013602906867
9	4.0	ltm	285	diff_vonmises	-0.1187930670051304	-6.806341374808766	1.0147076303678255	69.24575039449513	0.9743207392919044	70.67630855686241	0.0473986472753651	-0.3390239874076446	0.3864226346830097	81.41891381625263
10	4.0	perception	285	diff_vonmises	-0.1188838645219838	-6.811543689314736	1.8009757724481883	4.095340284274463	0.4720457829098466	5.378598549715101	0.6834768409657779	-0.512682698548812	1.19615953951459	85.22846098333756
11	4.0	wm	285	diff_vonmises	-0.1187480704660519	-6.803763263026873	1.0430688557223848	289.3280494658622	1.0317340244026585	290.92020756228294	0.064629245019347	-0.3836270118043146	0.4482562568236616	79.92677882753824
12	5.0	ltm	285	diff_vonmises	-0.000967411888019	-0.0554286182342754	0.6168540862406813	190.51071537052468	0.603608499172739	191.7997313098195	0.1348856679314707	-0.3615779827677734	0.4964636506992441	108.35405599385376
13	5.0	perception	285	diff_vonmises	-0.0466295288962988	-2.671675206441238	1.692572120174184	3.482023084926384	0.3728959676785185	4.709501542574364	0.5716903295167008	-0.4729028475318513	1.044593177048552	89.59249180428424
14	5.0	wm	285	diff_vonmises	0.0160841773862047	0.9215554811692898	0.6732509406271661	247.63248808026972	0.6627378127844615	248.89349706587424	0.145504704799066	-0.3501574359509938	0.4956621407500599	103.6474824371497
15	6.0	ltm	285	diff_vonmises	-0.1007160168067241	-5.770602692393959	0.4577031062851774	247.74581531087412	0.449241364788164	249.11163021638768	0.064641585686239	-0.3780329928225363	0.4426745785087753	123.47846716192248
16	6.0	perception	285	diff_vonmises	-0.0850598027887356	-4.873567706009664	0.6090629723510327	271.9926432259608	0.595686271113799	273.36785174114846	0.3247191382679943	-0.484375051281134	0.8090941895491284	112.17269331380436
17	6.0	wm	285	diff_vonmises	-0.159971565276572	-9.165695532449128	0.6211492583149204	153.80564186173314	0.6034393431900348	155.11847950206305	0.1666551703960834	-0.3830507285620221	0.5497058989581056	108.84297429854315
18	7.0	ltm	285	diff_vonmises	0.0087921524418224	0.5037532277520652	0.6956992650134352	176.480704908228	0.6783264743953334	178.28521068733383	0.0779508566235023	-0.4376495487106808	0.5156004053341832	99.44279936321692
19	7.0	perception	285	diff_vonmises	-0.0560844360928698	-3.213401484492625	2.6707071809870446	1.9336586547698948	0.0421416113648375	3.6351586691155777	0.5812654143582131	-0.5494875456433774	1.1307529600015904	82.25355857952198
20	7.0	wm	285	diff_vonmises	0.2256488720905158	12.92872802267391	3.137722578052587	0.8786079350788873	0.0740972255824691	2.501453843833415	0.1621562694319553	-0.3788767770817294	0.5410330465136848	74.07463055253234
0	1.0	ltm	383	diff_vonmises	-0.0573544492683762	-3.286167879375154	3.3910741696504427	0.345013001006167	2.4321310570721268e-17	1.7778879679637922	-0.0408217858275904	-0.2826850904023472	0.2418633045747567	74.51725630106182
1	1.0	perception	383	diff_vonmises	-0.0327567350079475	-1.8768226665838288	12.37861368683741	0.7046390849904955	1.7004054584219954e-24	2.349169702885624	0.6047525168896308	-0.3738819703586393	0.9786344872482702	38.53417029444927
2	1.0	wm	383	diff_vonmises	0.0493107230346032	2.825296314621295	4.715698391509805	0.404670906276476	8.334300680300603e-17	1.9009989682883188	0.0375342243185797	-0.3025261175676138	0.3400603418861936	62.91862106256289
3	2.0	ltm	383	diff_vonmises	-0.0286030804587563	-1.63883579135986	2.569068408777918	1.200444879176893	0.6603347669404239	1.9922172946634475	0.1670055796362363	-0.2338562126008985	0.4008617922371348	68.91110910051935
4	2.0	perception	383	diff_vonmises	-0.0132451886094678	-0.7588934061772601	6.645652535814328	1.2659196331387326	0.2801306922628095	1.9710510472930445	0.8682972604172792	-0.3225888571237127	1.190886117540992	50.91652885746447
5	2.0	wm	383	diff_vonmises	0.0578239433032773	3.313067906081551	4.704974692587606	0.5071435556062606	0.1998742160266517	1.3112786607521196	0.1733227293911037	-0.2052111699464505	0.3785338993375542	59.30710085008943
6	3.0	ltm	383	diff_vonmises	0.0321793190061421	1.84373916665706	1.951795862572939	1.4471219043197112	0.7230126664399248	1.913053515766835	0.182835659195374	-0.1639802874815648	0.3468159466769389	76.83258934280943
7	3.0	perception	383	diff_vonmises	-0.012647504247853	-0.7246486147757609	4.667290080907734	1.6198198096195051	0.2258024682468731	2.046297459047444	0.9507234141750662	-0.3091533657359043	1.2598767799109705	60.88336700068251
8	3.0	wm	383	diff_vonmises	-0.0427806380334918	-2.451150004195933	2.2012847317912283	1.4096049754497757	0.7457548457102999	1.9274374965166683	0.2050456272377568	-0.1831850045750635	0.3882306318128204	73.25058804357377
9	4.0	ltm	383	diff_vonmises	-0.1744357702894915	-9.99443343370138	1.6161330906032678	3.2748389482334948	0.9239773709568964	4.26481653541153	0.0884024066190662	-0.2611029683875923	0.3495053750066585	73.83679231812599
10	4.0	perception	383	diff_vonmises	-0.1020613765165109	-5.847686125691688	2.365626751843921	2.445471298692381	0.2247694993925579	3.573721817315287	0.6918156825750015	-0.4625660310309905	1.154381713605992	82.07871440946914
11	4.0	wm	383	diff_vonmises	-0.1210554369799165	-6.93596562606113	1.212455480866216	255.2681723597112	1.2007706638434132	256.4414322836549	0.1054436272277712	-0.3099795350503669	0.4154231622781381	75.32587031140193
12	5.0	ltm	383	diff_vonmises	-0.0104698565950704	-0.5998785950047454	1.5600629523620335	1.0845379058044349	4.5118837594831184e-14	1.508016356224974	0.2410677642260336	-0.2187663608165541	0.4598341250425878	108.6260690592246
13	5.0	perception	383	diff_vonmises	-0.054652743772214	-3.1313715569577565	2.1329166384275347	2.3022717803061243	0.217748692297313	2.515712894667545	0.7427124885189654	-0.3069273342094673	1.0496398227284327	87.73849541654741
14	5.0	wm	383	diff_vonmises	0.0681162976282304	3.902776370154584	0.7617398647582159	125.06999690946998	0.7464291661488713	125.42737479070206	0.260724052178567	-0.19484686019325	0.455570912371817	103.85073545978292
15	6.0	ltm	383	diff_vonmises	-0.0779819271945296	-4.468035306543007	0.4641691535548132	103.53276520097316	0.4515319032713761	103.81326066347997	0.1761213049436492	-0.1800322763328541	0.3561535812765033	129.14424665362628
16	6.0	perception	383	diff_vonmises	-0.0863686179077413	-4.948557288491601	0.610720042671839	61.18287500841805	0.5694121661025529	61.45929556340883	0.4060514358739766	-0.2856599969156566	0.6917114327896332	118.36205648454258
17	6.0	wm	383	diff_vonmises	-0.0834435236722241	-4.780961734118422	0.6038418279319517	63.041976747472695	0.5774789416265679	63.24445476222935	0.2613538651206433	-0.1893011193615281	0.4506549844821714	118.11016541502342
18	7.0	ltm	383	diff_vonmises	0.0838062332695374	4.801743463233361	1.4123373936214971	2.323046027001044	0.4492078311910021	3.172511655602717	0.2174939535719868	-0.2672859872226795	0.4847799407946663	91.73045937120568
19	7.0	perception	383	diff_vonmises	-0.0422012203748214	-2.4179518177787696	1.883032058768364	2.730983136219759	0.3169758470668649	3.4250264479069896	0.62833203998936	-0.3732810313066847	1.0016130712960447	88.6873896752931
20	7.0	wm	383	diff_vonmises	0.1649211788405193	9.449287499884017	2.3365123950393403	0.7622574238208507	2.487670208696229e-13	1.483107285607285	0.1955809031228502	-0.2320101902937755	0.4275910934166258	89.94754201552948
0	1.0	ltm	262	diff_vonmises	-0.0409664113270146	-2.3472024708348687	5.764290478840436	0.2662336551117104	1.0311778145067027e-13	2.392382439580876	-0.1318463019420241	-0.3807570400399976	0.2489107380979734	56.78099873041347
1	1.0	perception	262	diff_vonmises	-0.0399830293097436	-2.290858831596182	15.04027456868024	0.6666556594480134	0.034534726479024	2.9449421351843004	0.5373635573755582	-0.4763726997936007	1.013736257169159	34.75637645465443
2	1.0	wm	262	diff_vonmises	-0.0193860140676538	-1.1107367876578085	6.34865906455856	0.3174151482254722	0.0092972421363724	2.6846438260596988	-0.1190115471282557	-0.4267244384069392	0.3077128912786834	53.583595846794935
3	2.0	ltm	262	diff_vonmises	-0.0712382424118216	-4.081650630127245	3.675086582160896	0.5738634320957201	0.116176769332378	1.863638114170597	0.0891409477701735	-0.285022699755865	0.3741636475260385	67.25918335962643
4	2.0	perception	262	diff_vonmises	-0.0385075873192173	-2.2063222326226444	7.852302444432241	1.1412516373316757	0.2362671503328924	2.5656365523910742	0.7441040289623545	-0.4315074435732147	1.1756114725355693	46.85946140003472
5	2.0	wm	262	diff_vonmises	-0.0049503321296611	-0.2836331382175913	3.9345175637331615	0.6173981190926656	0.1707186813661281	2.1142621475580023	0.0741627457310026	-0.3262190599110817	0.4003818056420843	63.697874237416784
6	3.0	ltm	262	diff_vonmises	0.0106343678420984	0.6093043951418864	1.2824274899051595	94.42436519436868	1.2532577142182049	95.27812247755313	0.1713042336639034	-0.2572572884837889	0.4285615221476924	75.61093419062647
7	3.0	perception	262	diff_vonmises	-0.0318459539060052	-1.8246387533822617	4.275248932168775	2.1230132457238358	0.3737136969061152	2.9882141080408746	1.02482591679741	-0.4412585726917878	1.4660844894891976	61.65983478752997
8	3.0	wm	262	diff_vonmises	-0.0637279896901959	-3.651344846101453	2.2596560010587714	1.4477745863440326	0.5796043304580262	2.555753917103444	0.1348361113058527	-0.2918918412892269	0.4267279525950797	72.41711373891548
9	4.0	ltm	262	diff_vonmises	-0.12684163827974	-7.26749053995413	1.0387564521713382	134.25819113196837	1.0166369580687245	135.6730741476614	0.0724296553601675	-0.3450410148762959	0.4174706702364634	80.72233567630761
10	4.0	perception	262	diff_vonmises	-0.0902837284140376	-5.172876596829708	2.3329200990129784	2.7130625328911924	0.3032566599842082	4.184979121301705	0.6533185680388885	-0.5205223411987189	1.1738409092376074	80.1648321805811
11	4.0	wm	262	diff_vonmises	-0.1712441007783193	-9.811564241110636	1.0404284559445045	323.749997691796	1.0305385997170473	325.3889462144572	0.0342083927389325	-0.3849407927073116	0.4191491854462441	79.19333759177118
12	5.0	ltm	262	diff_vonmises	0.0363414499974275	2.082211706238317	1.6908765698887902	1.435093442760195	0.1828466178232755	2.322888784598026	0.2283734212870712	-0.2849685224416761	0.5133419437287473	94.93566738020289
13	5.0	perception	262	diff_vonmises	-0.0391294467703064	-2.2419521546203702	2.399719754890911	2.1078741224783992	0.1063569591587061	2.949180983136162	0.69208197470543	-0.4139991947900848	1.1060811694955148	85.0353320184831
14	5.0	wm	262	diff_vonmises	-0.0426332563384363	-2.4427056550917703	0.695047806479905	160.40992754959765	0.6802546679108152	161.39943195175007	0.174158321836984	-0.3006712146184878	0.4748295364554717	103.62414704804829
15	6.0	ltm	262	diff_vonmises	-0.1421617452956547	-8.145268013654805	0.967751622712883	1.3768774924256153	0.0139574196378587	2.1016939293178223	0.1229012569090203	-0.2631401048377918	0.3860413617468121	128.81096306381187
16	6.0	perception	262	diff_vonmises	-0.0433394111609501	-2.483165346104619	1.113796500263159	1.931765047622719	1.9326656452294092e-14	2.7620328761105752	0.261836658083932	-0.3639799990350403	0.6258166571189724	123.98047464971386
17	6.0	wm	262	diff_vonmises	-0.153330272020787	-8.78517745838395	0.4917986075048909	148.1833500867728	0.4798867934377774	148.936536900304	0.146148834986505	-0.2716324386211184	0.4177812736076234	123.31787550766636
18	7.0	ltm	262	diff_vonmises	0.0499802829245449	2.8636592704461994	0.8955419787610178	184.42922076738316	0.8813690553567304	185.386755816099	0.1924798941170991	-0.2837429879070789	0.476222882024178	91.15851833958764
19	7.0	perception	262	diff_vonmises	-0.0538666515419151	-3.0863317898536087	0.7717230101750006	182.55152535001977	0.7524107247786227	183.4108270536515	0.4200333688451891	-0.3724825342068563	0.7925159030520454	102.03494075443224
20	7.0	wm	262	diff_vonmises	0.1258374732321157	7.209956120790701	1.276592621423619	2.972002724341264	0.6001397385471273	3.898593424464405	0.1331928522032741	-0.2522577772727882	0.3854506294760623	88.4258319010111
0	1.0	ltm	429	diff_vonmises	-0.1166677364457947	-6.684568903688654	3.159499519225108	0.3720173985869026	5.554243195996681e-20	1.953806647963632	-0.0600439548356115	-0.3105058592035074	0.2504619043678958	77.26386057666838
1	1.0	perception	429	diff_vonmises	-0.0379462777039124	-2.1741615606655587	13.3588740052285	0.7622981283988931	0.0091755613646129	2.538554663647571	0.6929475401995127	-0.4051476119587619	1.0980951521582747	37.028289346264245
2	1.0	wm	429	diff_vonmises	0.0328651854343418	1.8830364183026151	4.755778715283922	0.3995421862273676	2.3389173427994988e-18	2.078078553551962	0.0065709466054574	-0.3307115154818831	0.3372824620873406	62.64571402621394
3	2.0	ltm	429	diff_vonmises	-0.0531861961029273	-3.0473445650528843	3.3337778018118778	0.6506138092006093	0.2708953074339094	1.5197355853255252	0.1409103232614556	-0.2216857157009697	0.3625960389624254	67.70658068583256
4	2.0	perception	429	diff_vonmises	-0.0297579834447875	-1.7050068582065028	7.249121530222781	1.239323918586715	0.2576664217392715	2.027822171033819	0.8957041195345152	-0.3356751140679096	1.231379233602425	48.93986319703495
5	2.0	wm	429	diff_vonmises	0.0176263146993394	1.009913440641555	4.436097895977036	0.5312160593515702	0.1624967733877514	1.430178625774834	0.1659913745621742	-0.2218646307607235	0.3878560053228977	61.3810685561607
6	3.0	ltm	429	diff_vonmises	0.0017126920282193	0.0981300248226711	2.202571319279189	0.9460081463114426	0.4924645808833516	1.3566467368329889	0.1843638310156006	-0.1478559477335505	0.3322197787491511	78.02957150387437
7	3.0	perception	429	diff_vonmises	-0.0179529340447007	-1.028627350638085	4.20071941681662	1.8384006091502607	0.3351691440632645	2.131148442203297	0.9904451028559056	-0.3085902997362691	1.2990354025921746	63.12681460791865
8	3.0	wm	429	diff_vonmises	-0.0962462710754577	-5.514505126495779	2.293223996548234	1.3446524187754525	0.7280095751084791	1.7977031378528665	0.2318398900859785	-0.1757759818977289	0.4076158719837074	73.10496098436067
9	4.0	ltm	429	diff_vonmises	-0.1560124635323274	-8.938855711841033	1.6483860489727529	2.893745328512777	0.869586005876998	3.835363452964344	0.1118391532398668	-0.2548725898739032	0.36671174311377	75.02821456774478
10	4.0	perception	429	diff_vonmises	-0.1057708671204239	-6.060224281439337	2.3813463822508787	2.716168493620116	0.3187655937417888	3.713585372599706	0.7628889316612885	-0.4533631519950479	1.2162520836563364	80.06062532867955
11	4.0	wm	429	diff_vonmises	-0.1389527563473452	-7.9614064904125454	1.1840465160302178	250.43445651828827	1.1727319900904398	251.54972327025712	0.1078579466348799	-0.2951817263804557	0.4030396730153356	76.45520660745152
12	5.0	ltm	429	diff_vonmises	-0.0068815771858403	-0.3942853291421634	1.2885989277919794	1.3731415985083315	0.1054678142451782	1.9156188188577656	0.205059727350834	-0.2323455654773986	0.4374052928282327	111.53855323995953
13	5.0	perception	429	diff_vonmises	-0.0308198094101344	-1.7658450045982843	2.267152277437906	2.1753643944856624	0.1458577529395611	2.512470571918247	0.7497597116821292	-0.3336436790049444	1.0834033906870737	86.88447564368491
14	5.0	wm	429	diff_vonmises	0.0266762706834914	1.5284377233126276	0.6960221008023048	129.33052454730895	0.6812215462997168	129.83810381364373	0.2220071823404765	-0.2181741303325104	0.440181312672987	107.0147300035942
15	6.0	ltm	429	diff_vonmises	-0.1038180714640345	-5.948337332076746	0.4140384605720443	118.39285348296096	0.4031458452000253	118.8284106101476	0.1373748873453841	-0.2015756374292614	0.3389505247746456	132.8883095899658
16	6.0	perception	429	diff_vonmises	-0.0595425588829937	-3.411537325404729	0.4978132564395138	116.32303650671231	0.4752665040780001	116.74657778761495	0.3865680110756813	-0.3389165086275678	0.7254845197032491	126.9890926431688
17	6.0	wm	429	diff_vonmises	-0.1301217563826957	-7.45542746355795	0.531149851292572	87.29657635196045	0.5110378066893353	87.68653344815236	0.2321395012363645	-0.229270777931025	0.4614102791673895	122.83581693712748
18	7.0	ltm	429	diff_vonmises	0.1549626972419179	8.87870853392546	0.8408788251721397	94.02653671569831	0.8181283147643519	94.74247045578444	0.1885027345031815	-0.2327386636860478	0.4212413981892293	95.48886971817038
19	7.0	perception	429	diff_vonmises	-0.012214827093489	-0.6998580399389753	1.556926883411598	3.219761262699832	0.4348816440124955	3.790684291783653	0.5370731249370921	-0.3255747471377176	0.8626478720748099	92.33901707420722
20	7.0	wm	429	diff_vonmises	0.1486731557647144	8.51834435220922	1.6416981022627497	1.1412485715826084	0.233027944822202	1.783397293817241	0.168667453131984	-0.2058831585871706	0.3745506117191546	94.0638202543791
0	1.0	ltm	239	diff_vonmises	0.0012608818817336	0.0722432102878531	3.4682506512846314	0.2863300787044471	1.9979759591270616e-15	2.575892952762579	-0.2064665219151261	-0.4097683621672265	0.2033018402521003	73.66041966552683
1	1.0	perception	239	diff_vonmises	-0.0056033293756503	-0.3210471244464375	12.429503521112697	0.7219514106560468	0.0342016394784012	3.15894089673036	0.4845143142766369	-0.5093739051046863	0.9938882193813232	38.21519500019292
2	1.0	wm	239	diff_vonmises	0.0499687085147933	2.8629961056170776	4.167539742292133	0.371340021974382	1.9264260984535746e-23	2.7745015492213265	-0.1496208826577254	-0.4415055799268779	0.2918846972691525	67.03453622844555
3	2.0	ltm	239	diff_vonmises	0.0415177674580909	2.3787928501542037	3.840730241780021	0.5187029053800506	0.1312369252122539	1.8021577865945468	0.0643632052873858	-0.2773262488625808	0.3416894541499666	65.33051208558936
4	2.0	perception	239	diff_vonmises	-0.0070229663308708	-0.4023863304213788	6.992856835933712	1.3525970970041747	0.299041822676773	2.592892658360163	0.8549970214333673	-0.4338652250841572	1.2888622465175246	49.289164851541386
5	2.0	wm	239	diff_vonmises	0.0606526298105053	3.47513970451132	4.22213513137312	0.5718485435811225	0.1365190461094728	1.9977210877905465	0.0899637214734351	-0.3106895088912904	0.4006532303647255	62.52518510876811
6	3.0	ltm	239	diff_vonmises	0.0716529624918825	4.105412340394062	3.321820562592441	0.5706920759452362	0.2170088805180886	1.3531982008439143	0.1314986741114269	-0.1985686142964729	0.3300672884078999	68.92768279397268
7	3.0	perception	239	diff_vonmises	5.229563644712595e-05	0.0029963192553708	4.658004695058588	1.810807666891232	0.2184960462327992	2.543079067905341	1.014205568048853	-0.3862566666102499	1.4004622346591031	60.801450603308325
8	3.0	wm	239	diff_vonmises	-0.039193018301965	-2.245594535081592	3.680436006618903	0.6253179488593379	0.1706298149125395	1.59105027667513	0.1611238068515221	-0.2398103215651314	0.4009341284166535	66.69861847948329
9	4.0	ltm	239	diff_vonmises	-0.0906408328557335	-5.19333717418426	1.9376583129935605	1.0425641158092942	0.3295680618191224	2.7521592954534686	-0.0651732174581382	-0.350459472697197	0.2852862552390588	77.84882823077794
10	4.0	perception	239	diff_vonmises	-0.0617101798652439	-3.535732859271668	2.1461402219121646	2.9620328927918886	0.2892567286481775	4.6471358647810455	0.6269154422024564	-0.5666706035465313	1.1935860457489875	83.05311979330682
11	4.0	wm	239	diff_vonmises	-0.0501461179242609	-2.873160916025481	0.9411489554053868	285.54745486495165	0.9301567935561486	287.5016034545096	-0.0452338378444352	-0.4250132599171081	0.3797794220726729	81.0770570062146
12	5.0	ltm	239	diff_vonmises	-0.0142258431222967	-0.8150807709228118	1.8877136945596853	0.8750730884261964	1.654448856413354e-14	1.8128922719149776	0.1473736014834247	-0.2785364641384401	0.4259100656218648	99.6974385681972
13	5.0	perception	239	diff_vonmises	-0.0320886285220442	-1.8385429846762504	1.9197597579188368	2.8504235176853348	0.2598467249189655	3.646949618211824	0.6943587272501345	-0.4218778339771005	1.1162365612272351	89.46644650116792
14	5.0	wm	239	diff_vonmises	0.0709992435226358	4.067957002468579	1.3101070925509457	1.564086938504527	0.1120635606083733	2.5950535755231594	0.1639949400483676	-0.3226156086280827	0.4866105486764503	109.14860793191534
15	6.0	ltm	239	diff_vonmises	-0.103562070887997	-5.93366957951688	0.4666854801882889	170.5159946501886	0.4570159248387926	171.3381186957147	0.1099461428377424	-0.2708537409131892	0.3807998837509316	124.93381207182811
16	6.0	perception	239	diff_vonmises	-0.0622883689718126	-3.5688606548384967	0.535817682431922	210.95848022357308	0.5215997886078265	211.78023175921876	0.3568537736124071	-0.4023890122626312	0.7592427858750384	121.35994216721022
17	6.0	wm	239	diff_vonmises	-0.0053539663693734	-0.3067596766200797	0.480364302658569	167.09823378569857	0.4678807856883905	167.98390483482558	0.1749996392987824	-0.3242361582078921	0.4992357975066746	124.71652899144628
18	7.0	ltm	239	diff_vonmises	0.0708706139464699	4.06058707063372	0.8610610066984851	175.101739959972	0.8456329432427191	176.58513546943473	0.0520912302502196	-0.3483562823385462	0.4004475125887659	88.32575371637824
19	7.0	perception	239	diff_vonmises	0.0299845525519949	1.7179883118175316	1.3750947181645177	3.5148178502846448	0.2948984001174911	4.884566528022325	0.4229463629054282	-0.4795996534039131	0.9025460163093412	98.8559269286645
20	7.0	wm	239	diff_vonmises	0.1008804155954511	5.7800220491450816	0.709863297160521	71.70867632476224	0.6791035298708046	73.21475086829852	-0.0022659564697029	-0.3355585900873699	0.3332926336176669	96.39044304761264
0	1.0	ltm	118	diff_vonmises	-0.0117204219690867	-0.6715307129410791	5.859053202667654	0.4342581036634949	0.0304764286788119	3.6393021542859336	-0.1874841642466688	-0.5789247741859223	0.3914406099392534	54.90246219912356
1	1.0	perception	118	diff_vonmises	-0.0260954429790104	-1.495158747221596	13.206656793744164	0.7183270417319243	0.0328328924239929	3.924696911848062	0.3853957460619266	-0.6334153796179243	1.0188111256798509	37.04975286500664
2	1.0	wm	118	diff_vonmises	-0.0114020983719781	-0.6532921143073337	4.264962635872095	0.6441630170084309	0.1129006225280355	4.096021311274046	-0.2146887476747633	-0.6477691252003753	0.433080377525612	60.85145300650959
3	2.0	ltm	118	diff_vonmises	-0.1288083963330412	-7.380177475731653	2.388887813904208	1.3900496121081336	0.3527202626841017	3.1655467786756333	0.102434991580073	-0.4153458854165995	0.5177808769966725	74.40741915915652
4	2.0	perception	118	diff_vonmises	-0.0569668583598414	-3.263960556138466	6.954290963156011	1.1226626340686308	0.1167196339457392	2.9879409065989058	0.6255691419304833	-0.4819396205720828	1.107508762502566	50.33629822290055
5	2.0	wm	118	diff_vonmises	-0.0074001276045514	-0.4239960795990545	3.704452987464232	0.8622279228487882	0.1798335660794656	2.731028341745421	0.1194176019388925	-0.4163706541458546	0.5357882560847471	65.43818540715043
6	3.0	ltm	118	diff_vonmises	-0.0842277798257663	-4.825896301773552	1.6538488452916469	2.4654060675972658	0.4590763482920691	3.829925475649013	0.2173674893063794	-0.372538612292894	0.5899061015992734	84.93440631810708
7	3.0	perception	118	diff_vonmises	-0.040233659333424	-2.3052188741723296	3.618260553403496	2.242732804080338	0.2467075228821277	3.545278557007544	0.9205186964265646	-0.5124202791083811	1.4329389755349458	67.53671674410936
8	3.0	wm	118	diff_vonmises	-0.0617178919965425	-3.5361747318461325	1.8124900275568137	2.5012709659049874	0.5539178870743695	3.925993054325721	0.2071063835530164	-0.3827700167201652	0.5898764002731817	79.52432973871052
9	4.0	ltm	118	diff_vonmises	-0.1399343888112676	-8.017649887628323	1.9960499549594957	1.3919357652310862	0.1425117024699843	3.3819860293164368	0.0996580318533582	-0.4627844829099247	0.562442514763283	87.50912877833605
10	4.0	perception	118	diff_vonmises	-0.1127873562962293	-6.462239498212212	1.6738869240260648	4.740772720815971	0.435645300859946	6.614741223589465	0.6419476235335628	-0.6334304965793561	1.275378120112919	87.38718699363343
11	4.0	wm	118	diff_vonmises	-0.1808588862961258	-10.362450872204452	0.8564580741399789	312.67099236393125	0.8451567192536243	314.7401435747746	0.0281101989730672	-0.4700986724130516	0.4982088713861188	87.42232819657096
12	5.0	ltm	118	diff_vonmises	-0.0388787590929388	-2.227588808731266	1.119678513824699	2.6817882217594877	0.1616531026178494	3.893588778055149	0.2530674547056915	-0.4197099563043199	0.6727774110100114	113.40588835159984
13	5.0	perception	118	diff_vonmises	-0.0529707402601476	-3.0349998545901737	2.035660147293501	2.7826086484690307	0.1827528550753683	3.878030382889794	0.7160909283231641	-0.4931034423536614	1.2091943706768256	89.06086309197534
14	5.0	wm	118	diff_vonmises	-0.0826424701919156	-4.7350647505324766	0.7351517955248996	268.24912388401293	0.7241602824669701	269.3810660780388	0.2352628028846908	-0.3538920766752476	0.5891548795599384	101.10652480206568
15	6.0	ltm	118	diff_vonmises	-0.036774277550563	-2.1070108982899534	0.8593940536165823	1.6328341391419177	1.1404512688936364e-15	2.5178888115185187	0.1135787638665412	-0.3085264097317232	0.4221051735982644	134.65984447146323
16	6.0	perception	118	diff_vonmises	-0.0747303032537133	-4.281730978170536	0.7571135565459752	2.818983717012851	2.180072885563927e-17	3.677925567260333	0.2475147506433485	-0.4021424365969556	0.6496571872403041	139.3195995686265
17	6.0	wm	118	diff_vonmises	-0.1823486294589387	-10.4478068679921	0.5469615421543472	199.0012964652533	0.5370157506372698	199.78922259433315	0.1722527847966333	-0.2833119704095495	0.4555647552061828	117.83784322631656
18	7.0	ltm	118	diff_vonmises	0.0310502558974287	1.7790486157238616	0.6340040267912855	114.80156700594604	0.6099369900301657	116.01044583738302	0.2006798712569413	-0.3750940439217203	0.5757739151786616	108.95541675625796
19	7.0	perception	118	diff_vonmises	-0.0144794530715636	-0.8296115506583315	0.892645366427424	349.7935865797796	0.8799170874761623	350.74840141631404	0.5440039124786722	-0.4225538955430714	0.9665578080217436	95.00907179944906
20	7.0	wm	118	diff_vonmises	0.092106420062165	5.277309135621152	1.4680042171293548	2.83614454495595	0.5366946984229873	3.920466042654666	0.2182519965761929	-0.3150466956353327	0.5332986922115257	87.14030623709692
0	1.0	ltm	499	diff_vonmises	-0.0357044204355877	-2.0457126009198245	4.482830644389096	0.2342708753500698	8.794480875087221e-22	2.3475622680884483	-0.1820249344285514	-0.3736016675887685	0.191576733160217	64.57208313669057
1	1.0	perception	499	diff_vonmises	-0.0170461448831916	-0.9766721587754056	13.268207015034008	0.710692816586711	0.0566225669852864	2.9481077391950103	0.5265338249425542	-0.4811111233002274	1.0076449482427816	36.88764166824083
2	1.0	wm	499	diff_vonmises	0.034789500028947	1.993291523028924	6.413277038547793	0.2839583958194423	1.4164175520263485e-22	2.55710971471141	-0.1261547622017555	-0.4069758961552489	0.2808211339534934	53.770440632079385
3	2.0	ltm	499	diff_vonmises	-0.0646105799495312	-3.70191354300072	4.743106484821398	0.3978131519275235	0.0132678515360618	1.7655261342523418	0.0506172662039544	-0.2791637220400948	0.3297809882440493	62.117611769124665
4	2.0	perception	499	diff_vonmises	-0.0250557694785875	-1.4355898435757697	8.107109292839095	1.1707101766509609	0.2192337548980817	2.6443770433217915	0.7899328060296045	-0.4440917103852936	1.2340245164148982	46.26525634213891
5	2.0	wm	499	diff_vonmises	0.0456280305669714	2.614293578981375	4.517535812482389	0.4828341650682952	0.1098220752481393	2.0207267734007366	0.0386349031335532	-0.3174651510321097	0.356100054165663	60.799989829647785
6	3.0	ltm	499	diff_vonmises	0.0386349856765173	2.213621620812832	1.2780333153516168	52.12574081179319	1.2362199444657356	52.82603237722393	0.1288528483227295	-0.2069920737860231	0.3358449221087527	75.67852614006068
7	3.0	perception	499	diff_vonmises	-0.0171353270733326	-0.981781921878216	4.339222939490857	1.932407242446281	0.3320950386629245	2.640935226511546	0.9828669650682926	-0.3915222513599615	1.374389216428254	61.75917913546172
8	3.0	wm	499	diff_vonmises	-0.0576366746995779	-3.3023382054542685	2.5175669062375	1.000273296656254	0.5029759614881082	1.8997265769323275	0.1221415213289935	-0.2373672152236613	0.3595087365526549	71.13067557826705
9	4.0	ltm	499	diff_vonmises	-0.0658496372485193	-3.772906296807615	1.0685246507360209	176.86019599690346	1.0536757603568645	178.29823793333856	-0.0121019184509805	-0.3273993398786388	0.3152974214276582	76.7953050780234
10	4.0	perception	499	diff_vonmises	-0.0995848193225198	-5.705789850753238	2.1469162021747867	3.1668692560860667	0.4344994297986589	4.642652849544694	0.6159743847262595	-0.5168570046966752	1.1328313894229347	79.85016854689891
11	4.0	wm	499	diff_vonmises	-0.1389872793570834	-7.9633845131666305	1.037174619369022	270.3979947717698	1.0269478356638158	272.0201296817104	-0.0409794654029127	-0.3592276311994808	0.3182481657965681	76.9404114911359
12	5.0	ltm	499	diff_vonmises	0.059161687118486	3.38971498076274	1.99709016445998	0.949242774180532	0.1017432821231107	2.0640124727738933	0.1265076508571437	-0.2887404260491341	0.4152480769062778	90.518013758369
13	5.0	perception	499	diff_vonmises	-0.0489655457487959	-2.8055191129607606	2.6521324359449694	2.0378116005457203	0.0947430507688728	3.0744302753347683	0.7064676751011592	-0.4434411443799348	1.149908819481094	81.24554551827967
14	5.0	wm	499	diff_vonmises	0.0006716885306843	0.0384849179555571	0.6368996699809413	122.70436335203944	0.6191598779439491	123.93798691947391	0.0809545266437581	-0.3185721866180859	0.3995267132618441	105.29825562603745
15	6.0	ltm	499	diff_vonmises	-0.1365435803425393	-7.823370873232978	0.4842668671315527	132.36092917461926	0.472393127985641	133.426770100654	0.0352148728102008	-0.2807183229966217	0.3159331958068225	119.82031804188824
16	6.0	perception	499	diff_vonmises	-0.1081644032494005	-6.197363799741777	0.9286565391486472	2.294604247389625	7.262047636953094e-12	3.3942442359263096	0.2128206518742013	-0.4226676725556613	0.6354883244298626	131.51896002647655
17	6.0	wm	499	diff_vonmises	-0.1708345794510971	-9.788100397440209	0.5325803310045318	149.24986765535212	0.5202509232700746	150.34467634810423	0.0709896312090307	-0.2996393372464681	0.3706289684554988	115.6029148162706
18	7.0	ltm	499	diff_vonmises	0.1217159597217711	6.973810791441808	0.8470072077688978	126.80657491733795	0.8278280319081731	127.94928421356232	0.1111662504366322	-0.2950527649152263	0.4062190153518585	91.5345429463684
19	7.0	perception	499	diff_vonmises	-0.0657679165713547	-3.768224046907137	1.2125138085035836	5.236854643660622	0.516364495314464	6.231645304281329	0.4408967742213934	-0.3943562305279336	0.835253004749327	96.32262358723348
20	7.0	wm	499	diff_vonmises	0.1406086858686382	8.056284263153753	1.9208045493173165	1.1045611423668933	0.3079341695728922	2.2082785055568945	0.0889963739914995	-0.2674477885992635	0.3564441625907631	83.07780121269724
